#===============================================================================
# Created using the Atomic Simulation Environment (ASE)

# Mon Mar 23 00:18:04 2026

#=======================================================
lattice_vector 10.9349000000000007 0.0000000000000000 0.0000000000000000 
lattice_vector 0.0000000000000000 10.9349000000000007 0.0000000000000000 
lattice_vector 0.0000000000000000 0.0000000000000000 139.3490000000000180 
atom 0.0000000000000000 2.7337250000000002 87.4437125000000179 Ce
atom 2.7337250000000002 0.0000000000000000 87.4437125000000179 Ce
atom 4.1005875000000005 1.3668625000000001 86.0768500000000074 O
atom 4.1005875000000005 4.1005875000000005 88.8105750000000143 O
atom 4.1005875000000005 4.1005875000000005 86.0768500000000074 O
atom 4.1005875000000005 1.3668625000000001 88.8105750000000143 O
atom 0.0000000000000000 8.2011750000000010 87.4437125000000179 Ce
atom 2.7337250000000002 5.4674500000000004 87.4437125000000179 Ce
atom 4.1005875000000005 6.8343125000000002 86.0768500000000074 O
atom 4.1005875000000005 9.5680375000000026 88.8105750000000143 O
atom 4.1005875000000005 9.5680375000000026 86.0768500000000074 O
atom 4.1005875000000005 6.8343125000000002 88.8105750000000143 O
atom 5.4674500000000004 2.7337250000000002 87.4437125000000179 Ce
atom 8.2011750000000010 0.0000000000000000 87.4437125000000179 Ce
atom 6.8343125000000002 4.1005875000000005 88.8105750000000143 O
atom 6.8343125000000002 1.3668625000000001 86.0768500000000074 O
atom 6.8343125000000002 1.3668625000000001 88.8105750000000143 O
atom 6.8343125000000002 4.1005875000000005 86.0768500000000074 O
atom 5.4674500000000004 8.2011750000000010 87.4437125000000179 Ce
atom 8.2011750000000010 5.4674500000000004 87.4437125000000179 Ce
atom 6.8343125000000002 9.5680375000000026 88.8105750000000143 O
atom 6.8343125000000002 6.8343125000000002 86.0768500000000074 O
atom 6.8343125000000002 6.8343125000000002 88.8105750000000143 O
atom 6.8343125000000002 9.5680375000000026 86.0768500000000074 O
