#===============================================================================
# Created using the Atomic Simulation Environment (ASE)

# Mon Mar 23 00:18:04 2026

#=======================================================
lattice_vector 10.9349000000000007 0.0000000000000000 0.0000000000000000 
lattice_vector 0.0000000000000000 10.9349000000000007 0.0000000000000000 
lattice_vector 0.0000000000000000 0.0000000000000000 139.3490000000000180 
atom 0.0000000000000000 2.7337250000000002 92.9111625000000174 Ce
atom 2.7337250000000002 0.0000000000000000 92.9111625000000174 Ce
atom 4.1005875000000005 1.3668625000000001 91.5443000000000069 O
atom 4.1005875000000005 4.1005875000000005 94.2780250000000137 O
atom 4.1005875000000005 4.1005875000000005 91.5443000000000069 O
atom 4.1005875000000005 1.3668625000000001 94.2780250000000137 O
atom 0.0000000000000000 8.2011750000000010 92.9111625000000174 Ce
atom 2.7337250000000002 5.4674500000000004 92.9111625000000174 Ce
atom 4.1005875000000005 6.8343125000000002 91.5443000000000069 O
atom 4.1005875000000005 9.5680375000000026 94.2780250000000137 O
atom 4.1005875000000005 9.5680375000000026 91.5443000000000069 O
atom 4.1005875000000005 6.8343125000000002 94.2780250000000137 O
atom 5.4674500000000004 2.7337250000000002 92.9111625000000174 Ce
atom 8.2011750000000010 0.0000000000000000 92.9111625000000174 Ce
atom 6.8343125000000002 4.1005875000000005 94.2780250000000137 O
atom 6.8343125000000002 1.3668625000000001 91.5443000000000069 O
atom 6.8343125000000002 1.3668625000000001 94.2780250000000137 O
atom 6.8343125000000002 4.1005875000000005 91.5443000000000069 O
atom 5.4674500000000004 8.2011750000000010 92.9111625000000174 Ce
atom 8.2011750000000010 5.4674500000000004 92.9111625000000174 Ce
atom 6.8343125000000002 9.5680375000000026 94.2780250000000137 O
atom 6.8343125000000002 6.8343125000000002 91.5443000000000069 O
atom 6.8343125000000002 6.8343125000000002 94.2780250000000137 O
atom 6.8343125000000002 9.5680375000000026 91.5443000000000069 O
