#===============================================================================
# Created using the Atomic Simulation Environment (ASE)

# Mon Mar 23 00:18:05 2026

#=======================================================
lattice_vector 10.9349000000000007 0.0000000000000000 0.0000000000000000 
lattice_vector 0.0000000000000000 10.9349000000000007 0.0000000000000000 
lattice_vector 0.0000000000000000 0.0000000000000000 139.3490000000000180 
atom 4.1005875000000005 4.1005875000000005 83.3431250000000148 O
atom 4.1005875000000005 1.3668625000000001 83.3431250000000148 O
atom 0.0000000000000000 0.0000000000000000 84.7099875000000111 Ce
atom 0.0000000000000000 2.7337250000000002 87.4437125000000179 Ce
atom 2.7337250000000002 0.0000000000000000 87.4437125000000179 Ce
atom 2.7337250000000002 2.7337250000000002 84.7099875000000111 Ce
atom 1.3668625000000001 4.1005875000000005 88.8105750000000143 O
atom 4.1005875000000005 1.3668625000000001 86.0768500000000074 O
atom 1.3668625000000001 1.3668625000000001 86.0768500000000074 O
atom 4.1005875000000005 4.1005875000000005 88.8105750000000143 O
atom 4.1005875000000005 4.1005875000000005 86.0768500000000074 O
atom 1.3668625000000001 1.3668625000000001 88.8105750000000143 O
atom 4.1005875000000005 1.3668625000000001 88.8105750000000143 O
atom 1.3668625000000001 4.1005875000000005 86.0768500000000074 O
atom 4.1005875000000005 9.5680375000000026 83.3431250000000148 O
atom 4.1005875000000005 6.8343125000000002 83.3431250000000148 O
atom 0.0000000000000000 5.4674500000000004 84.7099875000000111 Ce
atom 0.0000000000000000 8.2011750000000010 87.4437125000000179 Ce
atom 2.7337250000000002 5.4674500000000004 87.4437125000000179 Ce
atom 2.7337250000000002 8.2011750000000010 84.7099875000000111 Ce
atom 1.3668625000000001 9.5680375000000026 88.8105750000000143 O
atom 4.1005875000000005 6.8343125000000002 86.0768500000000074 O
atom 1.3668625000000001 6.8343125000000002 86.0768500000000074 O
atom 4.1005875000000005 9.5680375000000026 88.8105750000000143 O
atom 4.1005875000000005 9.5680375000000026 86.0768500000000074 O
atom 1.3668625000000001 6.8343125000000002 88.8105750000000143 O
atom 4.1005875000000005 6.8343125000000002 88.8105750000000143 O
atom 1.3668625000000001 9.5680375000000026 86.0768500000000074 O
atom 6.8343125000000002 4.1005875000000005 83.3431250000000148 O
atom 6.8343125000000002 1.3668625000000001 83.3431250000000148 O
atom 5.4674500000000004 0.0000000000000000 84.7099875000000111 Ce
atom 5.4674500000000004 2.7337250000000002 87.4437125000000179 Ce
atom 8.2011750000000010 0.0000000000000000 87.4437125000000179 Ce
atom 8.2011750000000010 2.7337250000000002 84.7099875000000111 Ce
atom 6.8343125000000002 4.1005875000000005 88.8105750000000143 O
atom 9.5680375000000026 1.3668625000000001 86.0768500000000074 O
atom 6.8343125000000002 1.3668625000000001 86.0768500000000074 O
atom 9.5680375000000026 4.1005875000000005 88.8105750000000143 O
atom 9.5680375000000026 4.1005875000000005 86.0768500000000074 O
atom 6.8343125000000002 1.3668625000000001 88.8105750000000143 O
atom 9.5680375000000026 1.3668625000000001 88.8105750000000143 O
atom 6.8343125000000002 4.1005875000000005 86.0768500000000074 O
atom 6.8343125000000002 9.5680375000000026 83.3431250000000148 O
atom 6.8343125000000002 6.8343125000000002 83.3431250000000148 O
atom 5.4674500000000004 5.4674500000000004 84.7099875000000111 Ce
atom 5.4674500000000004 8.2011750000000010 87.4437125000000179 Ce
atom 8.2011750000000010 5.4674500000000004 87.4437125000000179 Ce
atom 8.2011750000000010 8.2011750000000010 84.7099875000000111 Ce
atom 6.8343125000000002 9.5680375000000026 88.8105750000000143 O
atom 9.5680375000000026 6.8343125000000002 86.0768500000000074 O
atom 6.8343125000000002 6.8343125000000002 86.0768500000000074 O
atom 9.5680375000000026 9.5680375000000026 88.8105750000000143 O
atom 9.5680375000000026 9.5680375000000026 86.0768500000000074 O
atom 6.8343125000000002 6.8343125000000002 88.8105750000000143 O
atom 9.5680375000000026 6.8343125000000002 88.8105750000000143 O
atom 6.8343125000000002 9.5680375000000026 86.0768500000000074 O
atom 0.0000000000000000 0.0000000000000000 90.1774375000000106 Ce
atom 0.0000000000000000 2.7337250000000002 92.9111625000000174 Ce
atom 2.7337250000000002 0.0000000000000000 92.9111625000000174 Ce
atom 2.7337250000000002 2.7337250000000002 90.1774375000000106 Ce
atom 1.3668625000000001 4.1005875000000005 94.2780250000000137 O
atom 4.1005875000000005 1.3668625000000001 91.5443000000000069 O
atom 1.3668625000000001 1.3668625000000001 91.5443000000000069 O
atom 4.1005875000000005 4.1005875000000005 94.2780250000000137 O
atom 4.1005875000000005 4.1005875000000005 91.5443000000000069 O
atom 1.3668625000000001 1.3668625000000001 94.2780250000000137 O
atom 4.1005875000000005 1.3668625000000001 94.2780250000000137 O
atom 1.3668625000000001 4.1005875000000005 91.5443000000000069 O
atom 0.0000000000000000 0.0000000000000000 95.6448875000000100 Ce
atom 0.0000000000000000 2.7337250000000002 98.3786125000000169 Ce
atom 2.7337250000000002 0.0000000000000000 98.3786125000000169 Ce
atom 2.7337250000000002 2.7337250000000002 95.6448875000000100 Ce
atom 1.3668625000000001 4.1005875000000005 99.7454750000000132 O
atom 4.1005875000000005 1.3668625000000001 97.0117500000000064 O
atom 1.3668625000000001 1.3668625000000001 97.0117500000000064 O
atom 4.1005875000000005 4.1005875000000005 99.7454750000000132 O
atom 4.1005875000000005 4.1005875000000005 97.0117500000000064 O
atom 1.3668625000000001 1.3668625000000001 99.7454750000000132 O
atom 4.1005875000000005 1.3668625000000001 99.7454750000000132 O
atom 1.3668625000000001 4.1005875000000005 97.0117500000000064 O
atom 0.0000000000000000 5.4674500000000004 90.1774375000000106 Ce
atom 0.0000000000000000 8.2011750000000010 92.9111625000000174 Ce
atom 2.7337250000000002 5.4674500000000004 92.9111625000000174 Ce
atom 2.7337250000000002 8.2011750000000010 90.1774375000000106 Ce
atom 1.3668625000000001 9.5680375000000026 94.2780250000000137 O
atom 4.1005875000000005 6.8343125000000002 91.5443000000000069 O
atom 1.3668625000000001 6.8343125000000002 91.5443000000000069 O
atom 4.1005875000000005 9.5680375000000026 94.2780250000000137 O
atom 4.1005875000000005 9.5680375000000026 91.5443000000000069 O
atom 1.3668625000000001 6.8343125000000002 94.2780250000000137 O
atom 4.1005875000000005 6.8343125000000002 94.2780250000000137 O
atom 1.3668625000000001 9.5680375000000026 91.5443000000000069 O
atom 0.0000000000000000 5.4674500000000004 95.6448875000000100 Ce
atom 0.0000000000000000 8.2011750000000010 98.3786125000000169 Ce
atom 2.7337250000000002 5.4674500000000004 98.3786125000000169 Ce
atom 2.7337250000000002 8.2011750000000010 95.6448875000000100 Ce
atom 1.3668625000000001 9.5680375000000026 99.7454750000000132 O
atom 4.1005875000000005 6.8343125000000002 97.0117500000000064 O
atom 1.3668625000000001 6.8343125000000002 97.0117500000000064 O
atom 4.1005875000000005 9.5680375000000026 99.7454750000000132 O
atom 4.1005875000000005 9.5680375000000026 97.0117500000000064 O
atom 1.3668625000000001 6.8343125000000002 99.7454750000000132 O
atom 4.1005875000000005 6.8343125000000002 99.7454750000000132 O
atom 1.3668625000000001 9.5680375000000026 97.0117500000000064 O
atom 5.4674500000000004 0.0000000000000000 90.1774375000000106 Ce
atom 5.4674500000000004 2.7337250000000002 92.9111625000000174 Ce
atom 8.2011750000000010 0.0000000000000000 92.9111625000000174 Ce
atom 8.2011750000000010 2.7337250000000002 90.1774375000000106 Ce
atom 6.8343125000000002 4.1005875000000005 94.2780250000000137 O
atom 9.5680375000000026 1.3668625000000001 91.5443000000000069 O
atom 6.8343125000000002 1.3668625000000001 91.5443000000000069 O
atom 9.5680375000000026 4.1005875000000005 94.2780250000000137 O
atom 9.5680375000000026 4.1005875000000005 91.5443000000000069 O
atom 6.8343125000000002 1.3668625000000001 94.2780250000000137 O
atom 9.5680375000000026 1.3668625000000001 94.2780250000000137 O
atom 6.8343125000000002 4.1005875000000005 91.5443000000000069 O
atom 5.4674500000000004 0.0000000000000000 95.6448875000000100 Ce
atom 5.4674500000000004 2.7337250000000002 98.3786125000000169 Ce
atom 8.2011750000000010 0.0000000000000000 98.3786125000000169 Ce
atom 8.2011750000000010 2.7337250000000002 95.6448875000000100 Ce
atom 6.8343125000000002 4.1005875000000005 99.7454750000000132 O
atom 9.5680375000000026 1.3668625000000001 97.0117500000000064 O
atom 6.8343125000000002 1.3668625000000001 97.0117500000000064 O
atom 9.5680375000000026 4.1005875000000005 99.7454750000000132 O
atom 9.5680375000000026 4.1005875000000005 97.0117500000000064 O
atom 6.8343125000000002 1.3668625000000001 99.7454750000000132 O
atom 9.5680375000000026 1.3668625000000001 99.7454750000000132 O
atom 6.8343125000000002 4.1005875000000005 97.0117500000000064 O
atom 5.4674500000000004 5.4674500000000004 90.1774375000000106 Ce
atom 5.4674500000000004 8.2011750000000010 92.9111625000000174 Ce
atom 8.2011750000000010 5.4674500000000004 92.9111625000000174 Ce
atom 8.2011750000000010 8.2011750000000010 90.1774375000000106 Ce
atom 6.8343125000000002 9.5680375000000026 94.2780250000000137 O
atom 9.5680375000000026 6.8343125000000002 91.5443000000000069 O
atom 6.8343125000000002 6.8343125000000002 91.5443000000000069 O
atom 9.5680375000000026 9.5680375000000026 94.2780250000000137 O
atom 9.5680375000000026 9.5680375000000026 91.5443000000000069 O
atom 6.8343125000000002 6.8343125000000002 94.2780250000000137 O
atom 9.5680375000000026 6.8343125000000002 94.2780250000000137 O
atom 6.8343125000000002 9.5680375000000026 91.5443000000000069 O
atom 5.4674500000000004 5.4674500000000004 95.6448875000000100 Ce
atom 5.4674500000000004 8.2011750000000010 98.3786125000000169 Ce
atom 8.2011750000000010 5.4674500000000004 98.3786125000000169 Ce
atom 8.2011750000000010 8.2011750000000010 95.6448875000000100 Ce
atom 6.8343125000000002 9.5680375000000026 99.7454750000000132 O
atom 9.5680375000000026 6.8343125000000002 97.0117500000000064 O
atom 6.8343125000000002 6.8343125000000002 97.0117500000000064 O
atom 9.5680375000000026 9.5680375000000026 99.7454750000000132 O
atom 9.5680375000000026 9.5680375000000026 97.0117500000000064 O
atom 6.8343125000000002 6.8343125000000002 99.7454750000000132 O
atom 9.5680375000000026 6.8343125000000002 99.7454750000000132 O
atom 6.8343125000000002 9.5680375000000026 97.0117500000000064 O
atom 0.0000000000000000 0.0000000000000000 101.1123375000000095 Ce
atom 2.7337250000000002 2.7337250000000002 101.1123375000000095 Ce
atom 4.1005875000000005 1.3668625000000001 102.4792000000000058 O
atom 4.1005875000000005 4.1005875000000005 102.4792000000000058 O
atom 0.0000000000000000 5.4674500000000004 101.1123375000000095 Ce
atom 2.7337250000000002 8.2011750000000010 101.1123375000000095 Ce
atom 4.1005875000000005 6.8343125000000002 102.4792000000000058 O
atom 4.1005875000000005 9.5680375000000026 102.4792000000000058 O
atom 5.4674500000000004 0.0000000000000000 101.1123375000000095 Ce
atom 8.2011750000000010 2.7337250000000002 101.1123375000000095 Ce
atom 6.8343125000000002 1.3668625000000001 102.4792000000000058 O
atom 6.8343125000000002 4.1005875000000005 102.4792000000000058 O
atom 5.4674500000000004 5.4674500000000004 101.1123375000000095 Ce
atom 8.2011750000000010 8.2011750000000010 101.1123375000000095 Ce
atom 6.8343125000000002 6.8343125000000002 102.4792000000000058 O
atom 6.8343125000000002 9.5680375000000026 102.4792000000000058 O
