#===============================================================================
# Created using the Atomic Simulation Environment (ASE)

# Mon Mar 23 00:18:05 2026

#=======================================================
lattice_vector 10.9349000000000007 0.0000000000000000 0.0000000000000000 
lattice_vector 0.0000000000000000 10.9349000000000007 0.0000000000000000 
lattice_vector 0.0000000000000000 0.0000000000000000 139.3490000000000180 
atom 4.1005875000000005 4.1005875000000005 94.2780250000000137 O
atom 4.1005875000000005 1.3668625000000001 94.2780250000000137 O
atom 0.0000000000000000 0.0000000000000000 95.6448875000000100 Ce
atom 0.0000000000000000 2.7337250000000002 98.3786125000000169 Ce
atom 2.7337250000000002 0.0000000000000000 98.3786125000000169 Ce
atom 2.7337250000000002 2.7337250000000002 95.6448875000000100 Ce
atom 1.3668625000000001 4.1005875000000005 99.7454750000000132 O
atom 4.1005875000000005 1.3668625000000001 97.0117500000000064 O
atom 1.3668625000000001 1.3668625000000001 97.0117500000000064 O
atom 4.1005875000000005 4.1005875000000005 99.7454750000000132 O
atom 4.1005875000000005 4.1005875000000005 97.0117500000000064 O
atom 1.3668625000000001 1.3668625000000001 99.7454750000000132 O
atom 4.1005875000000005 1.3668625000000001 99.7454750000000132 O
atom 1.3668625000000001 4.1005875000000005 97.0117500000000064 O
atom 4.1005875000000005 9.5680375000000026 94.2780250000000137 O
atom 4.1005875000000005 6.8343125000000002 94.2780250000000137 O
atom 0.0000000000000000 5.4674500000000004 95.6448875000000100 Ce
atom 0.0000000000000000 8.2011750000000010 98.3786125000000169 Ce
atom 2.7337250000000002 5.4674500000000004 98.3786125000000169 Ce
atom 2.7337250000000002 8.2011750000000010 95.6448875000000100 Ce
atom 1.3668625000000001 9.5680375000000026 99.7454750000000132 O
atom 4.1005875000000005 6.8343125000000002 97.0117500000000064 O
atom 1.3668625000000001 6.8343125000000002 97.0117500000000064 O
atom 4.1005875000000005 9.5680375000000026 99.7454750000000132 O
atom 4.1005875000000005 9.5680375000000026 97.0117500000000064 O
atom 1.3668625000000001 6.8343125000000002 99.7454750000000132 O
atom 4.1005875000000005 6.8343125000000002 99.7454750000000132 O
atom 1.3668625000000001 9.5680375000000026 97.0117500000000064 O
atom 6.8343125000000002 4.1005875000000005 94.2780250000000137 O
atom 6.8343125000000002 1.3668625000000001 94.2780250000000137 O
atom 5.4674500000000004 0.0000000000000000 95.6448875000000100 Ce
atom 5.4674500000000004 2.7337250000000002 98.3786125000000169 Ce
atom 8.2011750000000010 0.0000000000000000 98.3786125000000169 Ce
atom 8.2011750000000010 2.7337250000000002 95.6448875000000100 Ce
atom 6.8343125000000002 4.1005875000000005 99.7454750000000132 O
atom 9.5680375000000026 1.3668625000000001 97.0117500000000064 O
atom 6.8343125000000002 1.3668625000000001 97.0117500000000064 O
atom 9.5680375000000026 4.1005875000000005 99.7454750000000132 O
atom 9.5680375000000026 4.1005875000000005 97.0117500000000064 O
atom 6.8343125000000002 1.3668625000000001 99.7454750000000132 O
atom 9.5680375000000026 1.3668625000000001 99.7454750000000132 O
atom 6.8343125000000002 4.1005875000000005 97.0117500000000064 O
atom 6.8343125000000002 9.5680375000000026 94.2780250000000137 O
atom 6.8343125000000002 6.8343125000000002 94.2780250000000137 O
atom 5.4674500000000004 5.4674500000000004 95.6448875000000100 Ce
atom 5.4674500000000004 8.2011750000000010 98.3786125000000169 Ce
atom 8.2011750000000010 5.4674500000000004 98.3786125000000169 Ce
atom 8.2011750000000010 8.2011750000000010 95.6448875000000100 Ce
atom 6.8343125000000002 9.5680375000000026 99.7454750000000132 O
atom 9.5680375000000026 6.8343125000000002 97.0117500000000064 O
atom 6.8343125000000002 6.8343125000000002 97.0117500000000064 O
atom 9.5680375000000026 9.5680375000000026 99.7454750000000132 O
atom 9.5680375000000026 9.5680375000000026 97.0117500000000064 O
atom 6.8343125000000002 6.8343125000000002 99.7454750000000132 O
atom 9.5680375000000026 6.8343125000000002 99.7454750000000132 O
atom 6.8343125000000002 9.5680375000000026 97.0117500000000064 O
atom 0.0000000000000000 0.0000000000000000 101.1123375000000095 Ce
atom 0.0000000000000000 2.7337250000000002 103.8460625000000164 Ce
atom 2.7337250000000002 0.0000000000000000 103.8460625000000164 Ce
atom 2.7337250000000002 2.7337250000000002 101.1123375000000095 Ce
atom 1.3668625000000001 4.1005875000000005 105.2129250000000127 O
atom 4.1005875000000005 1.3668625000000001 102.4792000000000058 O
atom 1.3668625000000001 1.3668625000000001 102.4792000000000058 O
atom 4.1005875000000005 4.1005875000000005 105.2129250000000127 O
atom 4.1005875000000005 4.1005875000000005 102.4792000000000058 O
atom 1.3668625000000001 1.3668625000000001 105.2129250000000127 O
atom 4.1005875000000005 1.3668625000000001 105.2129250000000127 O
atom 1.3668625000000001 4.1005875000000005 102.4792000000000058 O
atom 0.0000000000000000 0.0000000000000000 106.5797875000000090 Ce
atom 0.0000000000000000 2.7337250000000002 109.3135125000000158 Ce
atom 2.7337250000000002 0.0000000000000000 109.3135125000000158 Ce
atom 2.7337250000000002 2.7337250000000002 106.5797875000000090 Ce
atom 1.3668625000000001 4.1005875000000005 110.6803750000000122 O
atom 4.1005875000000005 1.3668625000000001 107.9466500000000053 O
atom 1.3668625000000001 1.3668625000000001 107.9466500000000053 O
atom 4.1005875000000005 4.1005875000000005 110.6803750000000122 O
atom 4.1005875000000005 4.1005875000000005 107.9466500000000053 O
atom 1.3668625000000001 1.3668625000000001 110.6803750000000122 O
atom 4.1005875000000005 1.3668625000000001 110.6803750000000122 O
atom 1.3668625000000001 4.1005875000000005 107.9466500000000053 O
atom 0.0000000000000000 5.4674500000000004 101.1123375000000095 Ce
atom 0.0000000000000000 8.2011750000000010 103.8460625000000164 Ce
atom 2.7337250000000002 5.4674500000000004 103.8460625000000164 Ce
atom 2.7337250000000002 8.2011750000000010 101.1123375000000095 Ce
atom 1.3668625000000001 9.5680375000000026 105.2129250000000127 O
atom 4.1005875000000005 6.8343125000000002 102.4792000000000058 O
atom 1.3668625000000001 6.8343125000000002 102.4792000000000058 O
atom 4.1005875000000005 9.5680375000000026 105.2129250000000127 O
atom 4.1005875000000005 9.5680375000000026 102.4792000000000058 O
atom 1.3668625000000001 6.8343125000000002 105.2129250000000127 O
atom 4.1005875000000005 6.8343125000000002 105.2129250000000127 O
atom 1.3668625000000001 9.5680375000000026 102.4792000000000058 O
atom 0.0000000000000000 5.4674500000000004 106.5797875000000090 Ce
atom 0.0000000000000000 8.2011750000000010 109.3135125000000158 Ce
atom 2.7337250000000002 5.4674500000000004 109.3135125000000158 Ce
atom 2.7337250000000002 8.2011750000000010 106.5797875000000090 Ce
atom 1.3668625000000001 9.5680375000000026 110.6803750000000122 O
atom 4.1005875000000005 6.8343125000000002 107.9466500000000053 O
atom 1.3668625000000001 6.8343125000000002 107.9466500000000053 O
atom 4.1005875000000005 9.5680375000000026 110.6803750000000122 O
atom 4.1005875000000005 9.5680375000000026 107.9466500000000053 O
atom 1.3668625000000001 6.8343125000000002 110.6803750000000122 O
atom 4.1005875000000005 6.8343125000000002 110.6803750000000122 O
atom 1.3668625000000001 9.5680375000000026 107.9466500000000053 O
atom 5.4674500000000004 0.0000000000000000 101.1123375000000095 Ce
atom 5.4674500000000004 2.7337250000000002 103.8460625000000164 Ce
atom 8.2011750000000010 0.0000000000000000 103.8460625000000164 Ce
atom 8.2011750000000010 2.7337250000000002 101.1123375000000095 Ce
atom 6.8343125000000002 4.1005875000000005 105.2129250000000127 O
atom 9.5680375000000026 1.3668625000000001 102.4792000000000058 O
atom 6.8343125000000002 1.3668625000000001 102.4792000000000058 O
atom 9.5680375000000026 4.1005875000000005 105.2129250000000127 O
atom 9.5680375000000026 4.1005875000000005 102.4792000000000058 O
atom 6.8343125000000002 1.3668625000000001 105.2129250000000127 O
atom 9.5680375000000026 1.3668625000000001 105.2129250000000127 O
atom 6.8343125000000002 4.1005875000000005 102.4792000000000058 O
atom 5.4674500000000004 0.0000000000000000 106.5797875000000090 Ce
atom 5.4674500000000004 2.7337250000000002 109.3135125000000158 Ce
atom 8.2011750000000010 0.0000000000000000 109.3135125000000158 Ce
atom 8.2011750000000010 2.7337250000000002 106.5797875000000090 Ce
atom 6.8343125000000002 4.1005875000000005 110.6803750000000122 O
atom 9.5680375000000026 1.3668625000000001 107.9466500000000053 O
atom 6.8343125000000002 1.3668625000000001 107.9466500000000053 O
atom 9.5680375000000026 4.1005875000000005 110.6803750000000122 O
atom 9.5680375000000026 4.1005875000000005 107.9466500000000053 O
atom 6.8343125000000002 1.3668625000000001 110.6803750000000122 O
atom 9.5680375000000026 1.3668625000000001 110.6803750000000122 O
atom 6.8343125000000002 4.1005875000000005 107.9466500000000053 O
atom 5.4674500000000004 5.4674500000000004 101.1123375000000095 Ce
atom 5.4674500000000004 8.2011750000000010 103.8460625000000164 Ce
atom 8.2011750000000010 5.4674500000000004 103.8460625000000164 Ce
atom 8.2011750000000010 8.2011750000000010 101.1123375000000095 Ce
atom 6.8343125000000002 9.5680375000000026 105.2129250000000127 O
atom 9.5680375000000026 6.8343125000000002 102.4792000000000058 O
atom 6.8343125000000002 6.8343125000000002 102.4792000000000058 O
atom 9.5680375000000026 9.5680375000000026 105.2129250000000127 O
atom 9.5680375000000026 9.5680375000000026 102.4792000000000058 O
atom 6.8343125000000002 6.8343125000000002 105.2129250000000127 O
atom 9.5680375000000026 6.8343125000000002 105.2129250000000127 O
atom 6.8343125000000002 9.5680375000000026 102.4792000000000058 O
atom 5.4674500000000004 5.4674500000000004 106.5797875000000090 Ce
atom 5.4674500000000004 8.2011750000000010 109.3135125000000158 Ce
atom 8.2011750000000010 5.4674500000000004 109.3135125000000158 Ce
atom 8.2011750000000010 8.2011750000000010 106.5797875000000090 Ce
atom 6.8343125000000002 9.5680375000000026 110.6803750000000122 O
atom 9.5680375000000026 6.8343125000000002 107.9466500000000053 O
atom 6.8343125000000002 6.8343125000000002 107.9466500000000053 O
atom 9.5680375000000026 9.5680375000000026 110.6803750000000122 O
atom 9.5680375000000026 9.5680375000000026 107.9466500000000053 O
atom 6.8343125000000002 6.8343125000000002 110.6803750000000122 O
atom 9.5680375000000026 6.8343125000000002 110.6803750000000122 O
atom 6.8343125000000002 9.5680375000000026 107.9466500000000053 O
atom 0.0000000000000000 0.0000000000000000 112.0472375000000085 Ce
atom 0.0000000000000000 2.7337250000000002 114.7809625000000153 Ce
atom 2.7337250000000002 0.0000000000000000 114.7809625000000153 Ce
atom 2.7337250000000002 2.7337250000000002 112.0472375000000085 Ce
atom 1.3668625000000001 4.1005875000000005 116.1478250000000116 O
atom 4.1005875000000005 1.3668625000000001 113.4141000000000048 O
atom 1.3668625000000001 1.3668625000000001 113.4141000000000048 O
atom 4.1005875000000005 4.1005875000000005 116.1478250000000116 O
atom 4.1005875000000005 4.1005875000000005 113.4141000000000048 O
atom 1.3668625000000001 1.3668625000000001 116.1478250000000116 O
atom 4.1005875000000005 1.3668625000000001 116.1478250000000116 O
atom 1.3668625000000001 4.1005875000000005 113.4141000000000048 O
atom 0.0000000000000000 0.0000000000000000 117.5146875000000080 Ce
atom 0.0000000000000000 2.7337250000000002 120.2484125000000148 Ce
atom 2.7337250000000002 0.0000000000000000 120.2484125000000148 Ce
atom 2.7337250000000002 2.7337250000000002 117.5146875000000080 Ce
atom 4.1005875000000005 1.3668625000000001 118.8815500000000185 O
atom 1.3668625000000001 1.3668625000000001 118.8815500000000185 O
atom 4.1005875000000005 4.1005875000000005 121.6152750000000253 O
atom 4.1005875000000005 4.1005875000000005 118.8815500000000185 O
atom 4.1005875000000005 1.3668625000000001 121.6152750000000253 O
atom 1.3668625000000001 4.1005875000000005 118.8815500000000185 O
atom 0.0000000000000000 5.4674500000000004 112.0472375000000085 Ce
atom 0.0000000000000000 8.2011750000000010 114.7809625000000153 Ce
atom 2.7337250000000002 5.4674500000000004 114.7809625000000153 Ce
atom 2.7337250000000002 8.2011750000000010 112.0472375000000085 Ce
atom 1.3668625000000001 9.5680375000000026 116.1478250000000116 O
atom 4.1005875000000005 6.8343125000000002 113.4141000000000048 O
atom 1.3668625000000001 6.8343125000000002 113.4141000000000048 O
atom 4.1005875000000005 9.5680375000000026 116.1478250000000116 O
atom 4.1005875000000005 9.5680375000000026 113.4141000000000048 O
atom 1.3668625000000001 6.8343125000000002 116.1478250000000116 O
atom 4.1005875000000005 6.8343125000000002 116.1478250000000116 O
atom 1.3668625000000001 9.5680375000000026 113.4141000000000048 O
atom 0.0000000000000000 5.4674500000000004 117.5146875000000080 Ce
atom 0.0000000000000000 8.2011750000000010 120.2484125000000148 Ce
atom 2.7337250000000002 5.4674500000000004 120.2484125000000148 Ce
atom 2.7337250000000002 8.2011750000000010 117.5146875000000080 Ce
atom 4.1005875000000005 6.8343125000000002 118.8815500000000185 O
atom 1.3668625000000001 6.8343125000000002 118.8815500000000185 O
atom 4.1005875000000005 9.5680375000000026 121.6152750000000253 O
atom 4.1005875000000005 9.5680375000000026 118.8815500000000185 O
atom 4.1005875000000005 6.8343125000000002 121.6152750000000253 O
atom 1.3668625000000001 9.5680375000000026 118.8815500000000185 O
atom 5.4674500000000004 0.0000000000000000 112.0472375000000085 Ce
atom 5.4674500000000004 2.7337250000000002 114.7809625000000153 Ce
atom 8.2011750000000010 0.0000000000000000 114.7809625000000153 Ce
atom 8.2011750000000010 2.7337250000000002 112.0472375000000085 Ce
atom 6.8343125000000002 4.1005875000000005 116.1478250000000116 O
atom 9.5680375000000026 1.3668625000000001 113.4141000000000048 O
atom 6.8343125000000002 1.3668625000000001 113.4141000000000048 O
atom 9.5680375000000026 4.1005875000000005 116.1478250000000116 O
atom 9.5680375000000026 4.1005875000000005 113.4141000000000048 O
atom 6.8343125000000002 1.3668625000000001 116.1478250000000116 O
atom 9.5680375000000026 1.3668625000000001 116.1478250000000116 O
atom 6.8343125000000002 4.1005875000000005 113.4141000000000048 O
atom 5.4674500000000004 0.0000000000000000 117.5146875000000080 Ce
atom 5.4674500000000004 2.7337250000000002 120.2484125000000148 Ce
atom 8.2011750000000010 0.0000000000000000 120.2484125000000148 Ce
atom 8.2011750000000010 2.7337250000000002 117.5146875000000080 Ce
atom 6.8343125000000002 4.1005875000000005 121.6152750000000253 O
atom 9.5680375000000026 1.3668625000000001 118.8815500000000185 O
atom 6.8343125000000002 1.3668625000000001 118.8815500000000185 O
atom 9.5680375000000026 4.1005875000000005 118.8815500000000185 O
atom 6.8343125000000002 1.3668625000000001 121.6152750000000253 O
atom 6.8343125000000002 4.1005875000000005 118.8815500000000185 O
atom 5.4674500000000004 5.4674500000000004 112.0472375000000085 Ce
atom 5.4674500000000004 8.2011750000000010 114.7809625000000153 Ce
atom 8.2011750000000010 5.4674500000000004 114.7809625000000153 Ce
atom 8.2011750000000010 8.2011750000000010 112.0472375000000085 Ce
atom 6.8343125000000002 9.5680375000000026 116.1478250000000116 O
atom 9.5680375000000026 6.8343125000000002 113.4141000000000048 O
atom 6.8343125000000002 6.8343125000000002 113.4141000000000048 O
atom 9.5680375000000026 9.5680375000000026 116.1478250000000116 O
atom 9.5680375000000026 9.5680375000000026 113.4141000000000048 O
atom 6.8343125000000002 6.8343125000000002 116.1478250000000116 O
atom 9.5680375000000026 6.8343125000000002 116.1478250000000116 O
atom 6.8343125000000002 9.5680375000000026 113.4141000000000048 O
atom 5.4674500000000004 5.4674500000000004 117.5146875000000080 Ce
atom 5.4674500000000004 8.2011750000000010 120.2484125000000148 Ce
atom 8.2011750000000010 5.4674500000000004 120.2484125000000148 Ce
atom 8.2011750000000010 8.2011750000000010 117.5146875000000080 Ce
atom 6.8343125000000002 9.5680375000000026 121.6152750000000253 O
atom 9.5680375000000026 6.8343125000000002 118.8815500000000185 O
atom 6.8343125000000002 6.8343125000000002 118.8815500000000185 O
atom 9.5680375000000026 9.5680375000000026 118.8815500000000185 O
atom 6.8343125000000002 6.8343125000000002 121.6152750000000253 O
atom 6.8343125000000002 9.5680375000000026 118.8815500000000185 O
