#===============================================================================
# Created using the Atomic Simulation Environment (ASE)

# Mon Mar 23 00:18:04 2026

#=======================================================
lattice_vector 10.9349000000000007 0.0000000000000000 0.0000000000000000 
lattice_vector 0.0000000000000000 10.9349000000000007 0.0000000000000000 
lattice_vector 0.0000000000000000 0.0000000000000000 139.3490000000000180 
atom 4.1005875000000005 4.1005875000000005 45.0709750000000042 O
atom 4.1005875000000005 1.3668625000000001 45.0709750000000042 O
atom 4.1005875000000005 9.5680375000000026 45.0709750000000042 O
atom 4.1005875000000005 6.8343125000000002 45.0709750000000042 O
atom 6.8343125000000002 4.1005875000000005 45.0709750000000042 O
atom 6.8343125000000002 1.3668625000000001 45.0709750000000042 O
atom 6.8343125000000002 9.5680375000000026 45.0709750000000042 O
atom 6.8343125000000002 6.8343125000000002 45.0709750000000042 O
atom 0.0000000000000000 0.0000000000000000 46.4378375000000077 Ce
atom 0.0000000000000000 2.7337250000000002 49.1715625000000074 Ce
atom 2.7337250000000002 0.0000000000000000 49.1715625000000074 Ce
atom 2.7337250000000002 2.7337250000000002 46.4378375000000077 Ce
atom 1.3668625000000001 4.1005875000000005 50.5384250000000108 O
atom 4.1005875000000005 1.3668625000000001 47.8047000000000111 O
atom 1.3668625000000001 1.3668625000000001 47.8047000000000111 O
atom 4.1005875000000005 4.1005875000000005 50.5384250000000108 O
atom 4.1005875000000005 4.1005875000000005 47.8047000000000111 O
atom 1.3668625000000001 1.3668625000000001 50.5384250000000108 O
atom 4.1005875000000005 1.3668625000000001 50.5384250000000108 O
atom 1.3668625000000001 4.1005875000000005 47.8047000000000111 O
atom 0.0000000000000000 0.0000000000000000 51.9052875000000071 Ce
atom 0.0000000000000000 2.7337250000000002 54.6390125000000069 Ce
atom 2.7337250000000002 0.0000000000000000 54.6390125000000069 Ce
atom 2.7337250000000002 2.7337250000000002 51.9052875000000071 Ce
atom 4.1005875000000005 1.3668625000000001 53.2721500000000106 O
atom 1.3668625000000001 1.3668625000000001 53.2721500000000106 O
atom 4.1005875000000005 4.1005875000000005 56.0058750000000103 O
atom 4.1005875000000005 4.1005875000000005 53.2721500000000106 O
atom 4.1005875000000005 1.3668625000000001 56.0058750000000103 O
atom 1.3668625000000001 4.1005875000000005 53.2721500000000106 O
atom 0.0000000000000000 5.4674500000000004 46.4378375000000077 Ce
atom 0.0000000000000000 8.2011750000000010 49.1715625000000074 Ce
atom 2.7337250000000002 5.4674500000000004 49.1715625000000074 Ce
atom 2.7337250000000002 8.2011750000000010 46.4378375000000077 Ce
atom 1.3668625000000001 9.5680375000000026 50.5384250000000108 O
atom 4.1005875000000005 6.8343125000000002 47.8047000000000111 O
atom 1.3668625000000001 6.8343125000000002 47.8047000000000111 O
atom 4.1005875000000005 9.5680375000000026 50.5384250000000108 O
atom 4.1005875000000005 9.5680375000000026 47.8047000000000111 O
atom 1.3668625000000001 6.8343125000000002 50.5384250000000108 O
atom 4.1005875000000005 6.8343125000000002 50.5384250000000108 O
atom 1.3668625000000001 9.5680375000000026 47.8047000000000111 O
atom 0.0000000000000000 5.4674500000000004 51.9052875000000071 Ce
atom 0.0000000000000000 8.2011750000000010 54.6390125000000069 Ce
atom 2.7337250000000002 5.4674500000000004 54.6390125000000069 Ce
atom 2.7337250000000002 8.2011750000000010 51.9052875000000071 Ce
atom 4.1005875000000005 6.8343125000000002 53.2721500000000106 O
atom 1.3668625000000001 6.8343125000000002 53.2721500000000106 O
atom 4.1005875000000005 9.5680375000000026 56.0058750000000103 O
atom 4.1005875000000005 9.5680375000000026 53.2721500000000106 O
atom 4.1005875000000005 6.8343125000000002 56.0058750000000103 O
atom 1.3668625000000001 9.5680375000000026 53.2721500000000106 O
atom 5.4674500000000004 0.0000000000000000 46.4378375000000077 Ce
atom 5.4674500000000004 2.7337250000000002 49.1715625000000074 Ce
atom 8.2011750000000010 0.0000000000000000 49.1715625000000074 Ce
atom 8.2011750000000010 2.7337250000000002 46.4378375000000077 Ce
atom 6.8343125000000002 4.1005875000000005 50.5384250000000108 O
atom 9.5680375000000026 1.3668625000000001 47.8047000000000111 O
atom 6.8343125000000002 1.3668625000000001 47.8047000000000111 O
atom 9.5680375000000026 4.1005875000000005 50.5384250000000108 O
atom 9.5680375000000026 4.1005875000000005 47.8047000000000111 O
atom 6.8343125000000002 1.3668625000000001 50.5384250000000108 O
atom 9.5680375000000026 1.3668625000000001 50.5384250000000108 O
atom 6.8343125000000002 4.1005875000000005 47.8047000000000111 O
atom 5.4674500000000004 0.0000000000000000 51.9052875000000071 Ce
atom 5.4674500000000004 2.7337250000000002 54.6390125000000069 Ce
atom 8.2011750000000010 0.0000000000000000 54.6390125000000069 Ce
atom 8.2011750000000010 2.7337250000000002 51.9052875000000071 Ce
atom 6.8343125000000002 4.1005875000000005 56.0058750000000103 O
atom 9.5680375000000026 1.3668625000000001 53.2721500000000106 O
atom 6.8343125000000002 1.3668625000000001 53.2721500000000106 O
atom 9.5680375000000026 4.1005875000000005 53.2721500000000106 O
atom 6.8343125000000002 1.3668625000000001 56.0058750000000103 O
atom 6.8343125000000002 4.1005875000000005 53.2721500000000106 O
atom 5.4674500000000004 5.4674500000000004 46.4378375000000077 Ce
atom 5.4674500000000004 8.2011750000000010 49.1715625000000074 Ce
atom 8.2011750000000010 5.4674500000000004 49.1715625000000074 Ce
atom 8.2011750000000010 8.2011750000000010 46.4378375000000077 Ce
atom 6.8343125000000002 9.5680375000000026 50.5384250000000108 O
atom 9.5680375000000026 6.8343125000000002 47.8047000000000111 O
atom 6.8343125000000002 6.8343125000000002 47.8047000000000111 O
atom 9.5680375000000026 9.5680375000000026 50.5384250000000108 O
atom 9.5680375000000026 9.5680375000000026 47.8047000000000111 O
atom 6.8343125000000002 6.8343125000000002 50.5384250000000108 O
atom 9.5680375000000026 6.8343125000000002 50.5384250000000108 O
atom 6.8343125000000002 9.5680375000000026 47.8047000000000111 O
atom 5.4674500000000004 5.4674500000000004 51.9052875000000071 Ce
atom 5.4674500000000004 8.2011750000000010 54.6390125000000069 Ce
atom 8.2011750000000010 5.4674500000000004 54.6390125000000069 Ce
atom 8.2011750000000010 8.2011750000000010 51.9052875000000071 Ce
atom 6.8343125000000002 9.5680375000000026 56.0058750000000103 O
atom 9.5680375000000026 6.8343125000000002 53.2721500000000106 O
atom 6.8343125000000002 6.8343125000000002 53.2721500000000106 O
atom 9.5680375000000026 9.5680375000000026 53.2721500000000106 O
atom 6.8343125000000002 6.8343125000000002 56.0058750000000103 O
atom 6.8343125000000002 9.5680375000000026 53.2721500000000106 O
