#===============================================================================
# Created using the Atomic Simulation Environment (ASE)

# Mon Mar 23 00:18:04 2026

#=======================================================
lattice_vector 10.9349000000000007 0.0000000000000000 0.0000000000000000 
lattice_vector 0.0000000000000000 10.9349000000000007 0.0000000000000000 
lattice_vector 0.0000000000000000 0.0000000000000000 139.3490000000000180 
atom 4.1005875000000005 4.1005875000000005 50.5384250000000108 O
atom 4.1005875000000005 1.3668625000000001 50.5384250000000108 O
atom 0.0000000000000000 0.0000000000000000 51.9052875000000071 Ce
atom 2.7337250000000002 2.7337250000000002 51.9052875000000071 Ce
atom 4.1005875000000005 1.3668625000000001 53.2721500000000106 O
atom 4.1005875000000005 4.1005875000000005 53.2721500000000106 O
atom 4.1005875000000005 9.5680375000000026 50.5384250000000108 O
atom 4.1005875000000005 6.8343125000000002 50.5384250000000108 O
atom 0.0000000000000000 5.4674500000000004 51.9052875000000071 Ce
atom 2.7337250000000002 8.2011750000000010 51.9052875000000071 Ce
atom 4.1005875000000005 6.8343125000000002 53.2721500000000106 O
atom 4.1005875000000005 9.5680375000000026 53.2721500000000106 O
atom 6.8343125000000002 4.1005875000000005 50.5384250000000108 O
atom 6.8343125000000002 1.3668625000000001 50.5384250000000108 O
atom 5.4674500000000004 0.0000000000000000 51.9052875000000071 Ce
atom 8.2011750000000010 2.7337250000000002 51.9052875000000071 Ce
atom 6.8343125000000002 1.3668625000000001 53.2721500000000106 O
atom 6.8343125000000002 4.1005875000000005 53.2721500000000106 O
atom 6.8343125000000002 9.5680375000000026 50.5384250000000108 O
atom 6.8343125000000002 6.8343125000000002 50.5384250000000108 O
atom 5.4674500000000004 5.4674500000000004 51.9052875000000071 Ce
atom 8.2011750000000010 8.2011750000000010 51.9052875000000071 Ce
atom 6.8343125000000002 6.8343125000000002 53.2721500000000106 O
atom 6.8343125000000002 9.5680375000000026 53.2721500000000106 O
