#===============================================================================
# Created using the Atomic Simulation Environment (ASE)

# Mon Mar 23 00:18:06 2026

#=======================================================
lattice_vector 10.9349000000000007 0.0000000000000000 0.0000000000000000 
lattice_vector 0.0000000000000000 10.9349000000000007 0.0000000000000000 
lattice_vector 0.0000000000000000 0.0000000000000000 139.3490000000000180 
atom 4.1005875000000005 4.1005875000000005 45.0709750000000042 O
atom 4.1005875000000005 1.3668625000000001 45.0709750000000042 O
atom 4.1005875000000005 9.5680375000000026 45.0709750000000042 O
atom 4.1005875000000005 6.8343125000000002 45.0709750000000042 O
atom 6.8343125000000002 4.1005875000000005 45.0709750000000042 O
atom 6.8343125000000002 1.3668625000000001 45.0709750000000042 O
atom 6.8343125000000002 9.5680375000000026 45.0709750000000042 O
atom 6.8343125000000002 6.8343125000000002 45.0709750000000042 O
atom 0.0000000000000000 0.0000000000000000 46.4378375000000077 Ce
atom 0.0000000000000000 2.7337250000000002 49.1715625000000074 Ce
atom 2.7337250000000002 0.0000000000000000 49.1715625000000074 Ce
atom 2.7337250000000002 2.7337250000000002 46.4378375000000077 Ce
atom 1.3668625000000001 4.1005875000000005 50.5384250000000108 O
atom 4.1005875000000005 1.3668625000000001 47.8047000000000111 O
atom 1.3668625000000001 1.3668625000000001 47.8047000000000111 O
atom 4.1005875000000005 4.1005875000000005 50.5384250000000108 O
atom 4.1005875000000005 4.1005875000000005 47.8047000000000111 O
atom 1.3668625000000001 1.3668625000000001 50.5384250000000108 O
atom 4.1005875000000005 1.3668625000000001 50.5384250000000108 O
atom 1.3668625000000001 4.1005875000000005 47.8047000000000111 O
atom 0.0000000000000000 0.0000000000000000 51.9052875000000071 Ce
atom 0.0000000000000000 2.7337250000000002 54.6390125000000069 Ce
atom 2.7337250000000002 0.0000000000000000 54.6390125000000069 Ce
atom 2.7337250000000002 2.7337250000000002 51.9052875000000071 Ce
atom 1.3668625000000001 4.1005875000000005 56.0058750000000103 O
atom 4.1005875000000005 1.3668625000000001 53.2721500000000106 O
atom 1.3668625000000001 1.3668625000000001 53.2721500000000106 O
atom 4.1005875000000005 4.1005875000000005 56.0058750000000103 O
atom 4.1005875000000005 4.1005875000000005 53.2721500000000106 O
atom 1.3668625000000001 1.3668625000000001 56.0058750000000103 O
atom 4.1005875000000005 1.3668625000000001 56.0058750000000103 O
atom 1.3668625000000001 4.1005875000000005 53.2721500000000106 O
atom 0.0000000000000000 5.4674500000000004 46.4378375000000077 Ce
atom 0.0000000000000000 8.2011750000000010 49.1715625000000074 Ce
atom 2.7337250000000002 5.4674500000000004 49.1715625000000074 Ce
atom 2.7337250000000002 8.2011750000000010 46.4378375000000077 Ce
atom 1.3668625000000001 9.5680375000000026 50.5384250000000108 O
atom 4.1005875000000005 6.8343125000000002 47.8047000000000111 O
atom 1.3668625000000001 6.8343125000000002 47.8047000000000111 O
atom 4.1005875000000005 9.5680375000000026 50.5384250000000108 O
atom 4.1005875000000005 9.5680375000000026 47.8047000000000111 O
atom 1.3668625000000001 6.8343125000000002 50.5384250000000108 O
atom 4.1005875000000005 6.8343125000000002 50.5384250000000108 O
atom 1.3668625000000001 9.5680375000000026 47.8047000000000111 O
atom 0.0000000000000000 5.4674500000000004 51.9052875000000071 Ce
atom 0.0000000000000000 8.2011750000000010 54.6390125000000069 Ce
atom 2.7337250000000002 5.4674500000000004 54.6390125000000069 Ce
atom 2.7337250000000002 8.2011750000000010 51.9052875000000071 Ce
atom 1.3668625000000001 9.5680375000000026 56.0058750000000103 O
atom 4.1005875000000005 6.8343125000000002 53.2721500000000106 O
atom 1.3668625000000001 6.8343125000000002 53.2721500000000106 O
atom 4.1005875000000005 9.5680375000000026 56.0058750000000103 O
atom 4.1005875000000005 9.5680375000000026 53.2721500000000106 O
atom 1.3668625000000001 6.8343125000000002 56.0058750000000103 O
atom 4.1005875000000005 6.8343125000000002 56.0058750000000103 O
atom 1.3668625000000001 9.5680375000000026 53.2721500000000106 O
atom 5.4674500000000004 0.0000000000000000 46.4378375000000077 Ce
atom 5.4674500000000004 2.7337250000000002 49.1715625000000074 Ce
atom 8.2011750000000010 0.0000000000000000 49.1715625000000074 Ce
atom 8.2011750000000010 2.7337250000000002 46.4378375000000077 Ce
atom 6.8343125000000002 4.1005875000000005 50.5384250000000108 O
atom 9.5680375000000026 1.3668625000000001 47.8047000000000111 O
atom 6.8343125000000002 1.3668625000000001 47.8047000000000111 O
atom 9.5680375000000026 4.1005875000000005 50.5384250000000108 O
atom 9.5680375000000026 4.1005875000000005 47.8047000000000111 O
atom 6.8343125000000002 1.3668625000000001 50.5384250000000108 O
atom 9.5680375000000026 1.3668625000000001 50.5384250000000108 O
atom 6.8343125000000002 4.1005875000000005 47.8047000000000111 O
atom 5.4674500000000004 0.0000000000000000 51.9052875000000071 Ce
atom 5.4674500000000004 2.7337250000000002 54.6390125000000069 Ce
atom 8.2011750000000010 0.0000000000000000 54.6390125000000069 Ce
atom 8.2011750000000010 2.7337250000000002 51.9052875000000071 Ce
atom 6.8343125000000002 4.1005875000000005 56.0058750000000103 O
atom 9.5680375000000026 1.3668625000000001 53.2721500000000106 O
atom 6.8343125000000002 1.3668625000000001 53.2721500000000106 O
atom 9.5680375000000026 4.1005875000000005 56.0058750000000103 O
atom 9.5680375000000026 4.1005875000000005 53.2721500000000106 O
atom 6.8343125000000002 1.3668625000000001 56.0058750000000103 O
atom 9.5680375000000026 1.3668625000000001 56.0058750000000103 O
atom 6.8343125000000002 4.1005875000000005 53.2721500000000106 O
atom 5.4674500000000004 5.4674500000000004 46.4378375000000077 Ce
atom 5.4674500000000004 8.2011750000000010 49.1715625000000074 Ce
atom 8.2011750000000010 5.4674500000000004 49.1715625000000074 Ce
atom 8.2011750000000010 8.2011750000000010 46.4378375000000077 Ce
atom 6.8343125000000002 9.5680375000000026 50.5384250000000108 O
atom 9.5680375000000026 6.8343125000000002 47.8047000000000111 O
atom 6.8343125000000002 6.8343125000000002 47.8047000000000111 O
atom 9.5680375000000026 9.5680375000000026 50.5384250000000108 O
atom 9.5680375000000026 9.5680375000000026 47.8047000000000111 O
atom 6.8343125000000002 6.8343125000000002 50.5384250000000108 O
atom 9.5680375000000026 6.8343125000000002 50.5384250000000108 O
atom 6.8343125000000002 9.5680375000000026 47.8047000000000111 O
atom 5.4674500000000004 5.4674500000000004 51.9052875000000071 Ce
atom 5.4674500000000004 8.2011750000000010 54.6390125000000069 Ce
atom 8.2011750000000010 5.4674500000000004 54.6390125000000069 Ce
atom 8.2011750000000010 8.2011750000000010 51.9052875000000071 Ce
atom 6.8343125000000002 9.5680375000000026 56.0058750000000103 O
atom 9.5680375000000026 6.8343125000000002 53.2721500000000106 O
atom 6.8343125000000002 6.8343125000000002 53.2721500000000106 O
atom 9.5680375000000026 9.5680375000000026 56.0058750000000103 O
atom 9.5680375000000026 9.5680375000000026 53.2721500000000106 O
atom 6.8343125000000002 6.8343125000000002 56.0058750000000103 O
atom 9.5680375000000026 6.8343125000000002 56.0058750000000103 O
atom 6.8343125000000002 9.5680375000000026 53.2721500000000106 O
atom 0.0000000000000000 0.0000000000000000 57.3727375000000066 Ce
atom 0.0000000000000000 2.7337250000000002 60.1064625000000063 Ce
atom 2.7337250000000002 0.0000000000000000 60.1064625000000063 Ce
atom 2.7337250000000002 2.7337250000000002 57.3727375000000066 Ce
atom 1.3668625000000001 4.1005875000000005 61.4733250000000098 O
atom 4.1005875000000005 1.3668625000000001 58.7396000000000100 O
atom 1.3668625000000001 1.3668625000000001 58.7396000000000100 O
atom 4.1005875000000005 4.1005875000000005 61.4733250000000098 O
atom 4.1005875000000005 4.1005875000000005 58.7396000000000100 O
atom 1.3668625000000001 1.3668625000000001 61.4733250000000098 O
atom 4.1005875000000005 1.3668625000000001 61.4733250000000098 O
atom 1.3668625000000001 4.1005875000000005 58.7396000000000100 O
atom 0.0000000000000000 0.0000000000000000 62.8401875000000061 Ce
atom 0.0000000000000000 2.7337250000000002 65.5739125000000058 Ce
atom 2.7337250000000002 0.0000000000000000 65.5739125000000058 Ce
atom 2.7337250000000002 2.7337250000000002 62.8401875000000061 Ce
atom 1.3668625000000001 4.1005875000000005 66.9407750000000021 O
atom 4.1005875000000005 1.3668625000000001 64.2070500000000095 O
atom 1.3668625000000001 1.3668625000000001 64.2070500000000095 O
atom 4.1005875000000005 4.1005875000000005 66.9407750000000021 O
atom 4.1005875000000005 4.1005875000000005 64.2070500000000095 O
atom 1.3668625000000001 1.3668625000000001 66.9407750000000021 O
atom 4.1005875000000005 1.3668625000000001 66.9407750000000021 O
atom 1.3668625000000001 4.1005875000000005 64.2070500000000095 O
atom 0.0000000000000000 5.4674500000000004 57.3727375000000066 Ce
atom 0.0000000000000000 8.2011750000000010 60.1064625000000063 Ce
atom 2.7337250000000002 5.4674500000000004 60.1064625000000063 Ce
atom 2.7337250000000002 8.2011750000000010 57.3727375000000066 Ce
atom 1.3668625000000001 9.5680375000000026 61.4733250000000098 O
atom 4.1005875000000005 6.8343125000000002 58.7396000000000100 O
atom 1.3668625000000001 6.8343125000000002 58.7396000000000100 O
atom 4.1005875000000005 9.5680375000000026 61.4733250000000098 O
atom 4.1005875000000005 9.5680375000000026 58.7396000000000100 O
atom 1.3668625000000001 6.8343125000000002 61.4733250000000098 O
atom 4.1005875000000005 6.8343125000000002 61.4733250000000098 O
atom 1.3668625000000001 9.5680375000000026 58.7396000000000100 O
atom 0.0000000000000000 5.4674500000000004 62.8401875000000061 Ce
atom 0.0000000000000000 8.2011750000000010 65.5739125000000058 Ce
atom 2.7337250000000002 5.4674500000000004 65.5739125000000058 Ce
atom 2.7337250000000002 8.2011750000000010 62.8401875000000061 Ce
atom 1.3668625000000001 9.5680375000000026 66.9407750000000021 O
atom 4.1005875000000005 6.8343125000000002 64.2070500000000095 O
atom 1.3668625000000001 6.8343125000000002 64.2070500000000095 O
atom 4.1005875000000005 9.5680375000000026 66.9407750000000021 O
atom 4.1005875000000005 9.5680375000000026 64.2070500000000095 O
atom 1.3668625000000001 6.8343125000000002 66.9407750000000021 O
atom 4.1005875000000005 6.8343125000000002 66.9407750000000021 O
atom 1.3668625000000001 9.5680375000000026 64.2070500000000095 O
atom 5.4674500000000004 0.0000000000000000 57.3727375000000066 Ce
atom 5.4674500000000004 2.7337250000000002 60.1064625000000063 Ce
atom 8.2011750000000010 0.0000000000000000 60.1064625000000063 Ce
atom 8.2011750000000010 2.7337250000000002 57.3727375000000066 Ce
atom 6.8343125000000002 4.1005875000000005 61.4733250000000098 O
atom 9.5680375000000026 1.3668625000000001 58.7396000000000100 O
atom 6.8343125000000002 1.3668625000000001 58.7396000000000100 O
atom 9.5680375000000026 4.1005875000000005 61.4733250000000098 O
atom 9.5680375000000026 4.1005875000000005 58.7396000000000100 O
atom 6.8343125000000002 1.3668625000000001 61.4733250000000098 O
atom 9.5680375000000026 1.3668625000000001 61.4733250000000098 O
atom 6.8343125000000002 4.1005875000000005 58.7396000000000100 O
atom 5.4674500000000004 0.0000000000000000 62.8401875000000061 Ce
atom 5.4674500000000004 2.7337250000000002 65.5739125000000058 Ce
atom 8.2011750000000010 0.0000000000000000 65.5739125000000058 Ce
atom 8.2011750000000010 2.7337250000000002 62.8401875000000061 Ce
atom 6.8343125000000002 4.1005875000000005 66.9407750000000021 O
atom 9.5680375000000026 1.3668625000000001 64.2070500000000095 O
atom 6.8343125000000002 1.3668625000000001 64.2070500000000095 O
atom 9.5680375000000026 4.1005875000000005 66.9407750000000021 O
atom 9.5680375000000026 4.1005875000000005 64.2070500000000095 O
atom 6.8343125000000002 1.3668625000000001 66.9407750000000021 O
atom 9.5680375000000026 1.3668625000000001 66.9407750000000021 O
atom 6.8343125000000002 4.1005875000000005 64.2070500000000095 O
atom 5.4674500000000004 5.4674500000000004 57.3727375000000066 Ce
atom 5.4674500000000004 8.2011750000000010 60.1064625000000063 Ce
atom 8.2011750000000010 5.4674500000000004 60.1064625000000063 Ce
atom 8.2011750000000010 8.2011750000000010 57.3727375000000066 Ce
atom 6.8343125000000002 9.5680375000000026 61.4733250000000098 O
atom 9.5680375000000026 6.8343125000000002 58.7396000000000100 O
atom 6.8343125000000002 6.8343125000000002 58.7396000000000100 O
atom 9.5680375000000026 9.5680375000000026 61.4733250000000098 O
atom 9.5680375000000026 9.5680375000000026 58.7396000000000100 O
atom 6.8343125000000002 6.8343125000000002 61.4733250000000098 O
atom 9.5680375000000026 6.8343125000000002 61.4733250000000098 O
atom 6.8343125000000002 9.5680375000000026 58.7396000000000100 O
atom 5.4674500000000004 5.4674500000000004 62.8401875000000061 Ce
atom 5.4674500000000004 8.2011750000000010 65.5739125000000058 Ce
atom 8.2011750000000010 5.4674500000000004 65.5739125000000058 Ce
atom 8.2011750000000010 8.2011750000000010 62.8401875000000061 Ce
atom 6.8343125000000002 9.5680375000000026 66.9407750000000021 O
atom 9.5680375000000026 6.8343125000000002 64.2070500000000095 O
atom 6.8343125000000002 6.8343125000000002 64.2070500000000095 O
atom 9.5680375000000026 9.5680375000000026 66.9407750000000021 O
atom 9.5680375000000026 9.5680375000000026 64.2070500000000095 O
atom 6.8343125000000002 6.8343125000000002 66.9407750000000021 O
atom 9.5680375000000026 6.8343125000000002 66.9407750000000021 O
atom 6.8343125000000002 9.5680375000000026 64.2070500000000095 O
atom 0.0000000000000000 0.0000000000000000 68.3076375000000127 Ce
atom 0.0000000000000000 2.7337250000000002 71.0413625000000053 Ce
atom 2.7337250000000002 0.0000000000000000 71.0413625000000053 Ce
atom 2.7337250000000002 2.7337250000000002 68.3076375000000127 Ce
atom 1.3668625000000001 4.1005875000000005 72.4082250000000158 O
atom 4.1005875000000005 1.3668625000000001 69.6745000000000090 O
atom 1.3668625000000001 1.3668625000000001 69.6745000000000090 O
atom 4.1005875000000005 4.1005875000000005 72.4082250000000158 O
atom 4.1005875000000005 4.1005875000000005 69.6745000000000090 O
atom 1.3668625000000001 1.3668625000000001 72.4082250000000158 O
atom 4.1005875000000005 1.3668625000000001 72.4082250000000158 O
atom 1.3668625000000001 4.1005875000000005 69.6745000000000090 O
atom 0.0000000000000000 0.0000000000000000 73.7750874999999979 Ce
atom 0.0000000000000000 2.7337250000000002 76.5088125000000048 Ce
atom 2.7337250000000002 0.0000000000000000 76.5088125000000048 Ce
atom 2.7337250000000002 2.7337250000000002 73.7750874999999979 Ce
atom 1.3668625000000001 4.1005875000000005 77.8756750000000011 O
atom 4.1005875000000005 1.3668625000000001 75.1419500000000085 O
atom 1.3668625000000001 1.3668625000000001 75.1419500000000085 O
atom 4.1005875000000005 4.1005875000000005 77.8756750000000011 O
atom 4.1005875000000005 4.1005875000000005 75.1419500000000085 O
atom 1.3668625000000001 1.3668625000000001 77.8756750000000011 O
atom 4.1005875000000005 1.3668625000000001 77.8756750000000011 O
atom 1.3668625000000001 4.1005875000000005 75.1419500000000085 O
atom 0.0000000000000000 5.4674500000000004 68.3076375000000127 Ce
atom 0.0000000000000000 8.2011750000000010 71.0413625000000053 Ce
atom 2.7337250000000002 5.4674500000000004 71.0413625000000053 Ce
atom 2.7337250000000002 8.2011750000000010 68.3076375000000127 Ce
atom 1.3668625000000001 9.5680375000000026 72.4082250000000158 O
atom 4.1005875000000005 6.8343125000000002 69.6745000000000090 O
atom 1.3668625000000001 6.8343125000000002 69.6745000000000090 O
atom 4.1005875000000005 9.5680375000000026 72.4082250000000158 O
atom 4.1005875000000005 9.5680375000000026 69.6745000000000090 O
atom 1.3668625000000001 6.8343125000000002 72.4082250000000158 O
atom 4.1005875000000005 6.8343125000000002 72.4082250000000158 O
atom 1.3668625000000001 9.5680375000000026 69.6745000000000090 O
atom 0.0000000000000000 5.4674500000000004 73.7750874999999979 Ce
atom 0.0000000000000000 8.2011750000000010 76.5088125000000048 Ce
atom 2.7337250000000002 5.4674500000000004 76.5088125000000048 Ce
atom 2.7337250000000002 8.2011750000000010 73.7750874999999979 Ce
atom 1.3668625000000001 9.5680375000000026 77.8756750000000011 O
atom 4.1005875000000005 6.8343125000000002 75.1419500000000085 O
atom 1.3668625000000001 6.8343125000000002 75.1419500000000085 O
atom 4.1005875000000005 9.5680375000000026 77.8756750000000011 O
atom 4.1005875000000005 9.5680375000000026 75.1419500000000085 O
atom 1.3668625000000001 6.8343125000000002 77.8756750000000011 O
atom 4.1005875000000005 6.8343125000000002 77.8756750000000011 O
atom 1.3668625000000001 9.5680375000000026 75.1419500000000085 O
atom 5.4674500000000004 0.0000000000000000 68.3076375000000127 Ce
atom 5.4674500000000004 2.7337250000000002 71.0413625000000053 Ce
atom 8.2011750000000010 0.0000000000000000 71.0413625000000053 Ce
atom 8.2011750000000010 2.7337250000000002 68.3076375000000127 Ce
atom 6.8343125000000002 4.1005875000000005 72.4082250000000158 O
atom 9.5680375000000026 1.3668625000000001 69.6745000000000090 O
atom 6.8343125000000002 1.3668625000000001 69.6745000000000090 O
atom 9.5680375000000026 4.1005875000000005 72.4082250000000158 O
atom 9.5680375000000026 4.1005875000000005 69.6745000000000090 O
atom 6.8343125000000002 1.3668625000000001 72.4082250000000158 O
atom 9.5680375000000026 1.3668625000000001 72.4082250000000158 O
atom 6.8343125000000002 4.1005875000000005 69.6745000000000090 O
atom 5.4674500000000004 0.0000000000000000 73.7750874999999979 Ce
atom 5.4674500000000004 2.7337250000000002 76.5088125000000048 Ce
atom 8.2011750000000010 0.0000000000000000 76.5088125000000048 Ce
atom 8.2011750000000010 2.7337250000000002 73.7750874999999979 Ce
atom 6.8343125000000002 4.1005875000000005 77.8756750000000011 O
atom 9.5680375000000026 1.3668625000000001 75.1419500000000085 O
atom 6.8343125000000002 1.3668625000000001 75.1419500000000085 O
atom 9.5680375000000026 4.1005875000000005 77.8756750000000011 O
atom 9.5680375000000026 4.1005875000000005 75.1419500000000085 O
atom 6.8343125000000002 1.3668625000000001 77.8756750000000011 O
atom 9.5680375000000026 1.3668625000000001 77.8756750000000011 O
atom 6.8343125000000002 4.1005875000000005 75.1419500000000085 O
atom 5.4674500000000004 5.4674500000000004 68.3076375000000127 Ce
atom 5.4674500000000004 8.2011750000000010 71.0413625000000053 Ce
atom 8.2011750000000010 5.4674500000000004 71.0413625000000053 Ce
atom 8.2011750000000010 8.2011750000000010 68.3076375000000127 Ce
atom 6.8343125000000002 9.5680375000000026 72.4082250000000158 O
atom 9.5680375000000026 6.8343125000000002 69.6745000000000090 O
atom 6.8343125000000002 6.8343125000000002 69.6745000000000090 O
atom 9.5680375000000026 9.5680375000000026 72.4082250000000158 O
atom 9.5680375000000026 9.5680375000000026 69.6745000000000090 O
atom 6.8343125000000002 6.8343125000000002 72.4082250000000158 O
atom 9.5680375000000026 6.8343125000000002 72.4082250000000158 O
atom 6.8343125000000002 9.5680375000000026 69.6745000000000090 O
atom 5.4674500000000004 5.4674500000000004 73.7750874999999979 Ce
atom 5.4674500000000004 8.2011750000000010 76.5088125000000048 Ce
atom 8.2011750000000010 5.4674500000000004 76.5088125000000048 Ce
atom 8.2011750000000010 8.2011750000000010 73.7750874999999979 Ce
atom 6.8343125000000002 9.5680375000000026 77.8756750000000011 O
atom 9.5680375000000026 6.8343125000000002 75.1419500000000085 O
atom 6.8343125000000002 6.8343125000000002 75.1419500000000085 O
atom 9.5680375000000026 9.5680375000000026 77.8756750000000011 O
atom 9.5680375000000026 9.5680375000000026 75.1419500000000085 O
atom 6.8343125000000002 6.8343125000000002 77.8756750000000011 O
atom 9.5680375000000026 6.8343125000000002 77.8756750000000011 O
atom 6.8343125000000002 9.5680375000000026 75.1419500000000085 O
atom 0.0000000000000000 0.0000000000000000 79.2425375000000116 Ce
atom 0.0000000000000000 2.7337250000000002 81.9762625000000185 Ce
atom 2.7337250000000002 0.0000000000000000 81.9762625000000185 Ce
atom 2.7337250000000002 2.7337250000000002 79.2425375000000116 Ce
atom 1.3668625000000001 4.1005875000000005 83.3431250000000148 O
atom 4.1005875000000005 1.3668625000000001 80.6094000000000079 O
atom 1.3668625000000001 1.3668625000000001 80.6094000000000079 O
atom 4.1005875000000005 4.1005875000000005 83.3431250000000148 O
atom 4.1005875000000005 4.1005875000000005 80.6094000000000079 O
atom 1.3668625000000001 1.3668625000000001 83.3431250000000148 O
atom 4.1005875000000005 1.3668625000000001 83.3431250000000148 O
atom 1.3668625000000001 4.1005875000000005 80.6094000000000079 O
atom 0.0000000000000000 0.0000000000000000 84.7099875000000111 Ce
atom 0.0000000000000000 2.7337250000000002 87.4437125000000179 Ce
atom 2.7337250000000002 0.0000000000000000 87.4437125000000179 Ce
atom 2.7337250000000002 2.7337250000000002 84.7099875000000111 Ce
atom 4.1005875000000005 1.3668625000000001 86.0768500000000074 O
atom 1.3668625000000001 1.3668625000000001 86.0768500000000074 O
atom 4.1005875000000005 4.1005875000000005 88.8105750000000143 O
atom 4.1005875000000005 4.1005875000000005 86.0768500000000074 O
atom 4.1005875000000005 1.3668625000000001 88.8105750000000143 O
atom 1.3668625000000001 4.1005875000000005 86.0768500000000074 O
atom 0.0000000000000000 5.4674500000000004 79.2425375000000116 Ce
atom 0.0000000000000000 8.2011750000000010 81.9762625000000185 Ce
atom 2.7337250000000002 5.4674500000000004 81.9762625000000185 Ce
atom 2.7337250000000002 8.2011750000000010 79.2425375000000116 Ce
atom 1.3668625000000001 9.5680375000000026 83.3431250000000148 O
atom 4.1005875000000005 6.8343125000000002 80.6094000000000079 O
atom 1.3668625000000001 6.8343125000000002 80.6094000000000079 O
atom 4.1005875000000005 9.5680375000000026 83.3431250000000148 O
atom 4.1005875000000005 9.5680375000000026 80.6094000000000079 O
atom 1.3668625000000001 6.8343125000000002 83.3431250000000148 O
atom 4.1005875000000005 6.8343125000000002 83.3431250000000148 O
atom 1.3668625000000001 9.5680375000000026 80.6094000000000079 O
atom 0.0000000000000000 5.4674500000000004 84.7099875000000111 Ce
atom 0.0000000000000000 8.2011750000000010 87.4437125000000179 Ce
atom 2.7337250000000002 5.4674500000000004 87.4437125000000179 Ce
atom 2.7337250000000002 8.2011750000000010 84.7099875000000111 Ce
atom 4.1005875000000005 6.8343125000000002 86.0768500000000074 O
atom 1.3668625000000001 6.8343125000000002 86.0768500000000074 O
atom 4.1005875000000005 9.5680375000000026 88.8105750000000143 O
atom 4.1005875000000005 9.5680375000000026 86.0768500000000074 O
atom 4.1005875000000005 6.8343125000000002 88.8105750000000143 O
atom 1.3668625000000001 9.5680375000000026 86.0768500000000074 O
atom 5.4674500000000004 0.0000000000000000 79.2425375000000116 Ce
atom 5.4674500000000004 2.7337250000000002 81.9762625000000185 Ce
atom 8.2011750000000010 0.0000000000000000 81.9762625000000185 Ce
atom 8.2011750000000010 2.7337250000000002 79.2425375000000116 Ce
atom 6.8343125000000002 4.1005875000000005 83.3431250000000148 O
atom 9.5680375000000026 1.3668625000000001 80.6094000000000079 O
atom 6.8343125000000002 1.3668625000000001 80.6094000000000079 O
atom 9.5680375000000026 4.1005875000000005 83.3431250000000148 O
atom 9.5680375000000026 4.1005875000000005 80.6094000000000079 O
atom 6.8343125000000002 1.3668625000000001 83.3431250000000148 O
atom 9.5680375000000026 1.3668625000000001 83.3431250000000148 O
atom 6.8343125000000002 4.1005875000000005 80.6094000000000079 O
atom 5.4674500000000004 0.0000000000000000 84.7099875000000111 Ce
atom 5.4674500000000004 2.7337250000000002 87.4437125000000179 Ce
atom 8.2011750000000010 0.0000000000000000 87.4437125000000179 Ce
atom 8.2011750000000010 2.7337250000000002 84.7099875000000111 Ce
atom 6.8343125000000002 4.1005875000000005 88.8105750000000143 O
atom 9.5680375000000026 1.3668625000000001 86.0768500000000074 O
atom 6.8343125000000002 1.3668625000000001 86.0768500000000074 O
atom 9.5680375000000026 4.1005875000000005 86.0768500000000074 O
atom 6.8343125000000002 1.3668625000000001 88.8105750000000143 O
atom 6.8343125000000002 4.1005875000000005 86.0768500000000074 O
atom 5.4674500000000004 5.4674500000000004 79.2425375000000116 Ce
atom 5.4674500000000004 8.2011750000000010 81.9762625000000185 Ce
atom 8.2011750000000010 5.4674500000000004 81.9762625000000185 Ce
atom 8.2011750000000010 8.2011750000000010 79.2425375000000116 Ce
atom 6.8343125000000002 9.5680375000000026 83.3431250000000148 O
atom 9.5680375000000026 6.8343125000000002 80.6094000000000079 O
atom 6.8343125000000002 6.8343125000000002 80.6094000000000079 O
atom 9.5680375000000026 9.5680375000000026 83.3431250000000148 O
atom 9.5680375000000026 9.5680375000000026 80.6094000000000079 O
atom 6.8343125000000002 6.8343125000000002 83.3431250000000148 O
atom 9.5680375000000026 6.8343125000000002 83.3431250000000148 O
atom 6.8343125000000002 9.5680375000000026 80.6094000000000079 O
atom 5.4674500000000004 5.4674500000000004 84.7099875000000111 Ce
atom 5.4674500000000004 8.2011750000000010 87.4437125000000179 Ce
atom 8.2011750000000010 5.4674500000000004 87.4437125000000179 Ce
atom 8.2011750000000010 8.2011750000000010 84.7099875000000111 Ce
atom 6.8343125000000002 9.5680375000000026 88.8105750000000143 O
atom 9.5680375000000026 6.8343125000000002 86.0768500000000074 O
atom 6.8343125000000002 6.8343125000000002 86.0768500000000074 O
atom 9.5680375000000026 9.5680375000000026 86.0768500000000074 O
atom 6.8343125000000002 6.8343125000000002 88.8105750000000143 O
atom 6.8343125000000002 9.5680375000000026 86.0768500000000074 O
