#===============================================================================
# Created using the Atomic Simulation Environment (ASE)

# Mon Mar 23 00:18:04 2026

#=======================================================
lattice_vector 10.9349000000000007 0.0000000000000000 0.0000000000000000 
lattice_vector 0.0000000000000000 10.9349000000000007 0.0000000000000000 
lattice_vector 0.0000000000000000 0.0000000000000000 139.3490000000000180 
atom 4.1005875000000005 4.1005875000000005 72.4082250000000158 O
atom 4.1005875000000005 1.3668625000000001 72.4082250000000158 O
atom 0.0000000000000000 0.0000000000000000 73.7750874999999979 Ce
atom 2.7337250000000002 2.7337250000000002 73.7750874999999979 Ce
atom 4.1005875000000005 1.3668625000000001 75.1419500000000085 O
atom 4.1005875000000005 4.1005875000000005 75.1419500000000085 O
atom 4.1005875000000005 9.5680375000000026 72.4082250000000158 O
atom 4.1005875000000005 6.8343125000000002 72.4082250000000158 O
atom 0.0000000000000000 5.4674500000000004 73.7750874999999979 Ce
atom 2.7337250000000002 8.2011750000000010 73.7750874999999979 Ce
atom 4.1005875000000005 6.8343125000000002 75.1419500000000085 O
atom 4.1005875000000005 9.5680375000000026 75.1419500000000085 O
atom 6.8343125000000002 4.1005875000000005 72.4082250000000158 O
atom 6.8343125000000002 1.3668625000000001 72.4082250000000158 O
atom 5.4674500000000004 0.0000000000000000 73.7750874999999979 Ce
atom 8.2011750000000010 2.7337250000000002 73.7750874999999979 Ce
atom 6.8343125000000002 1.3668625000000001 75.1419500000000085 O
atom 6.8343125000000002 4.1005875000000005 75.1419500000000085 O
atom 6.8343125000000002 9.5680375000000026 72.4082250000000158 O
atom 6.8343125000000002 6.8343125000000002 72.4082250000000158 O
atom 5.4674500000000004 5.4674500000000004 73.7750874999999979 Ce
atom 8.2011750000000010 8.2011750000000010 73.7750874999999979 Ce
atom 6.8343125000000002 6.8343125000000002 75.1419500000000085 O
atom 6.8343125000000002 9.5680375000000026 75.1419500000000085 O
