#===============================================================================
# Created using the Atomic Simulation Environment (ASE)

# Mon Mar 23 00:18:04 2026

#=======================================================
lattice_vector 10.9349000000000007 0.0000000000000000 0.0000000000000000 
lattice_vector 0.0000000000000000 10.9349000000000007 0.0000000000000000 
lattice_vector 0.0000000000000000 0.0000000000000000 139.3490000000000180 
atom 4.1005875000000005 4.1005875000000005 56.0058750000000103 O
atom 4.1005875000000005 1.3668625000000001 56.0058750000000103 O
atom 4.1005875000000005 9.5680375000000026 56.0058750000000103 O
atom 4.1005875000000005 6.8343125000000002 56.0058750000000103 O
atom 6.8343125000000002 4.1005875000000005 56.0058750000000103 O
atom 6.8343125000000002 1.3668625000000001 56.0058750000000103 O
atom 6.8343125000000002 9.5680375000000026 56.0058750000000103 O
atom 6.8343125000000002 6.8343125000000002 56.0058750000000103 O
atom 0.0000000000000000 0.0000000000000000 57.3727375000000066 Ce
atom 0.0000000000000000 2.7337250000000002 60.1064625000000063 Ce
atom 2.7337250000000002 0.0000000000000000 60.1064625000000063 Ce
atom 2.7337250000000002 2.7337250000000002 57.3727375000000066 Ce
atom 1.3668625000000001 4.1005875000000005 61.4733250000000098 O
atom 4.1005875000000005 1.3668625000000001 58.7396000000000100 O
atom 1.3668625000000001 1.3668625000000001 58.7396000000000100 O
atom 4.1005875000000005 4.1005875000000005 61.4733250000000098 O
atom 4.1005875000000005 4.1005875000000005 58.7396000000000100 O
atom 1.3668625000000001 1.3668625000000001 61.4733250000000098 O
atom 4.1005875000000005 1.3668625000000001 61.4733250000000098 O
atom 1.3668625000000001 4.1005875000000005 58.7396000000000100 O
atom 0.0000000000000000 0.0000000000000000 62.8401875000000061 Ce
atom 2.7337250000000002 2.7337250000000002 62.8401875000000061 Ce
atom 4.1005875000000005 1.3668625000000001 64.2070500000000095 O
atom 4.1005875000000005 4.1005875000000005 64.2070500000000095 O
atom 0.0000000000000000 5.4674500000000004 57.3727375000000066 Ce
atom 0.0000000000000000 8.2011750000000010 60.1064625000000063 Ce
atom 2.7337250000000002 5.4674500000000004 60.1064625000000063 Ce
atom 2.7337250000000002 8.2011750000000010 57.3727375000000066 Ce
atom 1.3668625000000001 9.5680375000000026 61.4733250000000098 O
atom 4.1005875000000005 6.8343125000000002 58.7396000000000100 O
atom 1.3668625000000001 6.8343125000000002 58.7396000000000100 O
atom 4.1005875000000005 9.5680375000000026 61.4733250000000098 O
atom 4.1005875000000005 9.5680375000000026 58.7396000000000100 O
atom 1.3668625000000001 6.8343125000000002 61.4733250000000098 O
atom 4.1005875000000005 6.8343125000000002 61.4733250000000098 O
atom 1.3668625000000001 9.5680375000000026 58.7396000000000100 O
atom 0.0000000000000000 5.4674500000000004 62.8401875000000061 Ce
atom 2.7337250000000002 8.2011750000000010 62.8401875000000061 Ce
atom 4.1005875000000005 6.8343125000000002 64.2070500000000095 O
atom 4.1005875000000005 9.5680375000000026 64.2070500000000095 O
atom 5.4674500000000004 0.0000000000000000 57.3727375000000066 Ce
atom 5.4674500000000004 2.7337250000000002 60.1064625000000063 Ce
atom 8.2011750000000010 0.0000000000000000 60.1064625000000063 Ce
atom 8.2011750000000010 2.7337250000000002 57.3727375000000066 Ce
atom 6.8343125000000002 4.1005875000000005 61.4733250000000098 O
atom 9.5680375000000026 1.3668625000000001 58.7396000000000100 O
atom 6.8343125000000002 1.3668625000000001 58.7396000000000100 O
atom 9.5680375000000026 4.1005875000000005 61.4733250000000098 O
atom 9.5680375000000026 4.1005875000000005 58.7396000000000100 O
atom 6.8343125000000002 1.3668625000000001 61.4733250000000098 O
atom 9.5680375000000026 1.3668625000000001 61.4733250000000098 O
atom 6.8343125000000002 4.1005875000000005 58.7396000000000100 O
atom 5.4674500000000004 0.0000000000000000 62.8401875000000061 Ce
atom 8.2011750000000010 2.7337250000000002 62.8401875000000061 Ce
atom 6.8343125000000002 1.3668625000000001 64.2070500000000095 O
atom 6.8343125000000002 4.1005875000000005 64.2070500000000095 O
atom 5.4674500000000004 5.4674500000000004 57.3727375000000066 Ce
atom 5.4674500000000004 8.2011750000000010 60.1064625000000063 Ce
atom 8.2011750000000010 5.4674500000000004 60.1064625000000063 Ce
atom 8.2011750000000010 8.2011750000000010 57.3727375000000066 Ce
atom 6.8343125000000002 9.5680375000000026 61.4733250000000098 O
atom 9.5680375000000026 6.8343125000000002 58.7396000000000100 O
atom 6.8343125000000002 6.8343125000000002 58.7396000000000100 O
atom 9.5680375000000026 9.5680375000000026 61.4733250000000098 O
atom 9.5680375000000026 9.5680375000000026 58.7396000000000100 O
atom 6.8343125000000002 6.8343125000000002 61.4733250000000098 O
atom 9.5680375000000026 6.8343125000000002 61.4733250000000098 O
atom 6.8343125000000002 9.5680375000000026 58.7396000000000100 O
atom 5.4674500000000004 5.4674500000000004 62.8401875000000061 Ce
atom 8.2011750000000010 8.2011750000000010 62.8401875000000061 Ce
atom 6.8343125000000002 6.8343125000000002 64.2070500000000095 O
atom 6.8343125000000002 9.5680375000000026 64.2070500000000095 O
