#===============================================================================
# Created using the Atomic Simulation Environment (ASE)

# Mon Mar 23 00:18:04 2026

#=======================================================
lattice_vector 10.9349000000000007 0.0000000000000000 0.0000000000000000 
lattice_vector 0.0000000000000000 10.9349000000000007 0.0000000000000000 
lattice_vector 0.0000000000000000 0.0000000000000000 139.3490000000000180 
atom 4.1005875000000005 4.1005875000000005 66.9407750000000021 O
atom 4.1005875000000005 1.3668625000000001 66.9407750000000021 O
atom 4.1005875000000005 9.5680375000000026 66.9407750000000021 O
atom 4.1005875000000005 6.8343125000000002 66.9407750000000021 O
atom 6.8343125000000002 4.1005875000000005 66.9407750000000021 O
atom 6.8343125000000002 1.3668625000000001 66.9407750000000021 O
atom 6.8343125000000002 9.5680375000000026 66.9407750000000021 O
atom 6.8343125000000002 6.8343125000000002 66.9407750000000021 O
atom 0.0000000000000000 0.0000000000000000 68.3076375000000127 Ce
atom 2.7337250000000002 2.7337250000000002 68.3076375000000127 Ce
atom 4.1005875000000005 1.3668625000000001 69.6745000000000090 O
atom 4.1005875000000005 4.1005875000000005 69.6745000000000090 O
atom 0.0000000000000000 5.4674500000000004 68.3076375000000127 Ce
atom 2.7337250000000002 8.2011750000000010 68.3076375000000127 Ce
atom 4.1005875000000005 6.8343125000000002 69.6745000000000090 O
atom 4.1005875000000005 9.5680375000000026 69.6745000000000090 O
atom 5.4674500000000004 0.0000000000000000 68.3076375000000127 Ce
atom 8.2011750000000010 2.7337250000000002 68.3076375000000127 Ce
atom 6.8343125000000002 1.3668625000000001 69.6745000000000090 O
atom 6.8343125000000002 4.1005875000000005 69.6745000000000090 O
atom 5.4674500000000004 5.4674500000000004 68.3076375000000127 Ce
atom 8.2011750000000010 8.2011750000000010 68.3076375000000127 Ce
atom 6.8343125000000002 6.8343125000000002 69.6745000000000090 O
atom 6.8343125000000002 9.5680375000000026 69.6745000000000090 O
