#===============================================================================
# Created using the Atomic Simulation Environment (ASE)

# Mon Mar 23 00:18:06 2026

#=======================================================
lattice_vector 10.9349000000000007 0.0000000000000000 0.0000000000000000 
lattice_vector 0.0000000000000000 10.9349000000000007 0.0000000000000000 
lattice_vector 0.0000000000000000 0.0000000000000000 139.3490000000000180 
atom 0.0000000000000000 2.7337250000000002 38.2366625000000013 Ce
atom 2.7337250000000002 0.0000000000000000 38.2366625000000013 Ce
atom 1.3668625000000001 4.1005875000000005 39.6035250000000048 O
atom 4.1005875000000005 1.3668625000000001 36.8698000000000050 O
atom 4.1005875000000005 4.1005875000000005 39.6035250000000048 O
atom 4.1005875000000005 4.1005875000000005 36.8698000000000050 O
atom 1.3668625000000001 1.3668625000000001 39.6035250000000048 O
atom 4.1005875000000005 1.3668625000000001 39.6035250000000048 O
atom 0.0000000000000000 0.0000000000000000 40.9703875000000082 Ce
atom 0.0000000000000000 2.7337250000000002 43.7041125000000079 Ce
atom 2.7337250000000002 0.0000000000000000 43.7041125000000079 Ce
atom 2.7337250000000002 2.7337250000000002 40.9703875000000082 Ce
atom 1.3668625000000001 4.1005875000000005 45.0709750000000042 O
atom 4.1005875000000005 1.3668625000000001 42.3372500000000045 O
atom 1.3668625000000001 1.3668625000000001 42.3372500000000045 O
atom 4.1005875000000005 4.1005875000000005 45.0709750000000042 O
atom 4.1005875000000005 4.1005875000000005 42.3372500000000045 O
atom 1.3668625000000001 1.3668625000000001 45.0709750000000042 O
atom 4.1005875000000005 1.3668625000000001 45.0709750000000042 O
atom 1.3668625000000001 4.1005875000000005 42.3372500000000045 O
atom 0.0000000000000000 8.2011750000000010 38.2366625000000013 Ce
atom 2.7337250000000002 5.4674500000000004 38.2366625000000013 Ce
atom 1.3668625000000001 9.5680375000000026 39.6035250000000048 O
atom 4.1005875000000005 6.8343125000000002 36.8698000000000050 O
atom 4.1005875000000005 9.5680375000000026 39.6035250000000048 O
atom 4.1005875000000005 9.5680375000000026 36.8698000000000050 O
atom 1.3668625000000001 6.8343125000000002 39.6035250000000048 O
atom 4.1005875000000005 6.8343125000000002 39.6035250000000048 O
atom 0.0000000000000000 5.4674500000000004 40.9703875000000082 Ce
atom 0.0000000000000000 8.2011750000000010 43.7041125000000079 Ce
atom 2.7337250000000002 5.4674500000000004 43.7041125000000079 Ce
atom 2.7337250000000002 8.2011750000000010 40.9703875000000082 Ce
atom 1.3668625000000001 9.5680375000000026 45.0709750000000042 O
atom 4.1005875000000005 6.8343125000000002 42.3372500000000045 O
atom 1.3668625000000001 6.8343125000000002 42.3372500000000045 O
atom 4.1005875000000005 9.5680375000000026 45.0709750000000042 O
atom 4.1005875000000005 9.5680375000000026 42.3372500000000045 O
atom 1.3668625000000001 6.8343125000000002 45.0709750000000042 O
atom 4.1005875000000005 6.8343125000000002 45.0709750000000042 O
atom 1.3668625000000001 9.5680375000000026 42.3372500000000045 O
atom 5.4674500000000004 2.7337250000000002 38.2366625000000013 Ce
atom 8.2011750000000010 0.0000000000000000 38.2366625000000013 Ce
atom 6.8343125000000002 4.1005875000000005 39.6035250000000048 O
atom 6.8343125000000002 1.3668625000000001 36.8698000000000050 O
atom 9.5680375000000026 4.1005875000000005 39.6035250000000048 O
atom 6.8343125000000002 1.3668625000000001 39.6035250000000048 O
atom 9.5680375000000026 1.3668625000000001 39.6035250000000048 O
atom 6.8343125000000002 4.1005875000000005 36.8698000000000050 O
atom 5.4674500000000004 0.0000000000000000 40.9703875000000082 Ce
atom 5.4674500000000004 2.7337250000000002 43.7041125000000079 Ce
atom 8.2011750000000010 0.0000000000000000 43.7041125000000079 Ce
atom 8.2011750000000010 2.7337250000000002 40.9703875000000082 Ce
atom 6.8343125000000002 4.1005875000000005 45.0709750000000042 O
atom 9.5680375000000026 1.3668625000000001 42.3372500000000045 O
atom 6.8343125000000002 1.3668625000000001 42.3372500000000045 O
atom 9.5680375000000026 4.1005875000000005 45.0709750000000042 O
atom 9.5680375000000026 4.1005875000000005 42.3372500000000045 O
atom 6.8343125000000002 1.3668625000000001 45.0709750000000042 O
atom 9.5680375000000026 1.3668625000000001 45.0709750000000042 O
atom 6.8343125000000002 4.1005875000000005 42.3372500000000045 O
atom 5.4674500000000004 8.2011750000000010 38.2366625000000013 Ce
atom 8.2011750000000010 5.4674500000000004 38.2366625000000013 Ce
atom 6.8343125000000002 9.5680375000000026 39.6035250000000048 O
atom 6.8343125000000002 6.8343125000000002 36.8698000000000050 O
atom 9.5680375000000026 9.5680375000000026 39.6035250000000048 O
atom 6.8343125000000002 6.8343125000000002 39.6035250000000048 O
atom 9.5680375000000026 6.8343125000000002 39.6035250000000048 O
atom 6.8343125000000002 9.5680375000000026 36.8698000000000050 O
atom 5.4674500000000004 5.4674500000000004 40.9703875000000082 Ce
atom 5.4674500000000004 8.2011750000000010 43.7041125000000079 Ce
atom 8.2011750000000010 5.4674500000000004 43.7041125000000079 Ce
atom 8.2011750000000010 8.2011750000000010 40.9703875000000082 Ce
atom 6.8343125000000002 9.5680375000000026 45.0709750000000042 O
atom 9.5680375000000026 6.8343125000000002 42.3372500000000045 O
atom 6.8343125000000002 6.8343125000000002 42.3372500000000045 O
atom 9.5680375000000026 9.5680375000000026 45.0709750000000042 O
atom 9.5680375000000026 9.5680375000000026 42.3372500000000045 O
atom 6.8343125000000002 6.8343125000000002 45.0709750000000042 O
atom 9.5680375000000026 6.8343125000000002 45.0709750000000042 O
atom 6.8343125000000002 9.5680375000000026 42.3372500000000045 O
atom 0.0000000000000000 0.0000000000000000 46.4378375000000077 Ce
atom 0.0000000000000000 2.7337250000000002 49.1715625000000074 Ce
atom 2.7337250000000002 0.0000000000000000 49.1715625000000074 Ce
atom 2.7337250000000002 2.7337250000000002 46.4378375000000077 Ce
atom 1.3668625000000001 4.1005875000000005 50.5384250000000108 O
atom 4.1005875000000005 1.3668625000000001 47.8047000000000111 O
atom 1.3668625000000001 1.3668625000000001 47.8047000000000111 O
atom 4.1005875000000005 4.1005875000000005 50.5384250000000108 O
atom 4.1005875000000005 4.1005875000000005 47.8047000000000111 O
atom 1.3668625000000001 1.3668625000000001 50.5384250000000108 O
atom 4.1005875000000005 1.3668625000000001 50.5384250000000108 O
atom 1.3668625000000001 4.1005875000000005 47.8047000000000111 O
atom 0.0000000000000000 0.0000000000000000 51.9052875000000071 Ce
atom 0.0000000000000000 2.7337250000000002 54.6390125000000069 Ce
atom 2.7337250000000002 0.0000000000000000 54.6390125000000069 Ce
atom 2.7337250000000002 2.7337250000000002 51.9052875000000071 Ce
atom 1.3668625000000001 4.1005875000000005 56.0058750000000103 O
atom 4.1005875000000005 1.3668625000000001 53.2721500000000106 O
atom 1.3668625000000001 1.3668625000000001 53.2721500000000106 O
atom 4.1005875000000005 4.1005875000000005 56.0058750000000103 O
atom 4.1005875000000005 4.1005875000000005 53.2721500000000106 O
atom 1.3668625000000001 1.3668625000000001 56.0058750000000103 O
atom 4.1005875000000005 1.3668625000000001 56.0058750000000103 O
atom 1.3668625000000001 4.1005875000000005 53.2721500000000106 O
atom 0.0000000000000000 5.4674500000000004 46.4378375000000077 Ce
atom 0.0000000000000000 8.2011750000000010 49.1715625000000074 Ce
atom 2.7337250000000002 5.4674500000000004 49.1715625000000074 Ce
atom 2.7337250000000002 8.2011750000000010 46.4378375000000077 Ce
atom 1.3668625000000001 9.5680375000000026 50.5384250000000108 O
atom 4.1005875000000005 6.8343125000000002 47.8047000000000111 O
atom 1.3668625000000001 6.8343125000000002 47.8047000000000111 O
atom 4.1005875000000005 9.5680375000000026 50.5384250000000108 O
atom 4.1005875000000005 9.5680375000000026 47.8047000000000111 O
atom 1.3668625000000001 6.8343125000000002 50.5384250000000108 O
atom 4.1005875000000005 6.8343125000000002 50.5384250000000108 O
atom 1.3668625000000001 9.5680375000000026 47.8047000000000111 O
atom 0.0000000000000000 5.4674500000000004 51.9052875000000071 Ce
atom 0.0000000000000000 8.2011750000000010 54.6390125000000069 Ce
atom 2.7337250000000002 5.4674500000000004 54.6390125000000069 Ce
atom 2.7337250000000002 8.2011750000000010 51.9052875000000071 Ce
atom 1.3668625000000001 9.5680375000000026 56.0058750000000103 O
atom 4.1005875000000005 6.8343125000000002 53.2721500000000106 O
atom 1.3668625000000001 6.8343125000000002 53.2721500000000106 O
atom 4.1005875000000005 9.5680375000000026 56.0058750000000103 O
atom 4.1005875000000005 9.5680375000000026 53.2721500000000106 O
atom 1.3668625000000001 6.8343125000000002 56.0058750000000103 O
atom 4.1005875000000005 6.8343125000000002 56.0058750000000103 O
atom 1.3668625000000001 9.5680375000000026 53.2721500000000106 O
atom 5.4674500000000004 0.0000000000000000 46.4378375000000077 Ce
atom 5.4674500000000004 2.7337250000000002 49.1715625000000074 Ce
atom 8.2011750000000010 0.0000000000000000 49.1715625000000074 Ce
atom 8.2011750000000010 2.7337250000000002 46.4378375000000077 Ce
atom 6.8343125000000002 4.1005875000000005 50.5384250000000108 O
atom 9.5680375000000026 1.3668625000000001 47.8047000000000111 O
atom 6.8343125000000002 1.3668625000000001 47.8047000000000111 O
atom 9.5680375000000026 4.1005875000000005 50.5384250000000108 O
atom 9.5680375000000026 4.1005875000000005 47.8047000000000111 O
atom 6.8343125000000002 1.3668625000000001 50.5384250000000108 O
atom 9.5680375000000026 1.3668625000000001 50.5384250000000108 O
atom 6.8343125000000002 4.1005875000000005 47.8047000000000111 O
atom 5.4674500000000004 0.0000000000000000 51.9052875000000071 Ce
atom 5.4674500000000004 2.7337250000000002 54.6390125000000069 Ce
atom 8.2011750000000010 0.0000000000000000 54.6390125000000069 Ce
atom 8.2011750000000010 2.7337250000000002 51.9052875000000071 Ce
atom 6.8343125000000002 4.1005875000000005 56.0058750000000103 O
atom 9.5680375000000026 1.3668625000000001 53.2721500000000106 O
atom 6.8343125000000002 1.3668625000000001 53.2721500000000106 O
atom 9.5680375000000026 4.1005875000000005 56.0058750000000103 O
atom 9.5680375000000026 4.1005875000000005 53.2721500000000106 O
atom 6.8343125000000002 1.3668625000000001 56.0058750000000103 O
atom 9.5680375000000026 1.3668625000000001 56.0058750000000103 O
atom 6.8343125000000002 4.1005875000000005 53.2721500000000106 O
atom 5.4674500000000004 5.4674500000000004 46.4378375000000077 Ce
atom 5.4674500000000004 8.2011750000000010 49.1715625000000074 Ce
atom 8.2011750000000010 5.4674500000000004 49.1715625000000074 Ce
atom 8.2011750000000010 8.2011750000000010 46.4378375000000077 Ce
atom 6.8343125000000002 9.5680375000000026 50.5384250000000108 O
atom 9.5680375000000026 6.8343125000000002 47.8047000000000111 O
atom 6.8343125000000002 6.8343125000000002 47.8047000000000111 O
atom 9.5680375000000026 9.5680375000000026 50.5384250000000108 O
atom 9.5680375000000026 9.5680375000000026 47.8047000000000111 O
atom 6.8343125000000002 6.8343125000000002 50.5384250000000108 O
atom 9.5680375000000026 6.8343125000000002 50.5384250000000108 O
atom 6.8343125000000002 9.5680375000000026 47.8047000000000111 O
atom 5.4674500000000004 5.4674500000000004 51.9052875000000071 Ce
atom 5.4674500000000004 8.2011750000000010 54.6390125000000069 Ce
atom 8.2011750000000010 5.4674500000000004 54.6390125000000069 Ce
atom 8.2011750000000010 8.2011750000000010 51.9052875000000071 Ce
atom 6.8343125000000002 9.5680375000000026 56.0058750000000103 O
atom 9.5680375000000026 6.8343125000000002 53.2721500000000106 O
atom 6.8343125000000002 6.8343125000000002 53.2721500000000106 O
atom 9.5680375000000026 9.5680375000000026 56.0058750000000103 O
atom 9.5680375000000026 9.5680375000000026 53.2721500000000106 O
atom 6.8343125000000002 6.8343125000000002 56.0058750000000103 O
atom 9.5680375000000026 6.8343125000000002 56.0058750000000103 O
atom 6.8343125000000002 9.5680375000000026 53.2721500000000106 O
atom 0.0000000000000000 0.0000000000000000 57.3727375000000066 Ce
atom 0.0000000000000000 2.7337250000000002 60.1064625000000063 Ce
atom 2.7337250000000002 0.0000000000000000 60.1064625000000063 Ce
atom 2.7337250000000002 2.7337250000000002 57.3727375000000066 Ce
atom 1.3668625000000001 4.1005875000000005 61.4733250000000098 O
atom 4.1005875000000005 1.3668625000000001 58.7396000000000100 O
atom 1.3668625000000001 1.3668625000000001 58.7396000000000100 O
atom 4.1005875000000005 4.1005875000000005 61.4733250000000098 O
atom 4.1005875000000005 4.1005875000000005 58.7396000000000100 O
atom 1.3668625000000001 1.3668625000000001 61.4733250000000098 O
atom 4.1005875000000005 1.3668625000000001 61.4733250000000098 O
atom 1.3668625000000001 4.1005875000000005 58.7396000000000100 O
atom 0.0000000000000000 0.0000000000000000 62.8401875000000061 Ce
atom 0.0000000000000000 2.7337250000000002 65.5739125000000058 Ce
atom 2.7337250000000002 0.0000000000000000 65.5739125000000058 Ce
atom 2.7337250000000002 2.7337250000000002 62.8401875000000061 Ce
atom 1.3668625000000001 4.1005875000000005 66.9407750000000021 O
atom 4.1005875000000005 1.3668625000000001 64.2070500000000095 O
atom 1.3668625000000001 1.3668625000000001 64.2070500000000095 O
atom 4.1005875000000005 4.1005875000000005 66.9407750000000021 O
atom 4.1005875000000005 4.1005875000000005 64.2070500000000095 O
atom 1.3668625000000001 1.3668625000000001 66.9407750000000021 O
atom 4.1005875000000005 1.3668625000000001 66.9407750000000021 O
atom 1.3668625000000001 4.1005875000000005 64.2070500000000095 O
atom 0.0000000000000000 5.4674500000000004 57.3727375000000066 Ce
atom 0.0000000000000000 8.2011750000000010 60.1064625000000063 Ce
atom 2.7337250000000002 5.4674500000000004 60.1064625000000063 Ce
atom 2.7337250000000002 8.2011750000000010 57.3727375000000066 Ce
atom 1.3668625000000001 9.5680375000000026 61.4733250000000098 O
atom 4.1005875000000005 6.8343125000000002 58.7396000000000100 O
atom 1.3668625000000001 6.8343125000000002 58.7396000000000100 O
atom 4.1005875000000005 9.5680375000000026 61.4733250000000098 O
atom 4.1005875000000005 9.5680375000000026 58.7396000000000100 O
atom 1.3668625000000001 6.8343125000000002 61.4733250000000098 O
atom 4.1005875000000005 6.8343125000000002 61.4733250000000098 O
atom 1.3668625000000001 9.5680375000000026 58.7396000000000100 O
atom 0.0000000000000000 5.4674500000000004 62.8401875000000061 Ce
atom 0.0000000000000000 8.2011750000000010 65.5739125000000058 Ce
atom 2.7337250000000002 5.4674500000000004 65.5739125000000058 Ce
atom 2.7337250000000002 8.2011750000000010 62.8401875000000061 Ce
atom 1.3668625000000001 9.5680375000000026 66.9407750000000021 O
atom 4.1005875000000005 6.8343125000000002 64.2070500000000095 O
atom 1.3668625000000001 6.8343125000000002 64.2070500000000095 O
atom 4.1005875000000005 9.5680375000000026 66.9407750000000021 O
atom 4.1005875000000005 9.5680375000000026 64.2070500000000095 O
atom 1.3668625000000001 6.8343125000000002 66.9407750000000021 O
atom 4.1005875000000005 6.8343125000000002 66.9407750000000021 O
atom 1.3668625000000001 9.5680375000000026 64.2070500000000095 O
atom 5.4674500000000004 0.0000000000000000 57.3727375000000066 Ce
atom 5.4674500000000004 2.7337250000000002 60.1064625000000063 Ce
atom 8.2011750000000010 0.0000000000000000 60.1064625000000063 Ce
atom 8.2011750000000010 2.7337250000000002 57.3727375000000066 Ce
atom 6.8343125000000002 4.1005875000000005 61.4733250000000098 O
atom 9.5680375000000026 1.3668625000000001 58.7396000000000100 O
atom 6.8343125000000002 1.3668625000000001 58.7396000000000100 O
atom 9.5680375000000026 4.1005875000000005 61.4733250000000098 O
atom 9.5680375000000026 4.1005875000000005 58.7396000000000100 O
atom 6.8343125000000002 1.3668625000000001 61.4733250000000098 O
atom 9.5680375000000026 1.3668625000000001 61.4733250000000098 O
atom 6.8343125000000002 4.1005875000000005 58.7396000000000100 O
atom 5.4674500000000004 0.0000000000000000 62.8401875000000061 Ce
atom 5.4674500000000004 2.7337250000000002 65.5739125000000058 Ce
atom 8.2011750000000010 0.0000000000000000 65.5739125000000058 Ce
atom 8.2011750000000010 2.7337250000000002 62.8401875000000061 Ce
atom 6.8343125000000002 4.1005875000000005 66.9407750000000021 O
atom 9.5680375000000026 1.3668625000000001 64.2070500000000095 O
atom 6.8343125000000002 1.3668625000000001 64.2070500000000095 O
atom 9.5680375000000026 4.1005875000000005 66.9407750000000021 O
atom 9.5680375000000026 4.1005875000000005 64.2070500000000095 O
atom 6.8343125000000002 1.3668625000000001 66.9407750000000021 O
atom 9.5680375000000026 1.3668625000000001 66.9407750000000021 O
atom 6.8343125000000002 4.1005875000000005 64.2070500000000095 O
atom 5.4674500000000004 5.4674500000000004 57.3727375000000066 Ce
atom 5.4674500000000004 8.2011750000000010 60.1064625000000063 Ce
atom 8.2011750000000010 5.4674500000000004 60.1064625000000063 Ce
atom 8.2011750000000010 8.2011750000000010 57.3727375000000066 Ce
atom 6.8343125000000002 9.5680375000000026 61.4733250000000098 O
atom 9.5680375000000026 6.8343125000000002 58.7396000000000100 O
atom 6.8343125000000002 6.8343125000000002 58.7396000000000100 O
atom 9.5680375000000026 9.5680375000000026 61.4733250000000098 O
atom 9.5680375000000026 9.5680375000000026 58.7396000000000100 O
atom 6.8343125000000002 6.8343125000000002 61.4733250000000098 O
atom 9.5680375000000026 6.8343125000000002 61.4733250000000098 O
atom 6.8343125000000002 9.5680375000000026 58.7396000000000100 O
atom 5.4674500000000004 5.4674500000000004 62.8401875000000061 Ce
atom 5.4674500000000004 8.2011750000000010 65.5739125000000058 Ce
atom 8.2011750000000010 5.4674500000000004 65.5739125000000058 Ce
atom 8.2011750000000010 8.2011750000000010 62.8401875000000061 Ce
atom 6.8343125000000002 9.5680375000000026 66.9407750000000021 O
atom 9.5680375000000026 6.8343125000000002 64.2070500000000095 O
atom 6.8343125000000002 6.8343125000000002 64.2070500000000095 O
atom 9.5680375000000026 9.5680375000000026 66.9407750000000021 O
atom 9.5680375000000026 9.5680375000000026 64.2070500000000095 O
atom 6.8343125000000002 6.8343125000000002 66.9407750000000021 O
atom 9.5680375000000026 6.8343125000000002 66.9407750000000021 O
atom 6.8343125000000002 9.5680375000000026 64.2070500000000095 O
atom 0.0000000000000000 0.0000000000000000 68.3076375000000127 Ce
atom 0.0000000000000000 2.7337250000000002 71.0413625000000053 Ce
atom 2.7337250000000002 0.0000000000000000 71.0413625000000053 Ce
atom 2.7337250000000002 2.7337250000000002 68.3076375000000127 Ce
atom 1.3668625000000001 4.1005875000000005 72.4082250000000158 O
atom 4.1005875000000005 1.3668625000000001 69.6745000000000090 O
atom 1.3668625000000001 1.3668625000000001 69.6745000000000090 O
atom 4.1005875000000005 4.1005875000000005 72.4082250000000158 O
atom 4.1005875000000005 4.1005875000000005 69.6745000000000090 O
atom 1.3668625000000001 1.3668625000000001 72.4082250000000158 O
atom 4.1005875000000005 1.3668625000000001 72.4082250000000158 O
atom 1.3668625000000001 4.1005875000000005 69.6745000000000090 O
atom 0.0000000000000000 0.0000000000000000 73.7750874999999979 Ce
atom 2.7337250000000002 2.7337250000000002 73.7750874999999979 Ce
atom 4.1005875000000005 1.3668625000000001 75.1419500000000085 O
atom 4.1005875000000005 4.1005875000000005 75.1419500000000085 O
atom 0.0000000000000000 5.4674500000000004 68.3076375000000127 Ce
atom 0.0000000000000000 8.2011750000000010 71.0413625000000053 Ce
atom 2.7337250000000002 5.4674500000000004 71.0413625000000053 Ce
atom 2.7337250000000002 8.2011750000000010 68.3076375000000127 Ce
atom 1.3668625000000001 9.5680375000000026 72.4082250000000158 O
atom 4.1005875000000005 6.8343125000000002 69.6745000000000090 O
atom 1.3668625000000001 6.8343125000000002 69.6745000000000090 O
atom 4.1005875000000005 9.5680375000000026 72.4082250000000158 O
atom 4.1005875000000005 9.5680375000000026 69.6745000000000090 O
atom 1.3668625000000001 6.8343125000000002 72.4082250000000158 O
atom 4.1005875000000005 6.8343125000000002 72.4082250000000158 O
atom 1.3668625000000001 9.5680375000000026 69.6745000000000090 O
atom 0.0000000000000000 5.4674500000000004 73.7750874999999979 Ce
atom 2.7337250000000002 8.2011750000000010 73.7750874999999979 Ce
atom 4.1005875000000005 6.8343125000000002 75.1419500000000085 O
atom 4.1005875000000005 9.5680375000000026 75.1419500000000085 O
atom 5.4674500000000004 0.0000000000000000 68.3076375000000127 Ce
atom 5.4674500000000004 2.7337250000000002 71.0413625000000053 Ce
atom 8.2011750000000010 0.0000000000000000 71.0413625000000053 Ce
atom 8.2011750000000010 2.7337250000000002 68.3076375000000127 Ce
atom 6.8343125000000002 4.1005875000000005 72.4082250000000158 O
atom 9.5680375000000026 1.3668625000000001 69.6745000000000090 O
atom 6.8343125000000002 1.3668625000000001 69.6745000000000090 O
atom 9.5680375000000026 4.1005875000000005 72.4082250000000158 O
atom 9.5680375000000026 4.1005875000000005 69.6745000000000090 O
atom 6.8343125000000002 1.3668625000000001 72.4082250000000158 O
atom 9.5680375000000026 1.3668625000000001 72.4082250000000158 O
atom 6.8343125000000002 4.1005875000000005 69.6745000000000090 O
atom 5.4674500000000004 0.0000000000000000 73.7750874999999979 Ce
atom 8.2011750000000010 2.7337250000000002 73.7750874999999979 Ce
atom 6.8343125000000002 1.3668625000000001 75.1419500000000085 O
atom 6.8343125000000002 4.1005875000000005 75.1419500000000085 O
atom 5.4674500000000004 5.4674500000000004 68.3076375000000127 Ce
atom 5.4674500000000004 8.2011750000000010 71.0413625000000053 Ce
atom 8.2011750000000010 5.4674500000000004 71.0413625000000053 Ce
atom 8.2011750000000010 8.2011750000000010 68.3076375000000127 Ce
atom 6.8343125000000002 9.5680375000000026 72.4082250000000158 O
atom 9.5680375000000026 6.8343125000000002 69.6745000000000090 O
atom 6.8343125000000002 6.8343125000000002 69.6745000000000090 O
atom 9.5680375000000026 9.5680375000000026 72.4082250000000158 O
atom 9.5680375000000026 9.5680375000000026 69.6745000000000090 O
atom 6.8343125000000002 6.8343125000000002 72.4082250000000158 O
atom 9.5680375000000026 6.8343125000000002 72.4082250000000158 O
atom 6.8343125000000002 9.5680375000000026 69.6745000000000090 O
atom 5.4674500000000004 5.4674500000000004 73.7750874999999979 Ce
atom 8.2011750000000010 8.2011750000000010 73.7750874999999979 Ce
atom 6.8343125000000002 6.8343125000000002 75.1419500000000085 O
atom 6.8343125000000002 9.5680375000000026 75.1419500000000085 O
