#===============================================================================
# Created using the Atomic Simulation Environment (ASE)

# Mon Mar 23 00:01:48 2026

#=======================================================
lattice_vector 5.4674503500000000 0.0000000000000000 0.0000000000000000 
lattice_vector 0.0000000000000000 5.4674503500000000 0.0000000000000000 
lattice_vector 0.0000000000000000 0.0000000000000000 84.6745034999999859 
atom 0.0000000000000000 2.7337251750000000 47.8047020999999930 Ce
atom 1.3668625875000000 4.1005877625000000 49.1715646874999877 O
atom 4.1005877625000000 4.1005877625000000 49.1715646874999877 O
atom 1.3668625875000000 1.3668625875000000 49.1715646874999877 O
atom 4.1005877625000000 1.3668625875000000 49.1715646874999877 O
atom 0.0000000000000000 0.0000000000000000 50.5384272749999823 Ce
atom 2.7337251750000000 2.7337251750000000 50.5384272749999823 Ce
