#===============================================================================
# Created using the Atomic Simulation Environment (ASE)

# Mon Mar 23 00:01:48 2026

#=======================================================
lattice_vector 5.4674503500000000 0.0000000000000000 0.0000000000000000 
lattice_vector 0.0000000000000000 5.4674503500000000 0.0000000000000000 
lattice_vector 0.0000000000000000 0.0000000000000000 84.6745034999999859 
atom 0.0000000000000000 2.7337251750000000 20.4674503499999965 Ce
atom 1.3668625875000000 4.1005877625000000 21.8343129374999947 O
atom 4.1005877625000000 4.1005877625000000 21.8343129374999947 O
atom 1.3668625875000000 1.3668625875000000 21.8343129374999947 O
atom 4.1005877625000000 1.3668625875000000 21.8343129374999947 O
atom 0.0000000000000000 0.0000000000000000 23.2011755249999965 Ce
atom 0.0000000000000000 2.7337251750000000 25.9349006999999965 Ce
atom 2.7337251750000000 0.0000000000000000 25.9349006999999965 Ce
atom 2.7337251750000000 2.7337251750000000 23.2011755249999965 Ce
atom 1.3668625875000000 4.1005877625000000 27.3017632874999947 O
atom 4.1005877625000000 1.3668625875000000 24.5680381124999947 O
atom 1.3668625875000000 1.3668625875000000 24.5680381124999947 O
atom 4.1005877625000000 4.1005877625000000 27.3017632874999947 O
atom 4.1005877625000000 4.1005877625000000 24.5680381124999947 O
atom 1.3668625875000000 1.3668625875000000 27.3017632874999947 O
atom 4.1005877625000000 1.3668625875000000 27.3017632874999947 O
atom 1.3668625875000000 4.1005877625000000 24.5680381124999947 O
atom 0.0000000000000000 0.0000000000000000 28.6686258749999965 Ce
atom 2.7337251750000000 2.7337251750000000 28.6686258749999965 Ce
