#===============================================================================
# Created using the Atomic Simulation Environment (ASE)

# Mon Mar 23 00:01:48 2026

#=======================================================
lattice_vector 5.4674503500000000 0.0000000000000000 0.0000000000000000 
lattice_vector 0.0000000000000000 5.4674503500000000 0.0000000000000000 
lattice_vector 0.0000000000000000 0.0000000000000000 84.6745034999999859 
atom 0.0000000000000000 0.0000000000000000 39.6035265749999965 Ce
atom 0.0000000000000000 2.7337251750000000 42.3372517499999930 Ce
atom 2.7337251750000000 0.0000000000000000 42.3372517499999930 Ce
atom 2.7337251750000000 2.7337251750000000 39.6035265749999965 Ce
atom 1.3668625875000000 4.1005877625000000 43.7041143374999947 O
atom 4.1005877625000000 1.3668625875000000 40.9703891624999912 O
atom 1.3668625875000000 1.3668625875000000 40.9703891624999912 O
atom 4.1005877625000000 4.1005877625000000 43.7041143374999947 O
atom 4.1005877625000000 4.1005877625000000 40.9703891624999912 O
atom 1.3668625875000000 1.3668625875000000 43.7041143374999947 O
atom 4.1005877625000000 1.3668625875000000 43.7041143374999947 O
atom 1.3668625875000000 4.1005877625000000 40.9703891624999912 O
atom 0.0000000000000000 0.0000000000000000 45.0709769249999894 Ce
atom 0.0000000000000000 2.7337251750000000 47.8047020999999930 Ce
atom 2.7337251750000000 2.7337251750000000 45.0709769249999894 Ce
atom 4.1005877625000000 1.3668625875000000 46.4378395124999912 O
atom 1.3668625875000000 1.3668625875000000 46.4378395124999912 O
atom 4.1005877625000000 4.1005877625000000 46.4378395124999912 O
atom 1.3668625875000000 4.1005877625000000 46.4378395124999912 O
