#===============================================================================
# Created using the Atomic Simulation Environment (ASE)

# Mon Mar 23 00:01:48 2026

#=======================================================
lattice_vector 5.4674503500000000 0.0000000000000000 0.0000000000000000 
lattice_vector 0.0000000000000000 5.4674503500000000 0.0000000000000000 
lattice_vector 0.0000000000000000 0.0000000000000000 84.6745034999999859 
atom 0.0000000000000000 0.0000000000000000 28.6686258749999965 Ce
atom 0.0000000000000000 2.7337251750000000 31.4023510499999929 Ce
atom 2.7337251750000000 0.0000000000000000 31.4023510499999929 Ce
atom 2.7337251750000000 2.7337251750000000 28.6686258749999965 Ce
atom 1.3668625875000000 4.1005877625000000 32.7692136374999876 O
atom 4.1005877625000000 1.3668625875000000 30.0354884624999983 O
atom 1.3668625875000000 1.3668625875000000 30.0354884624999983 O
atom 4.1005877625000000 4.1005877625000000 32.7692136374999876 O
atom 4.1005877625000000 4.1005877625000000 30.0354884624999983 O
atom 1.3668625875000000 1.3668625875000000 32.7692136374999876 O
atom 4.1005877625000000 1.3668625875000000 32.7692136374999876 O
atom 1.3668625875000000 4.1005877625000000 30.0354884624999983 O
atom 0.0000000000000000 0.0000000000000000 34.1360762249999965 Ce
atom 0.0000000000000000 2.7337251750000000 36.8698013999999930 Ce
atom 2.7337251750000000 0.0000000000000000 36.8698013999999930 Ce
atom 2.7337251750000000 2.7337251750000000 34.1360762249999965 Ce
atom 1.3668625875000000 4.1005877625000000 38.2366639874999876 O
atom 4.1005877625000000 1.3668625875000000 35.5029388124999983 O
atom 1.3668625875000000 1.3668625875000000 35.5029388124999983 O
atom 4.1005877625000000 4.1005877625000000 38.2366639874999876 O
atom 4.1005877625000000 4.1005877625000000 35.5029388124999983 O
atom 1.3668625875000000 1.3668625875000000 38.2366639874999876 O
atom 4.1005877625000000 1.3668625875000000 38.2366639874999876 O
atom 1.3668625875000000 4.1005877625000000 35.5029388124999983 O
atom 0.0000000000000000 0.0000000000000000 39.6035265749999965 Ce
atom 0.0000000000000000 2.7337251750000000 42.3372517499999930 Ce
atom 2.7337251750000000 0.0000000000000000 42.3372517499999930 Ce
atom 2.7337251750000000 2.7337251750000000 39.6035265749999965 Ce
atom 1.3668625875000000 4.1005877625000000 43.7041143374999947 O
atom 4.1005877625000000 1.3668625875000000 40.9703891624999912 O
atom 1.3668625875000000 1.3668625875000000 40.9703891624999912 O
atom 4.1005877625000000 4.1005877625000000 43.7041143374999947 O
atom 4.1005877625000000 4.1005877625000000 40.9703891624999912 O
atom 1.3668625875000000 1.3668625875000000 43.7041143374999947 O
atom 4.1005877625000000 1.3668625875000000 43.7041143374999947 O
atom 1.3668625875000000 4.1005877625000000 40.9703891624999912 O
atom 0.0000000000000000 0.0000000000000000 45.0709769249999894 Ce
atom 0.0000000000000000 2.7337251750000000 47.8047020999999930 Ce
atom 2.7337251750000000 0.0000000000000000 47.8047020999999930 Ce
atom 2.7337251750000000 2.7337251750000000 45.0709769249999894 Ce
atom 1.3668625875000000 4.1005877625000000 49.1715646874999877 O
atom 4.1005877625000000 1.3668625875000000 46.4378395124999912 O
atom 1.3668625875000000 1.3668625875000000 46.4378395124999912 O
atom 4.1005877625000000 4.1005877625000000 49.1715646874999877 O
atom 4.1005877625000000 4.1005877625000000 46.4378395124999912 O
atom 1.3668625875000000 1.3668625875000000 49.1715646874999877 O
atom 4.1005877625000000 1.3668625875000000 49.1715646874999877 O
atom 1.3668625875000000 4.1005877625000000 46.4378395124999912 O
atom 0.0000000000000000 0.0000000000000000 50.5384272749999823 Ce
atom 0.0000000000000000 2.7337251750000000 53.2721524499999788 Ce
atom 2.7337251750000000 0.0000000000000000 53.2721524499999788 Ce
atom 2.7337251750000000 2.7337251750000000 50.5384272749999823 Ce
atom 1.3668625875000000 4.1005877625000000 54.6390150374999806 O
atom 4.1005877625000000 1.3668625875000000 51.9052898624999912 O
atom 1.3668625875000000 1.3668625875000000 51.9052898624999912 O
atom 4.1005877625000000 4.1005877625000000 54.6390150374999806 O
atom 4.1005877625000000 4.1005877625000000 51.9052898624999912 O
atom 1.3668625875000000 1.3668625875000000 54.6390150374999806 O
atom 4.1005877625000000 1.3668625875000000 54.6390150374999806 O
atom 1.3668625875000000 4.1005877625000000 51.9052898624999912 O
atom 0.0000000000000000 0.0000000000000000 56.0058776249999895 Ce
atom 0.0000000000000000 2.7337251750000000 58.7396027999999930 Ce
atom 2.7337251750000000 0.0000000000000000 58.7396027999999930 Ce
atom 2.7337251750000000 2.7337251750000000 56.0058776249999895 Ce
atom 1.3668625875000000 4.1005877625000000 60.1064653874999877 O
atom 4.1005877625000000 1.3668625875000000 57.3727402124999912 O
atom 1.3668625875000000 1.3668625875000000 57.3727402124999912 O
atom 4.1005877625000000 4.1005877625000000 60.1064653874999877 O
atom 4.1005877625000000 4.1005877625000000 57.3727402124999912 O
atom 1.3668625875000000 1.3668625875000000 60.1064653874999877 O
atom 4.1005877625000000 1.3668625875000000 60.1064653874999877 O
atom 1.3668625875000000 4.1005877625000000 57.3727402124999912 O
atom 0.0000000000000000 0.0000000000000000 61.4733279749999824 Ce
atom 2.7337251750000000 2.7337251750000000 61.4733279749999824 Ce
