#===============================================================================
# Created using the Atomic Simulation Environment (ASE)

# Wed Feb 11 17:35:14 2026

#=======================================================
lattice_vector 7.7321424365715252 0.0000000000000000 0.0000000000000000 
lattice_vector 3.8660712182857631 6.6962317757506478 0.0000000000000000 
lattice_vector 0.0000000000000000 0.0000000000000000 59.9880223478574308 
atom 9.6651780457144056 3.3481158878753230 15.0000000000000018 O
atom 11.5982136548572861 6.6962317757506469 15.0000000000000018 O
atom 5.7991068274286430 3.3481158878753234 15.0000000000000018 O
atom 3.8660712182857613 0.0000000000000000 15.0000000000000018 O
atom 7.7321424365715243 4.4641545171670973 15.7891584828383547 Ce
atom 5.7991068274286430 1.1160386292917741 15.7891584828383547 Ce
atom 3.8660712182857595 4.4641545171670973 15.7891584828383547 Ce
atom 1.9330356091428782 1.1160386292917741 15.7891584828383547 Ce
atom 5.7991068274286395 1.1160386292917739 18.1566339313534151 O
atom 5.7991068274286421 5.5801931464588730 16.5783169656767093 O
atom 7.7321424365715208 4.4641545171670973 18.1566339313534151 O
atom 3.8660712182857599 2.2320772585835482 16.5783169656767093 O
atom 1.9330356091428817 1.1160386292917741 18.1566339313534151 O
atom 9.6651780457144039 5.5801931464588730 16.5783169656767093 O
atom 3.8660712182857595 4.4641545171670973 18.1566339313534151 O
atom 7.7321424365715226 2.2320772585835482 16.5783169656767093 O
atom 3.8660712182857599 2.2320772585835482 18.9457924141917680 Ce
atom 5.7991068274286413 5.5801931464588721 18.9457924141917680 Ce
atom 7.7321424365715199 2.2320772585835482 18.9457924141917680 Ce
atom 9.6651780457144021 5.5801931464588721 18.9457924141917680 Ce
atom 5.7991068274286377 5.5801931464588712 21.3132678627068302 O
atom 9.6651780457144021 3.3481158878753225 19.7349508970301208 O
atom 3.8660712182857560 2.2320772585835473 21.3132678627068302 O
atom 11.5982136548572825 6.6962317757506469 19.7349508970301244 O
atom 9.6651780457144021 5.5801931464588730 21.3132678627068302 O
atom 5.7991068274286404 3.3481158878753230 19.7349508970301244 O
atom 7.7321424365715199 2.2320772585835482 21.3132678627068302 O
atom 7.7321424365715217 6.6962317757506469 19.7349508970301208 O
atom 11.5982136548572843 6.6962317757506460 22.1024263455451830 Ce
atom 9.6651780457144003 3.3481158878753225 22.1024263455451830 Ce
atom 7.7321424365715181 6.6962317757506460 22.1024263455451830 Ce
atom 5.7991068274286395 3.3481158878753225 22.1024263455451830 Ce
atom 9.6651780457144021 3.3481158878753208 24.4699017940602417 O
atom 5.7991068274286359 1.1160386292917743 22.8915848283835359 O
atom 11.5982136548572825 6.6962317757506433 24.4699017940602417 O
atom 7.7321424365715208 4.4641545171670982 22.8915848283835359 O
atom 5.7991068274286341 3.3481158878753239 24.4699017940602417 O
atom 1.9330356091428789 1.1160386292917721 22.8915848283835359 O
atom 3.8660712182857560 0.0000000000000000 24.4699017940602417 O
atom 3.8660712182857604 4.4641545171670964 22.8915848283835359 O
atom 7.7321424365715199 4.4641545171670964 25.2590602768985946 Ce
atom 5.7991068274286377 1.1160386292917721 25.2590602768985946 Ce
atom 3.8660712182857568 4.4641545171670964 25.2590602768985946 Ce
atom 1.9330356091428729 1.1160386292917737 25.2590602768985981 Ce
atom 5.7991068274286341 1.1160386292917706 27.6265357254136568 O
atom 5.7991068274286368 5.5801931464588694 26.0482187597369474 O
atom 7.7321424365715190 4.4641545171670947 27.6265357254136568 O
atom 3.8660712182857524 2.2320772585835473 26.0482187597369510 O
atom 1.9330356091428753 1.1160386292917721 27.6265357254136568 O
atom 9.6651780457144021 5.5801931464588694 26.0482187597369510 O
atom 3.8660712182857604 4.4641545171670964 27.6265357254136568 O
atom 7.7321424365715208 2.2320772585835464 26.0482187597369510 O
atom 3.8660712182857524 2.2320772585835473 28.4156942082520061 Ce
atom 5.7991068274286341 5.5801931464588712 28.4156942082520061 Ce
atom 7.7321424365715155 2.2320772585835473 28.4156942082520061 Ce
atom 9.6651780457143968 5.5801931464588712 28.4156942082520061 Ce
atom 5.7991068274286333 5.5801931464588694 30.7831696567670683 O
atom 9.6651780457143985 3.3481158878753208 29.2048526910903625 O
atom 3.8660712182857577 2.2320772585835442 30.7831696567670718 O
atom 11.5982136548572790 6.6962317757506451 29.2048526910903590 O
atom 9.6651780457144003 5.5801931464588694 30.7831696567670683 O
atom 5.7991068274286359 3.3481158878753208 29.2048526910903625 O
atom 7.7321424365715190 2.2320772585835473 30.7831696567670683 O
atom 7.7321424365715163 6.6962317757506433 29.2048526910903625 O
atom 11.5982136548572790 6.6962317757506451 31.5723281396054212 Ce
atom 9.6651780457143950 3.3481158878753208 31.5723281396054212 Ce
atom 7.7321424365715226 6.6962317757506415 31.5723281396054247 Ce
atom 5.7991068274286359 3.3481158878753208 31.5723281396054212 Ce
atom 9.6651780457143914 3.3481158878753194 33.9398035881204834 O
atom 5.7991068274286306 1.1160386292917706 32.3614866224437776 O
atom 11.5982136548572772 6.6962317757506415 33.9398035881204834 O
atom 7.7321424365715128 4.4641545171670964 32.3614866224437705 O
atom 5.7991068274286359 3.3481158878753208 33.9398035881204834 O
atom 1.9330356091428744 1.1160386292917706 32.3614866224437776 O
atom 7.7321424365715172 6.6962317757506451 33.9398035881204834 O
atom 3.8660712182857560 4.4641545171670947 32.3614866224437776 O
atom 7.7321424365715119 4.4641545171670947 34.7289620709588363 Ce
atom 5.7991068274286306 1.1160386292917706 34.7289620709588363 Ce
atom 3.8660712182857440 4.4641545171670973 34.7289620709588363 Ce
atom 1.9330356091428702 1.1160386292917752 34.7289620709588291 Ce
atom 5.7991068274286377 1.1160386292917706 37.0964375194738949 O
atom 5.7991068274286341 5.5801931464588712 35.5181205537971891 O
atom 7.7321424365715190 4.4641545171670947 37.0964375194738949 O
atom 3.8660712182857524 2.2320772585835473 35.5181205537971891 O
atom 1.9330356091428675 1.1160386292917706 37.0964375194738949 O
atom 9.6651780457143950 5.5801931464588685 35.5181205537971891 O
atom 3.8660712182857506 4.4641545171670973 37.0964375194738949 O
atom 7.7321424365715128 2.2320772585835429 35.5181205537971891 O
atom 3.8660712182857506 2.2320772585835442 37.8855960023122549 Ce
atom 5.7991068274286324 5.5801931464588685 37.8855960023122549 Ce
atom 7.7321424365715199 2.2320772585835442 37.8855960023122549 Ce
atom 9.6651780457143932 5.5801931464588650 37.8855960023122549 Ce
atom 5.7991068274286395 5.5801931464588685 40.2530714508273064 O
atom 9.6651780457143985 3.3481158878753208 38.6747544851506007 O
atom 3.8660712182857577 2.2320772585835442 40.2530714508273064 O
atom 11.5982136548572772 6.6962317757506415 38.6747544851506007 O
atom 9.6651780457143950 5.5801931464588685 40.2530714508273064 O
atom 5.7991068274286359 3.3481158878753208 38.6747544851506007 O
atom 7.7321424365715137 2.2320772585835442 40.2530714508273064 O
atom 7.7321424365715155 6.6962317757506415 38.6747544851506007 O
atom 11.5982136548572736 6.6962317757506451 41.0422299336656664 Ce
atom 9.6651780457143985 3.3481158878753208 41.0422299336656664 Ce
atom 7.7321424365715101 6.6962317757506451 41.0422299336656664 Ce
atom 5.7991068274286253 3.3481158878753150 41.0422299336656593 Ce
atom 9.6651780457143985 3.3481158878753208 43.4097053821807179 O
atom 5.7991068274286244 1.1160386292917737 41.8313884165040122 O
atom 11.5982136548572736 6.6962317757506451 43.4097053821807251 O
atom 7.7321424365715119 4.4641545171670947 41.8313884165040122 O
atom 5.7991068274286288 3.3481158878753208 43.4097053821807251 O
atom 1.9330356091428726 1.1160386292917677 41.8313884165040122 O
atom 7.7321424365715039 6.6962317757506451 43.4097053821807179 O
atom 3.8660712182857542 4.4641545171670920 41.8313884165040122 O
atom 7.7321424365715048 4.4641545171670947 44.1988638650190779 Ce
atom 5.7991068274286288 1.1160386292917677 44.1988638650190779 Ce
atom 3.8660712182857493 4.4641545171670947 44.1988638650190779 Ce
atom 1.9330356091428642 1.1160386292917648 44.1988638650190779 Ce
atom 5.7991068274286253 5.5801931464588685 44.9880223478574308 O
atom 3.8660712182857506 2.2320772585835442 44.9880223478574308 O
atom 9.6651780457143879 5.5801931464588685 44.9880223478574308 O
atom 7.7321424365715137 2.2320772585835442 44.9880223478574308 O
