#===============================================================================
# Created using the Atomic Simulation Environment (ASE)

# Wed Feb 11 17:35:14 2026

#=======================================================
lattice_vector 17.2895960998847862 0.0000000000000000 0.0000000000000000 
lattice_vector 5.1868788299654360 5.7343103040109913 0.0000000000000000 
lattice_vector 0.0000000000000000 0.0000000000000000 32.4727474596609937 
atom 10.3737576599308721 1.0426018734565443 15.0000000000000000 O
atom 12.9671970749135888 3.9097570254620391 15.0000000000000000 O
atom 1.7289596099884776 1.0426018734565441 15.0000000000000000 O
atom 4.3223990249711957 3.9097570254620391 15.0000000000000000 O
atom 17.2895960998847862 5.2130093672827194 15.4121245766101662 Ce
atom 14.6961566849020695 2.3458542152772237 15.4121245766101662 Ce
atom 8.6447980499423931 5.2130093672827202 15.4121245766101662 Ce
atom 6.0513586349596755 2.3458542152772237 15.4121245766101662 Ce
atom 19.0185557098732652 3.6491065570979035 15.8242491532203324 O
atom 5.1868788299654360 0.5213009367282723 16.6484983064406649 O
atom 16.4251162948905467 0.7819514050924078 15.8242491532203324 O
atom 7.7803182449481536 3.3884560887337676 16.6484983064406649 O
atom 10.3737576599308721 3.6491065570979035 15.8242491532203324 O
atom 13.8316768799078282 0.5213009367282720 16.6484983064406649 O
atom 7.7803182449481536 0.7819514050924081 15.8242491532203307 O
atom 16.4251162948905467 3.3884560887337676 16.6484983064406649 O
atom 12.1027172699193510 4.6917084305544474 17.0606228830508293 Ce
atom 9.5092778549366344 1.8245532785489518 17.0606228830508293 Ce
atom 20.7475153198617441 4.6917084305544474 17.0606228830508293 Ce
atom 18.1540759048790257 1.8245532785489518 17.0606228830508293 Ce
atom 13.8316768799078282 3.1278056203696312 17.4727474596609937 O
atom 11.2382374649251098 0.2606504683641360 17.4727474596609937 O
atom 5.1868788299654360 3.1278056203696312 17.4727474596609937 O
atom 2.5934394149827176 0.2606504683641363 17.4727474596609937 O
