#===============================================================================
# Created using the Atomic Simulation Environment (ASE)

# Wed Feb 11 17:35:14 2026

#=======================================================
lattice_vector 7.7321424365715252 0.0000000000000000 0.0000000000000000 
lattice_vector 3.8660712182857631 6.6962317757506478 0.0000000000000000 
lattice_vector 0.0000000000000000 0.0000000000000000 44.2048526910903590 
atom 9.6651780457144056 3.3481158878753234 15.0000000000000000 O
atom 7.7321424365715226 0.0000000000000000 15.0000000000000000 O
atom 5.7991068274286430 3.3481158878753234 15.0000000000000000 O
atom 3.8660712182857613 0.0000000000000000 15.0000000000000000 O
atom 7.7321424365715243 4.4641545171670982 15.7891584828383529 Ce
atom 5.7991068274286430 1.1160386292917746 15.7891584828383529 Ce
atom 3.8660712182857599 4.4641545171670982 15.7891584828383529 Ce
atom 1.9330356091428766 1.1160386292917746 15.7891584828383529 Ce
atom 5.7991068274286377 1.1160386292917748 18.1566339313534115 O
atom 5.7991068274286421 5.5801931464588730 16.5783169656767058 O
atom 7.7321424365715208 4.4641545171670982 18.1566339313534115 O
atom 3.8660712182857604 2.2320772585835491 16.5783169656767058 O
atom 1.9330356091428784 1.1160386292917746 18.1566339313534115 O
atom 9.6651780457144039 5.5801931464588730 16.5783169656767058 O
atom 3.8660712182857599 4.4641545171670982 18.1566339313534115 O
atom 7.7321424365715226 2.2320772585835491 16.5783169656767058 O
atom 3.8660712182857604 2.2320772585835487 18.9457924141917644 Ce
atom 5.7991068274286421 5.5801931464588730 18.9457924141917644 Ce
atom 7.7321424365715199 2.2320772585835487 18.9457924141917644 Ce
atom 9.6651780457144021 5.5801931464588730 18.9457924141917644 Ce
atom 5.7991068274286377 5.5801931464588721 21.3132678627068266 O
atom 9.6651780457144039 3.3481158878753239 19.7349508970301173 O
atom 3.8660712182857564 2.2320772585835482 21.3132678627068231 O
atom 7.7321424365715199 0.0000000000000000 19.7349508970301173 O
atom 9.6651780457144021 5.5801931464588730 21.3132678627068231 O
atom 5.7991068274286404 3.3481158878753239 19.7349508970301173 O
atom 7.7321424365715199 2.2320772585835487 21.3132678627068231 O
atom 3.8660712182857591 0.0000000000000002 19.7349508970301173 O
atom 7.7321424365715199 0.0000000000000000 22.1024263455451759 Ce
atom 9.6651780457144021 3.3481158878753239 22.1024263455451759 Ce
atom 3.8660712182857560 0.0000000000000000 22.1024263455451759 Ce
atom 5.7991068274286368 3.3481158878753230 22.1024263455451795 Ce
atom 9.6651780457144021 3.3481158878753225 24.4699017940602417 O
atom 5.7991068274286359 1.1160386292917743 22.8915848283835288 O
atom 11.5982136548572825 6.6962317757506451 24.4699017940602381 O
atom 7.7321424365715208 4.4641545171670982 22.8915848283835288 O
atom 5.7991068274286341 3.3481158878753239 24.4699017940602346 O
atom 1.9330356091428798 1.1160386292917737 22.8915848283835324 O
atom 3.8660712182857560 0.0000000000000000 24.4699017940602346 O
atom 3.8660712182857613 4.4641545171670973 22.8915848283835324 O
atom 7.7321424365715208 4.4641545171670973 25.2590602768985910 Ce
atom 5.7991068274286395 1.1160386292917743 25.2590602768985910 Ce
atom 3.8660712182857542 4.4641545171670973 25.2590602768985875 Ce
atom 1.9330356091428738 1.1160386292917752 25.2590602768985910 Ce
atom 5.7991068274286341 1.1160386292917721 27.6265357254136497 O
atom 5.7991068274286377 5.5801931464588712 26.0482187597369403 O
atom 7.7321424365715199 4.4641545171670964 27.6265357254136497 O
atom 3.8660712182857533 2.2320772585835487 26.0482187597369439 O
atom 1.9330356091428766 1.1160386292917743 27.6265357254136497 O
atom 9.6651780457144039 5.5801931464588712 26.0482187597369474 O
atom 3.8660712182857577 4.4641545171670973 27.6265357254136497 O
atom 7.7321424365715190 2.2320772585835482 26.0482187597369474 O
atom 3.8660712182857533 2.2320772585835487 28.4156942082520061 Ce
atom 5.7991068274286315 5.5801931464588730 28.4156942082520025 Ce
atom 7.7321424365715163 2.2320772585835487 28.4156942082520025 Ce
atom 9.6651780457143950 5.5801931464588739 28.4156942082520025 Ce
atom 9.6651780457143985 3.3481158878753225 29.2048526910903590 O
atom 11.5982136548572807 6.6962317757506460 29.2048526910903519 O
atom 5.7991068274286368 3.3481158878753225 29.2048526910903590 O
atom 7.7321424365715172 6.6962317757506451 29.2048526910903590 O
