#===============================================================================
# Created using the Atomic Simulation Environment (ASE)

# Wed Feb 11 17:35:14 2026

#=======================================================
lattice_vector 7.7321424365715252 0.0000000000000000 0.0000000000000000 
lattice_vector 3.8660712182857631 6.6962317757506478 0.0000000000000000 
lattice_vector 0.0000000000000000 0.0000000000000000 34.7349508970301173 
atom 1.9330356091428809 3.3481158878753225 14.9999999999999964 O
atom 3.8660712182857622 6.6962317757506460 14.9999999999999982 O
atom 5.7991068274286439 3.3481158878753230 14.9999999999999982 O
atom 7.7321424365715252 6.6962317757506469 14.9999999999999982 O
atom 7.7321424365715252 4.4641545171670973 15.7891584828383511 Ce
atom 5.7991068274286439 1.1160386292917741 15.7891584828383511 Ce
atom 3.8660712182857631 4.4641545171670973 15.7891584828383493 Ce
atom 1.9330356091428815 1.1160386292917737 15.7891584828383493 Ce
atom 5.7991068274286421 1.1160386292917730 18.1566339313534115 O
atom 5.7991068274286430 5.5801931464588721 16.5783169656767058 O
atom 7.7321424365715252 4.4641545171670964 18.1566339313534115 O
atom 3.8660712182857617 2.2320772585835482 16.5783169656767058 O
atom 1.9330356091428831 1.1160386292917737 18.1566339313534115 O
atom 9.6651780457144056 5.5801931464588721 16.5783169656767058 O
atom 3.8660712182857631 4.4641545171670973 18.1566339313534115 O
atom 7.7321424365715243 2.2320772585835482 16.5783169656767058 O
atom 3.8660712182857617 2.2320772585835482 18.9457924141917644 Ce
atom 5.7991068274286430 5.5801931464588721 18.9457924141917644 Ce
atom 7.7321424365715234 2.2320772585835473 18.9457924141917644 Ce
atom 9.6651780457144056 5.5801931464588712 18.9457924141917644 Ce
atom 1.9330356091428802 3.3481158878753217 19.7349508970301137 O
atom 3.8660712182857622 6.6962317757506460 19.7349508970301137 O
atom 5.7991068274286430 3.3481158878753225 19.7349508970301173 O
atom 7.7321424365715270 6.6962317757506460 19.7349508970301173 O
