#===============================================================================
# Created using the Atomic Simulation Environment (ASE)

# Wed Feb 11 17:35:14 2026

#=======================================================
lattice_vector 17.2895960998847862 0.0000000000000000 0.0000000000000000 
lattice_vector 5.1868788299654360 5.7343103040109913 0.0000000000000000 
lattice_vector 0.0000000000000000 0.0000000000000000 45.6607339111863126 
atom 10.3737576599308721 1.0426018734565441 14.9999999999999982 O
atom 12.9671970749135905 3.9097570254620391 14.9999999999999982 O
atom 1.7289596099884776 1.0426018734565439 14.9999999999999982 O
atom 4.3223990249711957 3.9097570254620391 14.9999999999999982 O
atom 17.2895960998847862 5.2130093672827194 15.4121245766101644 Ce
atom 14.6961566849020695 2.3458542152772237 15.4121245766101644 Ce
atom 8.6447980499423931 5.2130093672827202 15.4121245766101644 Ce
atom 6.0513586349596755 2.3458542152772237 15.4121245766101644 Ce
atom 19.0185557098732652 3.6491065570979027 15.8242491532203307 O
atom 5.1868788299654360 0.5213009367282719 16.6484983064406649 O
atom 16.4251162948905467 0.7819514050924078 15.8242491532203307 O
atom 7.7803182449481536 3.3884560887337671 16.6484983064406649 O
atom 10.3737576599308721 3.6491065570979035 15.8242491532203307 O
atom 13.8316768799078282 0.5213009367282717 16.6484983064406613 O
atom 7.7803182449481536 0.7819514050924080 15.8242491532203307 O
atom 16.4251162948905467 3.3884560887337676 16.6484983064406613 O
atom 12.1027172699193510 4.6917084305544474 17.0606228830508293 Ce
atom 9.5092778549366326 1.8245532785489513 17.0606228830508293 Ce
atom 20.7475153198617441 4.6917084305544474 17.0606228830508293 Ce
atom 18.1540759048790257 1.8245532785489513 17.0606228830508293 Ce
atom 13.8316768799078300 3.1278056203696312 17.4727474596609937 O
atom 0.0000000000000004 0.0000000000000000 18.2969966128813297 O
atom 11.2382374649251116 0.2606504683641356 17.4727474596609937 O
atom 2.5934394149827180 2.8671551520054952 18.2969966128813297 O
atom 5.1868788299654360 3.1278056203696312 17.4727474596609937 O
atom 13.8316768799078265 5.7343103040109904 18.2969966128813297 O
atom 2.5934394149827180 0.2606504683641359 17.4727474596609937 O
atom 11.2382374649251098 2.8671551520054952 18.2969966128813297 O
atom 6.9158384399539150 4.1704074938261746 18.7091211894914942 Ce
atom 4.3223990249711974 1.3032523418206794 18.7091211894914942 Ce
atom 15.5606364898963090 4.1704074938261755 18.7091211894914942 Ce
atom 12.9671970749135905 1.3032523418206794 18.7091211894914942 Ce
atom 8.6447980499423931 2.6065046836413588 19.1212457661016586 O
atom 17.2895960998847862 5.2130093672827194 19.9454949193219946 O
atom 11.2382374649251116 5.4736598356468553 19.1212457661016586 O
atom 14.6961566849020695 2.3458542152772233 19.9454949193219946 O
atom 17.2895960998847862 2.6065046836413592 19.1212457661016586 O
atom 8.6447980499423913 5.2130093672827185 19.9454949193219910 O
atom 19.8830355148675046 5.4736598356468553 19.1212457661016586 O
atom 6.0513586349596711 2.3458542152772233 19.9454949193219946 O
atom 19.0185557098732652 3.6491065570979027 20.3576194959321590 Ce
atom 16.4251162948905503 0.7819514050924073 20.3576194959321590 Ce
atom 10.3737576599308721 3.6491065570979027 20.3576194959321590 Ce
atom 7.7803182449481527 0.7819514050924073 20.3576194959321590 Ce
atom 3.4579192199769571 2.0852037469130869 20.7697440725423235 O
atom 12.1027172699193510 4.6917084305544474 21.5939932257626559 O
atom 6.0513586349596755 4.9523588989185825 20.7697440725423235 O
atom 9.5092778549366326 1.8245532785489511 21.5939932257626594 O
atom 12.1027172699193528 2.0852037469130873 20.7697440725423235 O
atom 20.7475153198617441 4.6917084305544465 21.5939932257626559 O
atom 14.6961566849020677 4.9523588989185825 20.7697440725423235 O
atom 18.1540759048790221 1.8245532785489511 21.5939932257626559 O
atom 13.8316768799078300 3.1278056203696307 22.0061178023728203 Ce
atom 11.2382374649251080 0.2606504683641352 22.0061178023728203 Ce
atom 5.1868788299654360 3.1278056203696312 22.0061178023728239 Ce
atom 2.5934394149827189 0.2606504683641352 22.0061178023728239 Ce
atom 15.5606364898963090 1.5639028101848147 22.4182423789829883 O
atom 6.9158384399539123 4.1704074938261746 23.2424915322033243 O
atom 18.1540759048790221 4.4310579621903097 22.4182423789829883 O
atom 4.3223990249711965 1.3032523418206790 23.2424915322033243 O
atom 6.9158384399539141 1.5639028101848147 22.4182423789829883 O
atom 15.5606364898963072 4.1704074938261746 23.2424915322033243 O
atom 9.5092778549366326 4.4310579621903106 22.4182423789829883 O
atom 12.9671970749135905 1.3032523418206790 23.2424915322033243 O
atom 8.6447980499423949 2.6065046836413588 23.6546161088134852 Ce
atom 11.2382374649251133 5.4736598356468544 23.6546161088134852 Ce
atom 17.2895960998847862 2.6065046836413588 23.6546161088134852 Ce
atom 19.8830355148675046 5.4736598356468544 23.6546161088134888 Ce
atom 10.3737576599308738 1.0426018734565428 24.0667406854236532 O
atom 19.0185557098732652 3.6491065570979027 24.8909898386439892 O
atom 12.9671970749135888 3.9097570254620386 24.0667406854236567 O
atom 16.4251162948905503 0.7819514050924070 24.8909898386439856 O
atom 1.7289596099884770 1.0426018734565428 24.0667406854236567 O
atom 10.3737576599308685 3.6491065570979022 24.8909898386439856 O
atom 4.3223990249711992 3.9097570254620386 24.0667406854236532 O
atom 7.7803182449481501 0.7819514050924067 24.8909898386439856 O
atom 3.4579192199769548 2.0852037469130864 25.3031144152541501 Ce
atom 6.0513586349596729 4.9523588989185825 25.3031144152541536 Ce
atom 12.1027172699193528 2.0852037469130873 25.3031144152541501 Ce
atom 14.6961566849020713 4.9523588989185825 25.3031144152541501 Ce
atom 5.1868788299654378 0.5213009367282707 25.7152389918643181 O
atom 13.8316768799078247 3.1278056203696303 26.5394881450846540 O
atom 7.7803182449481518 3.3884560887337658 25.7152389918643181 O
atom 11.2382374649251151 0.2606504683641349 26.5394881450846505 O
atom 13.8316768799078265 0.5213009367282706 25.7152389918643181 O
atom 5.1868788299654369 3.1278056203696307 26.5394881450846505 O
atom 16.4251162948905503 3.3884560887337671 25.7152389918643181 O
atom 2.5934394149827109 0.2606504683641347 26.5394881450846505 O
atom 15.5606364898963090 1.5639028101848145 26.9516127216948149 Ce
atom 18.1540759048790363 4.4310579621903106 26.9516127216948149 Ce
atom 6.9158384399539159 1.5639028101848145 26.9516127216948149 Ce
atom 9.5092778549366344 4.4310579621903097 26.9516127216948149 Ce
atom 5.1868788299654351 5.7343103040109904 27.3637372983049829 O
atom 8.6447980499423895 2.6065046836413588 28.1879864515253189 O
atom 2.5934394149827167 2.8671551520054943 27.3637372983049829 O
atom 11.2382374649251133 5.4736598356468544 28.1879864515253153 O
atom 13.8316768799078282 5.7343103040109904 27.3637372983049829 O
atom 17.2895960998847791 2.6065046836413588 28.1879864515253153 O
atom 11.2382374649251098 2.8671551520054952 27.3637372983049829 O
atom 19.8830355148675046 5.4736598356468535 28.1879864515253153 O
atom 10.3737576599308703 1.0426018734565423 28.6001110281354798 Ce
atom 12.9671970749135870 3.9097570254620373 28.6001110281354833 Ce
atom 1.7289596099884887 1.0426018734565430 28.6001110281354798 Ce
atom 4.3223990249711992 3.9097570254620386 28.6001110281354798 Ce
atom 17.2895960998847897 5.2130093672827176 29.0122356047456478 O
atom 3.4579192199769548 2.0852037469130864 29.8364847579659802 O
atom 14.6961566849020713 2.3458542152772224 29.0122356047456478 O
atom 6.0513586349596729 4.9523588989185825 29.8364847579659802 O
atom 8.6447980499423931 5.2130093672827176 29.0122356047456478 O
atom 12.1027172699193564 2.0852037469130864 29.8364847579659802 O
atom 6.0513586349596782 2.3458542152772228 29.0122356047456478 O
atom 14.6961566849020642 4.9523588989185816 29.8364847579659802 O
atom 5.1868788299654378 0.5213009367282702 30.2486093345761446 Ce
atom 7.7803182449481554 3.3884560887337658 30.2486093345761446 Ce
atom 13.8316768799078229 0.5213009367282702 30.2486093345761482 Ce
atom 16.4251162948905396 3.3884560887337658 30.2486093345761482 Ce
atom 12.1027172699193564 4.6917084305544456 30.6607339111863126 O
atom 9.5092778549366326 1.8245532785489502 30.6607339111863126 O
atom 20.7475153198617406 4.6917084305544456 30.6607339111863126 O
atom 18.1540759048790186 1.8245532785489509 30.6607339111863126 O
