#===============================================================================
# Created using the Atomic Simulation Environment (ASE)

# Wed Feb 11 17:35:14 2026

#=======================================================
lattice_vector 7.7321424365715252 0.0000000000000000 0.0000000000000000 
lattice_vector 3.8660712182857631 6.6962317757506478 0.0000000000000000 
lattice_vector 0.0000000000000000 0.0000000000000000 31.5783169656767093 
atom 1.9330356091428820 3.3481158878753248 15.0000000000000018 O
atom 0.0000000000000004 0.0000000000000006 15.0000000000000018 O
atom 5.7991068274286448 3.3481158878753239 15.0000000000000018 O
atom 3.8660712182857626 0.0000000000000004 15.0000000000000018 O
atom 7.7321424365715270 4.4641545171670991 15.7891584828383547 Ce
atom 5.7991068274286448 1.1160386292917750 15.7891584828383547 Ce
atom 3.8660712182857639 4.4641545171670991 15.7891584828383547 Ce
atom 1.9330356091428824 1.1160386292917752 15.7891584828383547 Ce
atom 5.7991068274286448 5.5801931464588739 16.5783169656767093 O
atom 3.8660712182857648 2.2320772585835504 16.5783169656767093 O
atom 9.6651780457144074 5.5801931464588739 16.5783169656767093 O
atom 7.7321424365715252 2.2320772585835500 16.5783169656767093 O
