#===============================================================================
# Created using the Atomic Simulation Environment (ASE)

# Wed Feb 11 17:35:14 2026

#=======================================================
lattice_vector 7.7321424365715252 0.0000000000000000 0.0000000000000000 
lattice_vector 3.8660712182857631 6.6962317757506478 0.0000000000000000 
lattice_vector 0.0000000000000000 0.0000000000000000 47.3614866224437776 
atom 1.9330356091428809 3.3481158878753225 15.0000000000000036 O
atom 3.8660712182857622 6.6962317757506460 15.0000000000000036 O
atom 5.7991068274286439 3.3481158878753230 15.0000000000000036 O
atom 7.7321424365715252 6.6962317757506469 15.0000000000000036 O
atom 7.7321424365715252 4.4641545171670973 15.7891584828383564 Ce
atom 5.7991068274286439 1.1160386292917741 15.7891584828383564 Ce
atom 3.8660712182857631 4.4641545171670973 15.7891584828383564 Ce
atom 1.9330356091428815 1.1160386292917737 15.7891584828383547 Ce
atom 5.7991068274286421 1.1160386292917730 18.1566339313534151 O
atom 5.7991068274286430 5.5801931464588721 16.5783169656767093 O
atom 7.7321424365715252 4.4641545171670964 18.1566339313534151 O
atom 3.8660712182857617 2.2320772585835482 16.5783169656767093 O
atom 1.9330356091428831 1.1160386292917737 18.1566339313534151 O
atom 9.6651780457144056 5.5801931464588721 16.5783169656767093 O
atom 3.8660712182857631 4.4641545171670973 18.1566339313534151 O
atom 7.7321424365715243 2.2320772585835482 16.5783169656767093 O
atom 3.8660712182857617 2.2320772585835482 18.9457924141917680 Ce
atom 5.7991068274286430 5.5801931464588721 18.9457924141917680 Ce
atom 7.7321424365715234 2.2320772585835473 18.9457924141917680 Ce
atom 9.6651780457144056 5.5801931464588712 18.9457924141917680 Ce
atom 5.7991068274286439 5.5801931464588703 21.3132678627068302 O
atom 1.9330356091428802 3.3481158878753217 19.7349508970301208 O
atom 3.8660712182857657 2.2320772585835464 21.3132678627068302 O
atom 3.8660712182857622 6.6962317757506460 19.7349508970301208 O
atom 9.6651780457144056 5.5801931464588712 21.3132678627068302 O
atom 5.7991068274286430 3.3481158878753225 19.7349508970301208 O
atom 7.7321424365715234 2.2320772585835473 21.3132678627068302 O
atom 7.7321424365715270 6.6962317757506460 19.7349508970301244 O
atom 3.8660712182857613 6.6962317757506451 22.1024263455451830 Ce
atom 1.9330356091428802 3.3481158878753217 22.1024263455451830 Ce
atom 7.7321424365715243 6.6962317757506451 22.1024263455451830 Ce
atom 5.7991068274286430 3.3481158878753217 22.1024263455451830 Ce
atom 1.9330356091428824 3.3481158878753194 24.4699017940602417 O
atom 5.7991068274286377 1.1160386292917721 22.8915848283835324 O
atom 3.8660712182857666 6.6962317757506415 24.4699017940602417 O
atom 7.7321424365715234 4.4641545171670964 22.8915848283835324 O
atom 5.7991068274286395 3.3481158878753217 24.4699017940602417 O
atom 1.9330356091428817 1.1160386292917714 22.8915848283835359 O
atom 7.7321424365715208 6.6962317757506451 24.4699017940602417 O
atom 3.8660712182857635 4.4641545171670964 22.8915848283835359 O
atom 7.7321424365715234 4.4641545171670964 25.2590602768985946 Ce
atom 5.7991068274286413 1.1160386292917721 25.2590602768985946 Ce
atom 3.8660712182857631 4.4641545171670947 25.2590602768985946 Ce
atom 1.9330356091428784 1.1160386292917714 25.2590602768985946 Ce
atom 5.7991068274286439 1.1160386292917692 27.6265357254136568 O
atom 5.7991068274286404 5.5801931464588694 26.0482187597369474 O
atom 7.7321424365715252 4.4641545171670929 27.6265357254136532 O
atom 3.8660712182857560 2.2320772585835473 26.0482187597369474 O
atom 1.9330356091428789 1.1160386292917721 27.6265357254136532 O
atom 9.6651780457144074 5.5801931464588668 26.0482187597369474 O
atom 3.8660712182857635 4.4641545171670964 27.6265357254136532 O
atom 7.7321424365715270 2.2320772585835442 26.0482187597369474 O
atom 3.8660712182857613 2.2320772585835442 28.4156942082520061 Ce
atom 5.7991068274286404 5.5801931464588694 28.4156942082520061 Ce
atom 7.7321424365715234 2.2320772585835442 28.4156942082520061 Ce
atom 9.6651780457144021 5.5801931464588694 28.4156942082520061 Ce
atom 5.7991068274286448 5.5801931464588668 30.7831696567670718 O
atom 1.9330356091428789 3.3481158878753194 29.2048526910903590 O
atom 3.8660712182857635 2.2320772585835429 30.7831696567670647 O
atom 3.8660712182857604 6.6962317757506433 29.2048526910903590 O
atom 9.6651780457144056 5.5801931464588685 30.7831696567670647 O
atom 5.7991068274286448 3.3481158878753194 29.2048526910903590 O
atom 7.7321424365715270 2.2320772585835442 30.7831696567670647 O
atom 7.7321424365715261 6.6962317757506415 29.2048526910903590 O
atom 3.8660712182857595 6.6962317757506415 31.5723281396054176 Ce
atom 1.9330356091428789 3.3481158878753194 31.5723281396054176 Ce
atom 7.7321424365715288 6.6962317757506415 31.5723281396054247 Ce
atom 5.7991068274286413 3.3481158878753194 31.5723281396054176 Ce
atom 5.7991068274286439 1.1160386292917692 32.3614866224437705 O
atom 7.7321424365715261 4.4641545171670947 32.3614866224437705 O
atom 1.9330356091428873 1.1160386292917692 32.3614866224437776 O
atom 3.8660712182857688 4.4641545171670929 32.3614866224437776 O
