#===============================================================================
# Created using the Atomic Simulation Environment (ASE)

# Wed Feb 11 17:35:14 2026

#=======================================================
lattice_vector 17.2895960998847862 0.0000000000000000 0.0000000000000000 
lattice_vector 5.1868788299654360 5.7343103040109913 0.0000000000000000 
lattice_vector 0.0000000000000000 0.0000000000000000 37.4182423789829883 
atom 10.3737576599308721 1.0426018734565441 15.0000000000000018 O
atom 12.9671970749135888 3.9097570254620391 15.0000000000000036 O
atom 1.7289596099884776 1.0426018734565439 15.0000000000000036 O
atom 4.3223990249711957 3.9097570254620391 15.0000000000000036 O
atom 17.2895960998847862 5.2130093672827194 15.4121245766101680 Ce
atom 14.6961566849020695 2.3458542152772237 15.4121245766101680 Ce
atom 8.6447980499423931 5.2130093672827202 15.4121245766101680 Ce
atom 6.0513586349596755 2.3458542152772237 15.4121245766101680 Ce
atom 19.0185557098732652 3.6491065570979027 15.8242491532203342 O
atom 5.1868788299654360 0.5213009367282720 16.6484983064406649 O
atom 16.4251162948905467 0.7819514050924078 15.8242491532203360 O
atom 7.7803182449481536 3.3884560887337676 16.6484983064406649 O
atom 10.3737576599308721 3.6491065570979035 15.8242491532203342 O
atom 13.8316768799078282 0.5213009367282719 16.6484983064406649 O
atom 7.7803182449481536 0.7819514050924080 15.8242491532203342 O
atom 16.4251162948905467 3.3884560887337676 16.6484983064406649 O
atom 12.1027172699193510 4.6917084305544474 17.0606228830508329 Ce
atom 9.5092778549366344 1.8245532785489518 17.0606228830508329 Ce
atom 20.7475153198617441 4.6917084305544474 17.0606228830508329 Ce
atom 18.1540759048790257 1.8245532785489518 17.0606228830508329 Ce
atom 13.8316768799078300 3.1278056203696312 17.4727474596610008 O
atom 0.0000000000000001 0.0000000000000001 18.2969966128813297 O
atom 11.2382374649251098 0.2606504683641360 17.4727474596610008 O
atom 2.5934394149827180 2.8671551520054956 18.2969966128813297 O
atom 5.1868788299654360 3.1278056203696312 17.4727474596609973 O
atom 8.6447980499423913 0.0000000000000000 18.2969966128813297 O
atom 2.5934394149827180 0.2606504683641361 17.4727474596609973 O
atom 11.2382374649251098 2.8671551520054956 18.2969966128813297 O
atom 6.9158384399539159 4.1704074938261755 18.7091211894914977 Ce
atom 4.3223990249711974 1.3032523418206798 18.7091211894914977 Ce
atom 15.5606364898963090 4.1704074938261755 18.7091211894914977 Ce
atom 12.9671970749135905 1.3032523418206798 18.7091211894914977 Ce
atom 8.6447980499423931 2.6065046836413592 19.1212457661016622 O
atom 17.2895960998847862 5.2130093672827202 19.9454949193219946 O
atom 11.2382374649251098 5.4736598356468553 19.1212457661016622 O
atom 14.6961566849020695 2.3458542152772237 19.9454949193219946 O
atom 17.2895960998847862 2.6065046836413597 19.1212457661016622 O
atom 8.6447980499423913 5.2130093672827194 19.9454949193219946 O
atom 19.8830355148675046 5.4736598356468553 19.1212457661016622 O
atom 6.0513586349596720 2.3458542152772237 19.9454949193219946 O
atom 19.0185557098732687 3.6491065570979035 20.3576194959321626 Ce
atom 16.4251162948905503 0.7819514050924078 20.3576194959321626 Ce
atom 10.3737576599308703 3.6491065570979035 20.3576194959321626 Ce
atom 7.7803182449481536 0.7819514050924078 20.3576194959321626 Ce
atom 3.4579192199769575 2.0852037469130873 20.7697440725423270 O
atom 12.1027172699193510 4.6917084305544474 21.5939932257626594 O
atom 6.0513586349596755 4.9523588989185825 20.7697440725423270 O
atom 9.5092778549366344 1.8245532785489518 21.5939932257626594 O
atom 12.1027172699193475 2.0852037469130877 20.7697440725423270 O
atom 20.7475153198617441 4.6917084305544474 21.5939932257626594 O
atom 14.6961566849020677 4.9523588989185834 20.7697440725423270 O
atom 18.1540759048790221 1.8245532785489513 21.5939932257626594 O
atom 13.8316768799078300 3.1278056203696312 22.0061178023728274 Ce
atom 11.2382374649251080 0.2606504683641359 22.0061178023728274 Ce
atom 5.1868788299654360 3.1278056203696312 22.0061178023728274 Ce
atom 2.5934394149827198 0.2606504683641359 22.0061178023728274 Ce
atom 15.5606364898963090 1.5639028101848154 22.4182423789829883 O
atom 18.1540759048790257 4.4310579621903115 22.4182423789829919 O
atom 6.9158384399539132 1.5639028101848156 22.4182423789829883 O
atom 9.5092778549366326 4.4310579621903115 22.4182423789829883 O
