#===============================================================================
# Created using the Atomic Simulation Environment (ASE)

# Wed Feb 11 17:35:14 2026

#=======================================================
lattice_vector 17.2895960998847862 0.0000000000000000 0.0000000000000000 
lattice_vector 5.1868788299654360 5.7343103040109913 0.0000000000000000 
lattice_vector 0.0000000000000000 0.0000000000000000 30.8242491532203324 
atom 10.3737576599308721 1.0426018734565439 15.0000000000000018 O
atom 12.9671970749135905 3.9097570254620391 15.0000000000000018 O
atom 1.7289596099884781 1.0426018734565439 15.0000000000000018 O
atom 4.3223990249711965 3.9097570254620391 15.0000000000000018 O
atom 17.2895960998847862 5.2130093672827194 15.4121245766101680 Ce
atom 14.6961566849020695 2.3458542152772237 15.4121245766101680 Ce
atom 8.6447980499423931 5.2130093672827194 15.4121245766101680 Ce
atom 6.0513586349596755 2.3458542152772237 15.4121245766101680 Ce
atom 19.0185557098732652 3.6491065570979027 15.8242491532203324 O
atom 16.4251162948905503 0.7819514050924078 15.8242491532203324 O
atom 10.3737576599308721 3.6491065570979027 15.8242491532203324 O
atom 7.7803182449481545 0.7819514050924078 15.8242491532203324 O
