#===============================================================================
# Created using the Atomic Simulation Environment (ASE)

# Wed Feb 11 17:35:14 2026

#=======================================================
lattice_vector 7.7321424365715252 0.0000000000000000 0.0000000000000000 
lattice_vector 3.8660712182857631 6.6962317757506478 0.0000000000000000 
lattice_vector 0.0000000000000000 0.0000000000000000 37.8915848283835359 
atom 9.6651780457144056 3.3481158878753230 15.0000000000000036 O
atom 11.5982136548572861 6.6962317757506469 15.0000000000000036 O
atom 5.7991068274286430 3.3481158878753234 15.0000000000000018 O
atom 3.8660712182857613 0.0000000000000000 15.0000000000000018 O
atom 7.7321424365715243 4.4641545171670973 15.7891584828383564 Ce
atom 5.7991068274286430 1.1160386292917741 15.7891584828383564 Ce
atom 3.8660712182857595 4.4641545171670973 15.7891584828383564 Ce
atom 1.9330356091428782 1.1160386292917741 15.7891584828383564 Ce
atom 5.7991068274286395 1.1160386292917739 18.1566339313534186 O
atom 5.7991068274286421 5.5801931464588730 16.5783169656767093 O
atom 7.7321424365715208 4.4641545171670973 18.1566339313534186 O
atom 3.8660712182857599 2.2320772585835482 16.5783169656767093 O
atom 1.9330356091428817 1.1160386292917741 18.1566339313534186 O
atom 9.6651780457144039 5.5801931464588730 16.5783169656767093 O
atom 3.8660712182857595 4.4641545171670973 18.1566339313534186 O
atom 7.7321424365715226 2.2320772585835482 16.5783169656767093 O
atom 3.8660712182857599 2.2320772585835482 18.9457924141917715 Ce
atom 5.7991068274286413 5.5801931464588721 18.9457924141917715 Ce
atom 7.7321424365715199 2.2320772585835482 18.9457924141917715 Ce
atom 9.6651780457144021 5.5801931464588721 18.9457924141917715 Ce
atom 5.7991068274286377 5.5801931464588712 21.3132678627068337 O
atom 9.6651780457144021 3.3481158878753225 19.7349508970301244 O
atom 3.8660712182857560 2.2320772585835473 21.3132678627068302 O
atom 11.5982136548572825 6.6962317757506469 19.7349508970301244 O
atom 9.6651780457144021 5.5801931464588730 21.3132678627068302 O
atom 5.7991068274286404 3.3481158878753230 19.7349508970301244 O
atom 7.7321424365715199 2.2320772585835482 21.3132678627068302 O
atom 7.7321424365715217 6.6962317757506469 19.7349508970301244 O
atom 11.5982136548572843 6.6962317757506460 22.1024263455451830 Ce
atom 9.6651780457144003 3.3481158878753225 22.1024263455451830 Ce
atom 7.7321424365715181 6.6962317757506460 22.1024263455451830 Ce
atom 5.7991068274286395 3.3481158878753225 22.1024263455451830 Ce
atom 5.7991068274286359 1.1160386292917743 22.8915848283835359 O
atom 7.7321424365715208 4.4641545171670982 22.8915848283835359 O
atom 1.9330356091428789 1.1160386292917721 22.8915848283835359 O
atom 3.8660712182857604 4.4641545171670964 22.8915848283835359 O
