#===============================================================================
# Created using the Atomic Simulation Environment (ASE)

# Wed Jan 28 14:22:56 2026

#=======================================================
lattice_vector 4.5053138700000002 0.0000000000000000 0.0000000000000000 
lattice_vector 0.0000000000000000 4.5053138700000002 0.0000000000000000 
lattice_vector 0.0000000000000000 0.0000000000000000 34.7650726068650187 
atom 2.2526581063816060 2.2526577910096353 15.0000130244955834 Ir
atom 0.0000002703188322 0.0000010362221901 16.5883536600400596 Ir
atom 0.8626157319744424 3.6426898031948984 14.9999999999999982 O
atom 3.6426947139870167 0.8626220394138603 14.9999999999999982 O
atom 2.2526581063816060 2.2526577910096353 18.1767192644955848 Ir
atom 0.0000002703188322 0.0000010362221901 19.7650599000400575 Ir
atom 3.1152779832448090 3.1152816325490438 16.5883663668650208 O
atom 0.8626157319744424 3.6426898031948984 18.1767062399999979 O
atom 1.3900378690932940 1.3900323726103725 16.5883663668650208 O
atom 3.6426947139870167 0.8626220394138603 18.1767062399999979 O
atom 3.1152779832448090 3.1152816325490438 19.7650726068650187 O
atom 1.3900378690932940 1.3900323726103725 19.7650726068650187 O
