#===============================================================================
# Created using the Atomic Simulation Environment (ASE)

# Wed Jan 28 14:22:57 2026

#=======================================================
lattice_vector 6.3714759777016159 0.0000000000000000 0.0000000000000000 
lattice_vector 0.0000000000000000 3.1767062400000001 0.0000000000000000 
lattice_vector 0.0000000000000000 0.0000000000000000 38.8113404125329140 
atom 4.4056667497407380 1.5883597910831038 16.2199255751519438 O
atom 0.0000038866003468 3.1766996642180834 15.0000000000000018 O
atom 0.0000002230016593 1.5883467665875202 16.2199329023493171 Ir
atom 3.1857374472753501 0.0000061310430433 16.2199323926312395 Ir
atom 6.3714733972538440 3.1766996642180834 17.4398644348312999 O
atom 1.2199287608899325 1.5883597910831038 19.4056635640027508 O
atom 3.1857418754511562 3.1766996642180834 18.1857379888508106 O
atom 1.9658082403821022 1.5883597910831038 16.2199335076395350 O
atom 3.1857382118524673 1.5883467665875202 19.4056708912001241 Ir
atom 6.3714754361261567 0.0000061310430433 19.4056703814820466 Ir
atom 3.1857354084030356 3.1766996642180834 20.6256024236821034 O
atom 4.4056667497407371 1.5883597910831038 22.5914015528535579 O
atom 0.0000038866003482 3.1766996642180834 21.3714759777016141 O
atom 5.1515462292329088 1.5883597910831038 19.4056714964903421 O
atom 0.0000002230016579 1.5883467665875202 22.5914088800509312 Ir
atom 3.1857374472753501 0.0000061310430433 22.5914083703328572 Ir
atom 6.3714733972538440 3.1766996642180834 23.8113404125329140 O
atom 1.9658082403821022 1.5883597910831038 22.5914094853411491 O
