#===============================================================================
# Created using the Atomic Simulation Environment (ASE)

# Thu Jan 29 23:03:24 2026

#=======================================================
lattice_vector 5.5126505061058708 0.0000000000000000 0.0000000000000000 
lattice_vector 0.0000000000000000 4.5053138700000002 0.0000000000000000 
lattice_vector 0.0000000000000000 0.0000000000000000 54.9680407311899017 
atom 3.6820534403779290 0.0000010362221901 15.8010222760160417 Ir
atom 2.5460137917223995 3.1152816325490438 15.0000138897820356 O
atom 5.3023423335621240 3.6426898031948984 15.0000000000000036 O
atom 0.9257217294737096 2.2526577910096353 15.8010329984085267 Ir
atom 1.8514526206674236 0.0000010362221901 18.3972432169473343 Ir
atom 0.7154129720118957 3.1152816325490438 17.5962348307133283 O
atom 3.4717415138516210 3.6426898031948984 17.5962209409312962 O
atom 4.8180796224828004 1.3900323726103725 16.6020522628082752 O
atom 2.0617619293942893 0.8626220394138603 16.6020413846425328 O
atom 4.6077714158690757 2.2526577910096353 18.3972539393398193 Ir
atom 0.0208518009569185 0.0000010362221901 20.9934641578786270 Ir
atom 4.3974626584072602 3.1152816325490438 20.1924557716446174 O
atom 1.6411406941411146 3.6426898031948984 20.1924418818625853 O
atom 2.9874788027722938 1.3900323726103725 19.1982732037395643 O
atom 0.2311611096837844 0.8626220394138603 19.1982623255738254 O
atom 2.7771705961585704 2.2526577910096353 20.9934748802711084 Ir
atom 3.7029014873522854 0.0000010362221901 23.5896850988099160 Ir
atom 2.5668618386967563 3.1152816325490438 22.7886767125759135 O
atom 5.3231903805364791 3.6426898031948984 22.7886628227938779 O
atom 1.1568779830617901 1.3900323726103725 21.7944941446708569 O
atom 3.9132107960791491 0.8626220394138603 21.7944832665051180 O
atom 0.9465697764480641 2.2526577910096353 23.5896958212024046 Ir
atom 1.8723006676417817 0.0000010362221901 26.1859060397412051 Ir
atom 0.7362610189862527 3.1152816325490438 25.3848976535072026 O
atom 3.4925895608259756 3.6426898031948984 25.3848837637251705 O
atom 4.8389276694571519 1.3900323726103725 24.3907150856021495 O
atom 2.0826099763686430 0.8626220394138603 24.3907042074364071 O
atom 4.6286194628434334 2.2526577910096353 26.1859167621336937 Ir
atom 0.0416998479312779 0.0000010362221901 28.7821269806725013 Ir
atom 4.4183107053816144 3.1152816325490438 27.9811185944384953 O
atom 1.6619887411154717 3.6426898031948984 27.9811047046564596 O
atom 3.0083268497466533 1.3900323726103725 26.9869360265334421 O
atom 0.2520091566581414 0.8626220394138603 26.9869251483676997 O
atom 2.7980186431329273 2.2526577910096353 28.7821377030649828 Ir
atom 3.7237495343266400 0.0000010362221901 31.3783479216037904 Ir
atom 2.5877098856711109 3.1152816325490438 30.5773395353697808 O
atom 5.3440384275108386 3.6426898031948984 30.5773256455877487 O
atom 1.1777260300361445 1.3900323726103725 29.5831569674647383 O
atom 3.9340588430535037 0.8626220394138603 29.5831460892989853 O
atom 0.9674178234224236 2.2526577910096353 31.3783586439962718 Ir
atom 1.8931487146161361 0.0000010362221901 33.9745688625350795 Ir
atom 0.7571090659606121 3.1152816325490438 33.1735604763010770 O
atom 3.5134376078003346 3.6426898031948984 33.1735465865190449 O
atom 4.8597757164315114 1.3900323726103725 32.1793779083960203 O
atom 2.1034580233429998 0.8626220394138603 32.1793670302302814 O
atom 4.6494675098177805 2.2526577910096353 33.9745795849275609 Ir
atom 0.0625478949056324 0.0000010362221901 36.5707898034663756 Ir
atom 4.4391587523559792 3.1152816325490438 35.7697814172323660 O
atom 1.6828367880898309 3.6426898031948984 35.7697675274503410 O
atom 3.0291748967210079 1.3900323726103725 34.7755988493273165 O
atom 0.2728572036324959 0.8626220394138603 34.7755879711615776 O
atom 2.8188666901072819 2.2526577910096353 36.5708005258588571 Ir
atom 3.7445975813009995 0.0000010362221901 39.1670107443976647 Ir
atom 2.6085579326454753 3.1152816325490438 38.3660023581636622 O
atom 5.3648864744851927 3.6426898031948984 38.3659884683816301 O
atom 1.1985740770105040 1.3900323726103725 37.3718197902586056 O
atom 3.9549068900278677 0.8626220394138603 37.3718089120928667 O
atom 0.9882658703967732 2.2526577910096353 39.1670214667901533 Ir
atom 4.8806237634058709 1.3900323726103725 39.9680407311899017 O
atom 2.1243060703173642 0.8626220394138603 39.9680298530241629 O
