#===============================================================================
# Created using the Atomic Simulation Environment (ASE)

# Wed Jan 28 14:22:57 2026

#=======================================================
lattice_vector 5.5126505061058708 0.0000000000000000 0.0000000000000000 
lattice_vector 0.0000000000000000 4.5053138700000002 0.0000000000000000 
lattice_vector 0.0000000000000000 0.0000000000000000 31.6020522628082716 
atom 3.6820534403779290 0.0000010362221901 15.8010222760160364 Ir
atom 2.5460137917223995 3.1152816325490438 15.0000138897820321 O
atom 5.3023423335621240 3.6426898031948984 14.9999999999999982 O
atom 0.9257217294737096 2.2526577910096353 15.8010329984085232 Ir
atom 4.8180796224828004 1.3900323726103725 16.6020522628082716 O
atom 2.0617619293942893 0.8626220394138603 16.6020413846425292 O
