#===============================================================================
# Created using the Atomic Simulation Environment (ASE)

# Wed Jan 28 14:22:57 2026

#=======================================================
lattice_vector 4.5053138700000002 0.0000000000000000 0.0000000000000000 
lattice_vector 0.0000000000000000 3.1767062400000001 0.0000000000000000 
lattice_vector 0.0000000000000000 0.0000000000000000 33.9778971392577915 
atom 0.8626220394138603 1.5883464489168961 14.9999999999999982 O
atom 2.2526577910096353 1.5883594734124800 18.1152772623945850 Ir
atom 0.0000010362221901 3.1767001089569566 15.8626194263318130 Ir
atom 3.1152816325490438 0.0000065757819168 18.9778971392577915 O
atom 3.6426898031948984 1.5883464489168961 16.7252348879874226 O
atom 1.3900323726103725 0.0000065757819168 17.2526570251062736 O
