#===============================================================================
# Created using the Atomic Simulation Environment (ASE)

# Wed Jan 28 14:22:57 2026

#=======================================================
lattice_vector 4.5053138700000002 0.0000000000000000 0.0000000000000000 
lattice_vector 0.0000000000000000 3.1767062400000001 0.0000000000000000 
lattice_vector 0.0000000000000000 0.0000000000000000 47.4938387492577974 
atom 0.8626220394138603 1.5883464489168961 15.0000000000000018 O
atom 2.2526577910096353 1.5883594734124800 18.1152772623945921 Ir
atom 0.0000010362221901 3.1767001089569566 15.8626194263318165 Ir
atom 3.1152816325490438 0.0000065757819168 18.9778971392577951 O
atom 3.6426898031948984 1.5883464489168961 16.7252348879874262 O
atom 1.3900323726103725 0.0000065757819168 17.2526570251062807 O
atom 0.8626220394138603 1.5883464489168961 19.5053138700000019 O
atom 2.2526577910096353 1.5883594734124800 22.6205911323945905 Ir
atom 0.0000010362221901 3.1767001089569566 20.3679332963318167 Ir
atom 3.1152816325490438 0.0000065757819168 23.4832110092577935 O
atom 3.6426898031948984 1.5883464489168961 21.2305487579874281 O
atom 1.3900323726103725 0.0000065757819168 21.7579708951062827 O
atom 0.8626220394138603 1.5883464489168961 24.0106277400000039 O
atom 2.2526577910096353 1.5883594734124800 27.1259050023945925 Ir
atom 0.0000010362221901 3.1767001089569566 24.8732471663318186 Ir
atom 3.1152816325490438 0.0000065757819168 27.9885248792577954 O
atom 3.6426898031948984 1.5883464489168961 25.7358626279874301 O
atom 1.3900323726103725 0.0000065757819168 26.2632847651062775 O
atom 0.8626220394138603 1.5883464489168961 28.5159416100000058 O
atom 2.2526577910096353 1.5883594734124800 31.6312188723945908 Ir
atom 0.0000010362221901 3.1767001089569566 29.3785610363318170 Ir
atom 3.1152816325490438 0.0000065757819168 32.4938387492577974 O
atom 3.6426898031948984 1.5883464489168961 30.2411764979874285 O
atom 1.3900323726103725 0.0000065757819168 30.7685986351062830 O
