#===============================================================================
# Created using the Atomic Simulation Environment (ASE)

# Wed Jan 28 14:22:57 2026

#=======================================================
lattice_vector 6.3714759777016159 0.0000000000000000 0.0000000000000000 
lattice_vector 0.0000000000000000 3.1767062400000001 0.0000000000000000 
lattice_vector 0.0000000000000000 0.0000000000000000 51.5542923679361422 
atom 4.4056667497407380 1.5883597910831038 16.2199255751519438 O
atom 0.0000038866003454 3.1766996642180834 15.0000000000000000 O
atom 0.0000002230016593 1.5883467665875202 16.2199329023493171 Ir
atom 3.1857374472753475 0.0000061310430433 16.2199323926312395 Ir
atom 6.3714733972538440 3.1766996642180834 17.4398644348312963 O
atom 1.2199287608899310 1.5883597910831038 19.4056635640027508 O
atom 3.1857418754511548 3.1766996642180834 18.1857379888508106 O
atom 1.9658082403821007 1.5883597910831038 16.2199335076395350 O
atom 3.1857382118524660 1.5883467665875202 19.4056708912001241 Ir
atom 6.3714754361261559 0.0000061310430433 19.4056703814820466 Ir
atom 3.1857354084030343 3.1766996642180834 20.6256024236821069 O
atom 4.4056667497407362 1.5883597910831038 22.5914015528535543 O
atom 0.0000038866003454 3.1766996642180834 21.3714759777016141 O
atom 5.1515462292329071 1.5883597910831038 19.4056714964903421 O
atom 0.0000002230016579 1.5883467665875202 22.5914088800509347 Ir
atom 3.1857374472753475 0.0000061310430433 22.5914083703328572 Ir
atom 6.3714733972538404 3.1766996642180834 23.8113404125329140 O
atom 1.2199287608899296 1.5883597910831038 25.7771395417043649 O
atom 3.1857418754511535 3.1766996642180834 24.5572139665524247 O
atom 1.9658082403820993 1.5883597910831038 22.5914094853411491 O
atom 3.1857382118524660 1.5883467665875202 25.7771468689017382 Ir
atom 6.3714754361261559 0.0000061310430433 25.7771463591836607 Ir
atom 3.1857354084030329 3.1766996642180834 26.9970784013837211 O
atom 4.4056667497407371 1.5883597910831038 28.9628775305551756 O
atom 0.0000038866003454 3.1766996642180834 27.7429519554032318 O
atom 5.1515462292329044 1.5883597910831038 25.7771474741919562 O
atom 0.0000002230016607 1.5883467665875202 28.9628848577525488 Ir
atom 3.1857374472753475 0.0000061310430433 28.9628843480344713 Ir
atom 6.3714733972538466 3.1766996642180834 30.1828163902345352 O
atom 1.2199287608899296 1.5883597910831038 32.1486155194059791 O
atom 3.1857418754511535 3.1766996642180834 30.9286899442540388 O
atom 1.9658082403820993 1.5883597910831038 28.9628854630427668 O
atom 3.1857382118524660 1.5883467665875202 32.1486228466033594 Ir
atom 6.3714754361261523 0.0000061310430433 32.1486223368852748 Ir
atom 3.1857354084030356 3.1766996642180834 33.3685543790853387 O
atom 4.4056667497407345 1.5883597910831038 35.3343535082567897 O
atom 0.0000038866003454 3.1766996642180834 34.1144279331048494 O
atom 5.1515462292329071 1.5883597910831038 32.1486234518935703 O
atom 0.0000002230016607 1.5883467665875202 35.3343608354541630 Ir
atom 3.1857374472753448 0.0000061310430433 35.3343603257360854 Ir
atom 6.3714733972538440 3.1766996642180834 36.5542923679361422 O
atom 1.9658082403821022 1.5883597910831038 35.3343614407443809 O
