#===============================================================================
# Created using the Atomic Simulation Environment (ASE)

# Thu Jan 29 23:03:24 2026

#=======================================================
lattice_vector 6.3714759777016159 0.0000000000000000 0.0000000000000000 
lattice_vector 0.0000000000000000 3.1767062400000001 0.0000000000000000 
lattice_vector 0.0000000000000000 0.0000000000000000 61.1115063344885812 
atom 4.4056667497407380 1.5883597910831038 16.2199255751519438 O
atom 0.0000038866003454 3.1766996642180834 15.0000000000000036 O
atom 0.0000002230016593 1.5883467665875202 16.2199329023493171 Ir
atom 3.1857374472753475 0.0000061310430433 16.2199323926312395 Ir
atom 6.3714733972538440 3.1766996642180834 17.4398644348312999 O
atom 1.2199287608899310 1.5883597910831038 19.4056635640027544 O
atom 3.1857418754511548 3.1766996642180834 18.1857379888508106 O
atom 1.9658082403821007 1.5883597910831038 16.2199335076395386 O
atom 3.1857382118524660 1.5883467665875202 19.4056708912001241 Ir
atom 6.3714754361261559 0.0000061310430433 19.4056703814820466 Ir
atom 3.1857354084030343 3.1766996642180834 20.6256024236821069 O
atom 4.4056667497407362 1.5883597910831038 22.5914015528535614 O
atom 0.0000038866003454 3.1766996642180834 21.3714759777016212 O
atom 5.1515462292329071 1.5883597910831038 19.4056714964903456 O
atom 0.0000002230016579 1.5883467665875202 22.5914088800509347 Ir
atom 3.1857374472753475 0.0000061310430433 22.5914083703328572 Ir
atom 6.3714733972538404 3.1766996642180834 23.8113404125329140 O
atom 1.2199287608899296 1.5883597910831038 25.7771395417043720 O
atom 3.1857418754511535 3.1766996642180834 24.5572139665524283 O
atom 1.9658082403820993 1.5883597910831038 22.5914094853411527 O
atom 3.1857382118524660 1.5883467665875202 25.7771468689017453 Ir
atom 6.3714754361261559 0.0000061310430433 25.7771463591836607 Ir
atom 3.1857354084030329 3.1766996642180834 26.9970784013837246 O
atom 4.4056667497407371 1.5883597910831038 28.9628775305551756 O
atom 0.0000038866003454 3.1766996642180834 27.7429519554032353 O
atom 5.1515462292329044 1.5883597910831038 25.7771474741919597 O
atom 0.0000002230016607 1.5883467665875202 28.9628848577525524 Ir
atom 3.1857374472753475 0.0000061310430433 28.9628843480344749 Ir
atom 6.3714733972538466 3.1766996642180834 30.1828163902345352 O
atom 1.2199287608899296 1.5883597910831038 32.1486155194059862 O
atom 3.1857418754511535 3.1766996642180834 30.9286899442540459 O
atom 1.9658082403820993 1.5883597910831038 28.9628854630427703 O
atom 3.1857382118524660 1.5883467665875202 32.1486228466033594 Ir
atom 6.3714754361261523 0.0000061310430433 32.1486223368852819 Ir
atom 3.1857354084030356 3.1766996642180834 33.3685543790853387 O
atom 4.4056667497407345 1.5883597910831038 35.3343535082567968 O
atom 0.0000038866003454 3.1766996642180834 34.1144279331048565 O
atom 5.1515462292329071 1.5883597910831038 32.1486234518935774 O
atom 0.0000002230016607 1.5883467665875202 35.3343608354541701 Ir
atom 3.1857374472753448 0.0000061310430433 35.3343603257360925 Ir
atom 6.3714733972538440 3.1766996642180834 36.5542923679361493 O
atom 1.2199287608899325 1.5883597910831038 38.5200914971076074 O
atom 3.1857418754511535 3.1766996642180834 37.3001659219556601 O
atom 1.9658082403821022 1.5883597910831038 35.3343614407443880 O
atom 3.1857382118524629 1.5883467665875202 38.5200988243049736 Ir
atom 6.3714754361261523 0.0000061310430433 38.5200983145869031 Ir
atom 3.1857354084030329 3.1766996642180834 39.7400303567869599 O
atom 4.4056667497407345 1.5883597910831038 41.7058294859584180 O
atom 0.0000038866003454 3.1766996642180834 40.4859039108064707 O
atom 5.1515462292329097 1.5883597910831038 38.5200994295951986 O
atom 0.0000002230016607 1.5883467665875202 41.7058368131557913 Ir
atom 3.1857374472753448 0.0000061310430433 41.7058363034377138 Ir
atom 6.3714733972538466 3.1766996642180834 42.9257683456377634 O
atom 1.2199287608899325 1.5883597910831038 44.8915674748092286 O
atom 3.1857418754511535 3.1766996642180834 43.6716418996572813 O
atom 1.9658082403820965 1.5883597910831038 41.7058374184460092 O
atom 3.1857382118524629 1.5883467665875202 44.8915748020065948 Ir
atom 6.3714754361261585 0.0000061310430433 44.8915742922885244 Ir
atom 3.1857354084030387 3.1766996642180834 46.1115063344885812 O
atom 5.1515462292329097 1.5883597910831038 44.8915754072968127 O
