#===============================================================================
# Created using the Atomic Simulation Environment (ASE)

# Wed Jan 28 14:22:57 2026

#=======================================================
lattice_vector 5.5126505061058708 0.0000000000000000 0.0000000000000000 
lattice_vector 0.0000000000000000 4.5053138700000002 0.0000000000000000 
lattice_vector 0.0000000000000000 0.0000000000000000 41.9869360265334421 
atom 3.6820534403779290 0.0000010362221901 15.8010222760160399 Ir
atom 2.5460137917223995 3.1152816325490438 15.0000138897820356 O
atom 5.3023423335621240 3.6426898031948984 15.0000000000000018 O
atom 0.9257217294737096 2.2526577910096353 15.8010329984085267 Ir
atom 1.8514526206674236 0.0000010362221901 18.3972432169473308 Ir
atom 0.7154129720118957 3.1152816325490438 17.5962348307133283 O
atom 3.4717415138516210 3.6426898031948984 17.5962209409312962 O
atom 4.8180796224828004 1.3900323726103725 16.6020522628082752 O
atom 2.0617619293942893 0.8626220394138603 16.6020413846425328 O
atom 4.6077714158690757 2.2526577910096353 18.3972539393398193 Ir
atom 0.0208518009569185 0.0000010362221901 20.9934641578786234 Ir
atom 4.3974626584072602 3.1152816325490438 20.1924557716446174 O
atom 1.6411406941411146 3.6426898031948984 20.1924418818625853 O
atom 2.9874788027722938 1.3900323726103725 19.1982732037395643 O
atom 0.2311611096837844 0.8626220394138603 19.1982623255738218 O
atom 2.7771705961585704 2.2526577910096353 20.9934748802711084 Ir
atom 3.7029014873522854 0.0000010362221901 23.5896850988099160 Ir
atom 2.5668618386967563 3.1152816325490438 22.7886767125759135 O
atom 5.3231903805364791 3.6426898031948984 22.7886628227938779 O
atom 1.1568779830617901 1.3900323726103725 21.7944941446708569 O
atom 3.9132107960791491 0.8626220394138603 21.7944832665051180 O
atom 0.9465697764480641 2.2526577910096353 23.5896958212024046 Ir
atom 1.8723006676417817 0.0000010362221901 26.1859060397412051 Ir
atom 0.7362610189862527 3.1152816325490438 25.3848976535072026 O
atom 3.4925895608259756 3.6426898031948984 25.3848837637251705 O
atom 4.8389276694571519 1.3900323726103725 24.3907150856021495 O
atom 2.0826099763686430 0.8626220394138603 24.3907042074364071 O
atom 4.6286194628434334 2.2526577910096353 26.1859167621336972 Ir
atom 3.0083268497466533 1.3900323726103725 26.9869360265334421 O
atom 0.2520091566581414 0.8626220394138603 26.9869251483677033 O
