#===============================================================================
# Created using the Atomic Simulation Environment (ASE)

# Wed Jan 28 14:22:57 2026

#=======================================================
lattice_vector 4.5053138700000002 0.0000000000000000 0.0000000000000000 
lattice_vector 0.0000000000000000 3.1767062400000001 0.0000000000000000 
lattice_vector 0.0000000000000000 0.0000000000000000 38.4832110092577935 
atom 0.8626220394138603 1.5883464489168961 15.0000000000000018 O
atom 2.2526577910096353 1.5883594734124800 18.1152772623945921 Ir
atom 0.0000010362221901 3.1767001089569566 15.8626194263318165 Ir
atom 3.1152816325490438 0.0000065757819168 18.9778971392577915 O
atom 3.6426898031948984 1.5883464489168961 16.7252348879874262 O
atom 1.3900323726103725 0.0000065757819168 17.2526570251062772 O
atom 0.8626220394138603 1.5883464489168961 19.5053138700000019 O
atom 2.2526577910096353 1.5883594734124800 22.6205911323945905 Ir
atom 0.0000010362221901 3.1767001089569566 20.3679332963318167 Ir
atom 3.1152816325490438 0.0000065757819168 23.4832110092577935 O
atom 3.6426898031948984 1.5883464489168961 21.2305487579874281 O
atom 1.3900323726103725 0.0000065757819168 21.7579708951062756 O
