#===============================================================================
# Created using the Atomic Simulation Environment (ASE)

# Wed Jan 28 14:22:57 2026

#=======================================================
lattice_vector 6.3714759777016159 0.0000000000000000 0.0000000000000000 
lattice_vector 0.0000000000000000 3.1767062400000001 0.0000000000000000 
lattice_vector 0.0000000000000000 0.0000000000000000 41.9970784013837175 
atom 4.4056667497407380 1.5883597910831038 16.2199255751519402 O
atom 0.0000038866003454 3.1766996642180834 14.9999999999999982 O
atom 0.0000002230016593 1.5883467665875202 16.2199329023493135 Ir
atom 3.1857374472753475 0.0000061310430433 16.2199323926312360 Ir
atom 6.3714733972538440 3.1766996642180834 17.4398644348312928 O
atom 1.2199287608899310 1.5883597910831038 19.4056635640027473 O
atom 3.1857418754511548 3.1766996642180834 18.1857379888508071 O
atom 1.9658082403821007 1.5883597910831038 16.2199335076395315 O
atom 3.1857382118524660 1.5883467665875202 19.4056708912001206 Ir
atom 6.3714754361261559 0.0000061310430433 19.4056703814820430 Ir
atom 3.1857354084030343 3.1766996642180834 20.6256024236821034 O
atom 4.4056667497407362 1.5883597910831038 22.5914015528535543 O
atom 0.0000038866003454 3.1766996642180834 21.3714759777016141 O
atom 5.1515462292329071 1.5883597910831038 19.4056714964903385 O
atom 0.0000002230016579 1.5883467665875202 22.5914088800509276 Ir
atom 3.1857374472753475 0.0000061310430433 22.5914083703328501 Ir
atom 6.3714733972538404 3.1766996642180834 23.8113404125329104 O
atom 1.2199287608899296 1.5883597910831038 25.7771395417043649 O
atom 3.1857418754511535 3.1766996642180834 24.5572139665524247 O
atom 1.9658082403820993 1.5883597910831038 22.5914094853411491 O
atom 3.1857382118524660 1.5883467665875202 25.7771468689017382 Ir
atom 6.3714754361261559 0.0000061310430433 25.7771463591836572 Ir
atom 3.1857354084030329 3.1766996642180834 26.9970784013837175 O
atom 5.1515462292329044 1.5883597910831038 25.7771474741919562 O
