#===============================================================================
# Created using the Atomic Simulation Environment (ASE)

# Wed Jan 28 14:22:57 2026

#=======================================================
lattice_vector 5.5126505061058708 0.0000000000000000 0.0000000000000000 
lattice_vector 0.0000000000000000 4.5053138700000002 0.0000000000000000 
lattice_vector 0.0000000000000000 0.0000000000000000 34.1982732037395607 
atom 3.6820534403779290 0.0000010362221901 15.8010222760160346 Ir
atom 2.5460137917223995 3.1152816325490438 15.0000138897820303 O
atom 5.3023423335621240 3.6426898031948984 14.9999999999999964 O
atom 0.9257217294737096 2.2526577910096353 15.8010329984085214 Ir
atom 1.8514526206674236 0.0000010362221901 18.3972432169473272 Ir
atom 0.7154129720118957 3.1152816325490438 17.5962348307133212 O
atom 3.4717415138516210 3.6426898031948984 17.5962209409312891 O
atom 4.8180796224828004 1.3900323726103725 16.6020522628082681 O
atom 2.0617619293942893 0.8626220394138603 16.6020413846425257 O
atom 4.6077714158690757 2.2526577910096353 18.3972539393398122 Ir
atom 2.9874788027722938 1.3900323726103725 19.1982732037395607 O
atom 0.2311611096837844 0.8626220394138603 19.1982623255738183 O
