#===============================================================================
# Created using the Atomic Simulation Environment (ASE)

# Wed Jan 28 14:22:57 2026

#=======================================================
lattice_vector 6.3714759777016159 0.0000000000000000 0.0000000000000000 
lattice_vector 0.0000000000000000 3.1767062400000001 0.0000000000000000 
lattice_vector 0.0000000000000000 0.0000000000000000 32.4398644348312928 
atom 4.4056667497407380 1.5883597910831038 16.2199255751519402 O
atom 0.0000038866003454 3.1766996642180834 14.9999999999999982 O
atom 0.0000002230016593 1.5883467665875202 16.2199329023493135 Ir
atom 3.1857374472753475 0.0000061310430433 16.2199323926312360 Ir
atom 6.3714733972538440 3.1766996642180834 17.4398644348312928 O
atom 1.9658082403821007 1.5883597910831038 16.2199335076395315 O
