#===============================================================================
# Created using the Atomic Simulation Environment (ASE)

# Wed Jan 28 14:22:56 2026

#=======================================================
lattice_vector 4.5053138700000002 0.0000000000000000 0.0000000000000000 
lattice_vector 0.0000000000000000 4.5053138700000002 0.0000000000000000 
lattice_vector 0.0000000000000000 0.0000000000000000 47.4718975668650245 
atom 2.2526581063816060 2.2526577910096353 15.0000130244955869 Ir
atom 0.0000002703188322 0.0000010362221901 16.5883536600400632 Ir
atom 0.8626157319744424 3.6426898031948984 15.0000000000000018 O
atom 3.6426947139870167 0.8626220394138603 15.0000000000000018 O
atom 2.2526581063816060 2.2526577910096353 18.1767192644955884 Ir
atom 0.0000002703188322 0.0000010362221901 19.7650599000400646 Ir
atom 3.1152779832448090 3.1152816325490438 16.5883663668650243 O
atom 0.8626157319744424 3.6426898031948984 18.1767062400000015 O
atom 1.3900378690932940 1.3900323726103725 16.5883663668650243 O
atom 3.6426947139870167 0.8626220394138603 18.1767062400000015 O
atom 2.2526581063816060 2.2526577910096353 21.3534255044955863 Ir
atom 0.0000002703188322 0.0000010362221901 22.9417661400400661 Ir
atom 3.1152779832448090 3.1152816325490438 19.7650726068650258 O
atom 0.8626157319744424 3.6426898031948984 21.3534124800000029 O
atom 1.3900378690932940 1.3900323726103725 19.7650726068650258 O
atom 3.6426947139870167 0.8626220394138603 21.3534124800000029 O
atom 2.2526581063816060 2.2526577910096353 24.5301317444955878 Ir
atom 0.0000002703188322 0.0000010362221901 26.1184723800400604 Ir
atom 3.1152779832448090 3.1152816325490438 22.9417788468650237 O
atom 0.8626157319744424 3.6426898031948984 24.5301187200000044 O
atom 1.3900378690932940 1.3900323726103725 22.9417788468650237 O
atom 3.6426947139870167 0.8626220394138603 24.5301187200000044 O
atom 2.2526581063816060 2.2526577910096353 27.7068379844955857 Ir
atom 0.0000002703188322 0.0000010362221901 29.2951786200400619 Ir
atom 3.1152779832448090 3.1152816325490438 26.1184850868650216 O
atom 0.8626157319744424 3.6426898031948984 27.7068249599999987 O
atom 1.3900378690932940 1.3900323726103725 26.1184850868650216 O
atom 3.6426947139870167 0.8626220394138603 27.7068249599999987 O
atom 2.2526581063816060 2.2526577910096353 30.8835442244955871 Ir
atom 0.0000002703188322 0.0000010362221901 32.4718848600400634 Ir
atom 3.1152779832448090 3.1152816325490438 29.2951913268650230 O
atom 0.8626157319744424 3.6426898031948984 30.8835312000000002 O
atom 1.3900378690932940 1.3900323726103725 29.2951913268650230 O
atom 3.6426947139870167 0.8626220394138603 30.8835312000000002 O
atom 3.1152779832448090 3.1152816325490438 32.4718975668650245 O
atom 1.3900378690932940 1.3900323726103725 32.4718975668650245 O
