#===============================================================================
# Created using the Atomic Simulation Environment (ASE)

# Thu Jan 29 23:03:24 2026

#=======================================================
lattice_vector 4.5053138700000002 0.0000000000000000 0.0000000000000000 
lattice_vector 0.0000000000000000 3.1767062400000001 0.0000000000000000 
lattice_vector 0.0000000000000000 0.0000000000000000 74.5257219692578019 
atom 0.8626220394138603 1.5883464489168961 14.9999999999999982 O
atom 2.2526577910096353 1.5883594734124800 18.1152772623945850 Ir
atom 0.0000010362221901 3.1767001089569566 15.8626194263318130 Ir
atom 3.1152816325490438 0.0000065757819168 18.9778971392577915 O
atom 3.6426898031948984 1.5883464489168961 16.7252348879874226 O
atom 1.3900323726103725 0.0000065757819168 17.2526570251062736 O
atom 0.8626220394138603 1.5883464489168961 19.5053138699999984 O
atom 2.2526577910096353 1.5883594734124800 22.6205911323945870 Ir
atom 0.0000010362221901 3.1767001089569566 20.3679332963318132 Ir
atom 3.1152816325490438 0.0000065757819168 23.4832110092577899 O
atom 3.6426898031948984 1.5883464489168961 21.2305487579874210 O
atom 1.3900323726103725 0.0000065757819168 21.7579708951062756 O
atom 0.8626220394138603 1.5883464489168961 24.0106277399999968 O
atom 2.2526577910096353 1.5883594734124800 27.1259050023945889 Ir
atom 0.0000010362221901 3.1767001089569566 24.8732471663318151 Ir
atom 3.1152816325490438 0.0000065757819168 27.9885248792577954 O
atom 3.6426898031948984 1.5883464489168961 25.7358626279874230 O
atom 1.3900323726103725 0.0000065757819168 26.2632847651062775 O
atom 0.8626220394138603 1.5883464489168961 28.5159416100000058 O
atom 2.2526577910096353 1.5883594734124800 31.6312188723945908 Ir
atom 0.0000010362221901 3.1767001089569566 29.3785610363318170 Ir
atom 3.1152816325490438 0.0000065757819168 32.4938387492577974 O
atom 3.6426898031948984 1.5883464489168961 30.2411764979874249 O
atom 1.3900323726103725 0.0000065757819168 30.7685986351062795 O
atom 0.8626220394138603 1.5883464489168961 33.0212554800000007 O
atom 2.2526577910096353 1.5883594734124800 36.1365327423945928 Ir
atom 0.0000010362221901 3.1767001089569566 33.8838749063318190 Ir
atom 3.1152816325490438 0.0000065757819168 36.9991526192577993 O
atom 3.6426898031948984 1.5883464489168961 34.7464903679874269 O
atom 1.3900323726103725 0.0000065757819168 35.2739125051062814 O
atom 0.8626220394138603 1.5883464489168961 37.5265693500000026 O
atom 2.2526577910096353 1.5883594734124800 40.6418466123945876 Ir
atom 0.0000010362221901 3.1767001089569566 38.3891887763318138 Ir
atom 3.1152816325490438 0.0000065757819168 41.5044664892577941 O
atom 3.6426898031948984 1.5883464489168961 39.2518042379874288 O
atom 1.3900323726103725 0.0000065757819168 39.7792263751062833 O
atom 0.8626220394138603 1.5883464489168961 42.0318832199999974 O
atom 2.2526577910096353 1.5883594734124800 45.1471604823945896 Ir
atom 0.0000010362221901 3.1767001089569566 42.8945026463318158 Ir
atom 3.1152816325490438 0.0000065757819168 46.0097803592577961 O
atom 3.6426898031948984 1.5883464489168961 43.7571181079874236 O
atom 1.3900323726103725 0.0000065757819168 44.2845402451062782 O
atom 0.8626220394138603 1.5883464489168961 46.5371970899999994 O
atom 2.2526577910096353 1.5883594734124800 49.6524743523945915 Ir
atom 0.0000010362221901 3.1767001089569566 47.3998165163318106 Ir
atom 3.1152816325490438 0.0000065757819168 50.5150942292577980 O
atom 3.6426898031948984 1.5883464489168961 48.2624319779874256 O
atom 1.3900323726103725 0.0000065757819168 48.7898541151062801 O
atom 0.8626220394138603 1.5883464489168961 51.0425109600000013 O
atom 2.2526577910096353 1.5883594734124800 54.1577882223945934 Ir
atom 0.0000010362221901 3.1767001089569566 51.9051303863318125 Ir
atom 3.1152816325490438 0.0000065757819168 55.0204080992578000 O
atom 3.6426898031948984 1.5883464489168961 52.7677458479874346 O
atom 1.3900323726103725 0.0000065757819168 53.2951679851062821 O
atom 0.8626220394138603 1.5883464489168961 55.5478248300000033 O
atom 2.2526577910096353 1.5883594734124800 58.6631020923945954 Ir
atom 0.0000010362221901 3.1767001089569566 56.4104442563318145 Ir
atom 3.1152816325490438 0.0000065757819168 59.5257219692578019 O
atom 3.6426898031948984 1.5883464489168961 57.2730597179874366 O
atom 1.3900323726103725 0.0000065757819168 57.8004818551062840 O
