#===============================================================================
# Created using the Atomic Simulation Environment (ASE)

# Thu Jan 29 23:03:23 2026

#=======================================================
lattice_vector 4.5053138700000002 0.0000000000000000 0.0000000000000000 
lattice_vector 0.0000000000000000 4.5053138700000002 0.0000000000000000 
lattice_vector 0.0000000000000000 0.0000000000000000 60.1787225268650303 
atom 2.2526581063816060 2.2526577910096353 15.0000130244955834 Ir
atom 0.0000002703188322 0.0000010362221901 16.5883536600400596 Ir
atom 0.8626157319744424 3.6426898031948984 15.0000000000000000 O
atom 3.6426947139870167 0.8626220394138603 15.0000000000000000 O
atom 2.2526581063816060 2.2526577910096353 18.1767192644955848 Ir
atom 0.0000002703188322 0.0000010362221901 19.7650599000400611 Ir
atom 3.1152779832448090 3.1152816325490438 16.5883663668650208 O
atom 0.8626157319744424 3.6426898031948984 18.1767062400000015 O
atom 1.3900378690932940 1.3900323726103725 16.5883663668650208 O
atom 3.6426947139870167 0.8626220394138603 18.1767062400000015 O
atom 2.2526581063816060 2.2526577910096353 21.3534255044955827 Ir
atom 0.0000002703188322 0.0000010362221901 22.9417661400400625 Ir
atom 3.1152779832448090 3.1152816325490438 19.7650726068650222 O
atom 0.8626157319744424 3.6426898031948984 21.3534124799999994 O
atom 1.3900378690932940 1.3900323726103725 19.7650726068650222 O
atom 3.6426947139870167 0.8626220394138603 21.3534124799999994 O
atom 2.2526581063816060 2.2526577910096353 24.5301317444955842 Ir
atom 0.0000002703188322 0.0000010362221901 26.1184723800400604 Ir
atom 3.1152779832448090 3.1152816325490438 22.9417788468650201 O
atom 0.8626157319744424 3.6426898031948984 24.5301187199999973 O
atom 1.3900378690932940 1.3900323726103725 22.9417788468650201 O
atom 3.6426947139870167 0.8626220394138603 24.5301187199999973 O
atom 2.2526581063816060 2.2526577910096353 27.7068379844955857 Ir
atom 0.0000002703188322 0.0000010362221901 29.2951786200400619 Ir
atom 3.1152779832448090 3.1152816325490438 26.1184850868650216 O
atom 0.8626157319744424 3.6426898031948984 27.7068249599999987 O
atom 1.3900378690932940 1.3900323726103725 26.1184850868650216 O
atom 3.6426947139870167 0.8626220394138603 27.7068249599999987 O
atom 2.2526581063816060 2.2526577910096353 30.8835442244955871 Ir
atom 0.0000002703188322 0.0000010362221901 32.4718848600400634 Ir
atom 3.1152779832448090 3.1152816325490438 29.2951913268650195 O
atom 0.8626157319744424 3.6426898031948984 30.8835312000000002 O
atom 1.3900378690932940 1.3900323726103725 29.2951913268650195 O
atom 3.6426947139870167 0.8626220394138603 30.8835312000000002 O
atom 2.2526581063816060 2.2526577910096353 34.0602504644955815 Ir
atom 0.0000002703188322 0.0000010362221901 35.6485911000400648 Ir
atom 3.1152779832448090 3.1152816325490438 32.4718975668650174 O
atom 0.8626157319744424 3.6426898031948984 34.0602374400000016 O
atom 1.3900378690932940 1.3900323726103725 32.4718975668650174 O
atom 3.6426947139870167 0.8626220394138603 34.0602374400000016 O
atom 2.2526581063816060 2.2526577910096353 37.2369567044955829 Ir
atom 0.0000002703188322 0.0000010362221901 38.8252973400400592 Ir
atom 3.1152779832448090 3.1152816325490438 35.6486038068650188 O
atom 0.8626157319744424 3.6426898031948984 37.2369436800000031 O
atom 1.3900378690932940 1.3900323726103725 35.6486038068650188 O
atom 3.6426947139870167 0.8626220394138603 37.2369436800000031 O
atom 2.2526581063816060 2.2526577910096353 40.4136629444955844 Ir
atom 0.0000002703188322 0.0000010362221901 42.0020035800400606 Ir
atom 3.1152779832448090 3.1152816325490438 38.8253100468650203 O
atom 0.8626157319744424 3.6426898031948984 40.4136499200000046 O
atom 1.3900378690932940 1.3900323726103725 38.8253100468650203 O
atom 3.6426947139870167 0.8626220394138603 40.4136499200000046 O
atom 2.2526581063816060 2.2526577910096353 43.5903691844955858 Ir
atom 0.0000002703188322 0.0000010362221901 45.1787098200400621 Ir
atom 3.1152779832448090 3.1152816325490438 42.0020162868650146 O
atom 0.8626157319744424 3.6426898031948984 43.5903561599999989 O
atom 1.3900378690932940 1.3900323726103725 42.0020162868650146 O
atom 3.6426947139870167 0.8626220394138603 43.5903561599999989 O
atom 3.1152779832448090 3.1152816325490438 45.1787225268650232 O
atom 1.3900378690932940 1.3900323726103725 45.1787225268650232 O
