#===============================================================================
# Created using the Atomic Simulation Environment (ASE)

# Wed Jan 28 14:22:57 2026

#=======================================================
lattice_vector 5.5126505061058708 0.0000000000000000 0.0000000000000000 
lattice_vector 0.0000000000000000 4.5053138700000002 0.0000000000000000 
lattice_vector 0.0000000000000000 0.0000000000000000 36.7944941446708711 
atom 3.6820534403779299 0.0000010362221901 15.8010222760160399 Ir
atom 2.5460137917224022 3.1152816325490438 15.0000138897820356 O
atom 5.3023423335621249 3.6426898031948984 15.0000000000000018 O
atom 0.9257217294737096 2.2526577910096353 15.8010329984085267 Ir
atom 1.8514526206674247 0.0000010362221901 18.3972432169473343 Ir
atom 0.7154129720118981 3.1152816325490438 17.5962348307133283 O
atom 3.4717415138516210 3.6426898031948984 17.5962209409312962 O
atom 4.8180796224828013 1.3900323726103725 16.6020522628082752 O
atom 2.0617619293942893 0.8626220394138603 16.6020413846425328 O
atom 4.6077714158690766 2.2526577910096353 18.3972539393398193 Ir
atom 0.0208518009569209 0.0000010362221901 20.9934641578786270 Ir
atom 4.3974626584072629 3.1152816325490438 20.1924557716446209 O
atom 1.6411406941411146 3.6426898031948984 20.1924418818625888 O
atom 2.9874788027722965 1.3900323726103725 19.1982732037395678 O
atom 0.2311611096837844 0.8626220394138603 19.1982623255738254 O
atom 2.7771705961585726 2.2526577910096353 20.9934748802711155 Ir
atom 1.1568779830617926 1.3900323726103725 21.7944941446708640 O
atom 3.9132107960791513 0.8626220394138603 21.7944832665051180 O
