#===============================================================================
# Created using the Atomic Simulation Environment (ASE)

# Wed Feb 18 18:04:45 2026

#=======================================================
lattice_vector 4.9416039500006370 0.0000000000000000 0.0000000000000000 
lattice_vector 0.0000050200011124 4.9416061399980880 0.0000000000000000 
lattice_vector 0.0000000000000000 0.0000000000000000 64.3577573321739322 
atom 2.4708025249999883 2.4708013361244401 16.3743107450000096 Mo
atom 0.0000008000006959 0.0000013783428936 15.0000000000000000 Mo
atom 3.5450728806537111 3.5450658376869217 15.0000007428260904 O
atom 1.3965358893477897 1.3965398289978683 15.0000008071739188 O
atom 2.4708025250000087 2.4708013816866403 19.1229312750000062 Mo
atom 0.0000008000007162 0.0000014239050943 17.7486205300000002 Mo
atom 3.8673348556566336 1.0742695367804551 16.3743109078260787 O
atom 3.5450728806537315 3.5450658832491224 17.7486212728260888 O
atom 1.0742754643457617 3.8673378954657482 16.3743109721739302 O
atom 1.3965358893478099 1.3965398745600688 17.7486213371739190 O
atom 2.4708025250000292 2.4708014272488414 21.8715518050000099 Mo
atom 0.0000008000007365 0.0000014694672951 20.4972410600000003 Mo
atom 3.8673348556566531 1.0742695823426558 19.1229314378260753 O
atom 3.5450728806537510 3.5450659288113235 20.4972418028260890 O
atom 1.0742754643457817 3.8673379410279489 19.1229315021739303 O
atom 1.3965358893478301 1.3965399201222697 20.4972418671739227 O
atom 2.4708025250000492 2.4708014728110421 24.6201723350000066 Mo
atom 0.0000008000007568 0.0000015150294958 23.2458615900000005 Mo
atom 3.8673348556566736 1.0742696279048565 21.8715519678260755 O
atom 3.5450728806537715 3.5450659743735233 23.2458623328260892 O
atom 1.0742754643458023 3.8673379865901492 21.8715520321739305 O
atom 1.3965358893478508 1.3965399656844704 23.2458623971739229 O
atom 2.4708025250000696 2.4708015183732428 27.3687928650000103 Mo
atom 0.0000008000007771 0.0000015605916965 25.9944821200000007 Mo
atom 3.8673348556566940 1.0742696734670572 24.6201724978260756 O
atom 3.5450728806537919 3.5450660199357249 25.9944828628260893 O
atom 1.0742754643458226 3.8673380321523503 24.6201725621739271 O
atom 1.3965358893478710 1.3965400112466713 25.9944829271739195 O
atom 2.4708025250000896 2.4708015639354435 30.1174133950000069 Mo
atom 0.0000008000007975 0.0000016061538973 28.7431026500000044 Mo
atom 3.8673348556567144 1.0742697190292583 27.3687930278260794 O
atom 3.5450728806538123 3.5450660654979256 28.7431033928260931 O
atom 1.0742754643458430 3.8673380777145510 27.3687930921739309 O
atom 1.3965358893478912 1.3965400568088722 28.7431034571739232 O
atom 2.4708025250001100 2.4708016094976437 32.8660339250000106 Mo
atom 0.0000008000008178 0.0000016517160980 31.4917231800000081 Mo
atom 3.8673348556567348 1.0742697645914590 30.1174135578260760 O
atom 3.5450728806538323 3.5450661110601258 31.4917239228260968 O
atom 1.0742754643458632 3.8673381232767521 30.1174136221739346 O
atom 1.3965358893479116 1.3965401023710728 31.4917239871739270 O
atom 2.4708025250001304 2.4708016550598448 35.6146544550000073 Mo
atom 0.0000008000008381 0.0000016972782988 34.2403437100000048 Mo
atom 3.8673348556567553 1.0742698101536596 32.8660340878260797 O
atom 3.5450728806538532 3.5450661566223265 34.2403444528260934 O
atom 1.0742754643458836 3.8673381688389519 32.8660341521739383 O
atom 1.3965358893479320 1.3965401479332735 34.2403445171739236 O
atom 2.4708025250001509 2.4708017006220455 38.3632749850000110 Mo
atom 0.0000008000008584 0.0000017428404995 36.9889642400000014 Mo
atom 3.8673348556567757 1.0742698557158603 35.6146546178260834 O
atom 3.5450728806538736 3.5450662021845276 36.9889649828260900 O
atom 1.0742754643459038 3.8673382144011534 35.6146546821739349 O
atom 1.3965358893479520 1.3965401934954740 36.9889650471739273 O
atom 2.4708025250001708 2.4708017461842462 41.1118955150000147 Mo
atom 0.0000008000008787 0.0000017884027002 39.7375847700000051 Mo
atom 3.8673348556567957 1.0742699012780610 38.3632751478260801 O
atom 3.5450728806538940 3.5450662477467283 39.7375855128260866 O
atom 1.0742754643459242 3.8673382599633532 38.3632752121739315 O
atom 1.3965358893479725 1.3965402390576749 39.7375855771739239 O
atom 2.4708025250001917 2.4708017917464473 43.8605160450000113 Mo
atom 0.0000008000008990 0.0000018339649010 42.4862053000000017 Mo
atom 3.8673348556568157 1.0742699468402617 41.1118956778260838 O
atom 3.5450728806539140 3.5450662933089285 42.4862060428260904 O
atom 1.0742754643459445 3.8673383055255544 41.1118957421739353 O
atom 1.3965358893479929 1.3965402846198756 42.4862061071739205 O
atom 2.4708025250002117 2.4708018373086480 46.6091365750000080 Mo
atom 0.0000008000009194 0.0000018795271017 45.2348258299999983 Mo
atom 3.8673348556568361 1.0742699924024626 43.8605162078260804 O
atom 3.5450728806539340 3.5450663388711301 45.2348265728260941 O
atom 1.0742754643459647 3.8673383510877555 43.8605162721739319 O
atom 1.3965358893480133 1.3965403301820765 45.2348266371739243 O
atom 2.4708025250002321 2.4708018828708487 49.3577571050000046 Mo
atom 0.0000008000009397 0.0000019250893024 47.9834463599999950 Mo
atom 3.8673348556568565 1.0742700379646632 46.6091367378260770 O
atom 3.5450728806539544 3.5450663844333308 47.9834471028260907 O
atom 1.0742754643459849 3.8673383966499562 46.6091368021739285 O
atom 1.3965358893480333 1.3965403757442771 47.9834471671739280 O
atom 3.8673348556568770 1.0742700835268639 49.3577572678260807 O
atom 1.0742754643460055 3.8673384422121573 49.3577573321739322 O
