#===============================================================================
# Created using the Atomic Simulation Environment (ASE)

# Wed Feb 18 18:04:46 2026

#=======================================================
lattice_vector 5.6545879086454383 0.0000000000000000 0.0000000000000000 
lattice_vector 0.0000043472145578 4.9416061399987257 0.0000000000000000 
lattice_vector 0.0000000000000000 0.0000000000000000 60.1822553784569436 
atom 0.8231922282461297 2.4708030763857871 15.6788358838081052 Mo
atom 3.6504866542776817 0.0000031413854991 15.6788368059298300 Mo
atom 2.0436364779512517 1.0742716220838164 16.3576726444915366 O
atom 2.4300423501778803 3.5450672556877527 14.9999999999999982 O
atom 5.2573403031231996 3.8673392906865494 15.0000020256260171 O
atom 4.8709329791171294 1.3965419370831043 16.3576740914655545 O
atom 5.1417119848010362 2.4708042973097539 18.0808843243907234 Mo
atom 2.3144185021871482 0.0000043623094661 18.0808852465124446 Mo
atom 0.7075683258607165 1.0742728430077833 18.7597210850741547 O
atom 1.0939741980873456 3.5450684766117195 17.4020484405826146 O
atom 3.9212721510326682 3.8673405116105166 17.4020504662086353 O
atom 3.5348648270265972 1.3965431580070713 18.7597225320481726 O
atom 3.8056438327105009 2.4708055182337212 20.4829327649733344 Mo
atom 0.9783503500966129 0.0000055832334332 20.4829336870950627 Mo
atom 5.0260880824156278 1.0742740639317503 21.1617695256567728 O
atom 5.4124939546422537 3.5450696975356863 19.8040968811652291 O
atom 2.5852039989421352 3.8673417325344839 19.8040989067912498 O
atom 2.1987966749360646 1.3965443789310383 21.1617709726307908 O
atom 2.4695756806199705 2.4708067391576880 22.8849812055559525 Mo
atom 5.2968701066515234 0.0000068041574002 22.8849821276776773 Mo
atom 3.6900199303250969 1.0742752848557175 23.5638179662393910 O
atom 4.0764258025517215 3.5450709184596536 22.2061453217478473 O
atom 1.2491358468516029 3.8673429534584507 22.2061473473738644 O
atom 0.8627285228455296 1.3965455998550056 23.5638194132134053 O
atom 1.1335075285294380 2.4708079600816553 25.2870296461385671 Mo
atom 3.9608019545609885 0.0000080250813672 25.2870305682602918 Mo
atom 2.3539517782345598 1.0742765057796844 25.9658664068220055 O
atom 2.7403576504611866 3.5450721393836209 24.6081937623304654 O
atom 5.5676556034065143 3.8673441743824175 24.6081957879564825 O
atom 5.1812482794004406 1.3965468207789722 25.9658678537960199 O
atom 5.4520272850843492 2.4708091810056216 27.6890780867211816 Mo
atom 2.6247338024704612 0.0000092460053342 27.6890790088429100 Mo
atom 1.0178836261440223 1.0742777267036514 28.3679148474046130 O
atom 1.4042894983706589 3.5450733603075872 27.0102422029130800 O
atom 4.2315874513159715 3.8673453953063843 27.0102442285390971 O
atom 3.8451801273099027 1.3965480417029394 28.3679162943786380 O
atom 4.1159591329938117 2.4708104019295889 30.0911265273037998 Mo
atom 1.2886656503799288 0.0000104669293013 30.0911274494255245 Mo
atom 5.3364033826989381 1.0742789476276184 30.7699632879872347 O
atom 0.0682213462801264 3.5450745812315545 29.4122906434956946 O
atom 2.8955192992254388 3.8673466162303520 29.4122926691217152 O
atom 2.5091119752193705 1.3965492626269067 30.7699647349612562 O
atom 2.7798909809032786 2.4708116228535566 32.4931749678864179 Mo
atom 5.6071854069348346 0.0000116878532683 32.4931758900081462 Mo
atom 4.0003352306084050 1.0742801685515857 33.1720117285698493 O
atom 4.3867411028350327 3.5450758021555218 31.8143390840783127 O
atom 1.5594511471349062 3.8673478371543193 31.8143411097043298 O
atom 1.1730438231288429 1.3965504835508735 33.1720131755438672 O
atom 1.4438228288127564 2.4708128437775234 34.8952234084690360 Mo
atom 4.2711172548442971 0.0000129087772353 34.8952243305907643 Mo
atom 2.6642670785178626 1.0742813894755525 35.5740601691524745 O
atom 3.0506729507444947 3.5450770230794890 34.2163875246609308 O
atom 0.2233829950443838 3.8673490580782857 34.2163895502869480 O
atom 5.4915635796837536 1.3965517044748403 35.5740616161264853 O
atom 0.1077546767222238 2.4708140647014898 37.2972718490516542 Mo
atom 2.9350491027537742 0.0000141297012023 37.2972727711733754 Mo
atom 1.3281989264273455 1.0742826103995196 37.9761086097350855 O
atom 1.7146047986539670 3.5450782440034554 36.6184359652435489 O
atom 4.5419027515992845 3.8673502790022525 36.6184379908695661 O
atom 4.1554954275932161 1.3965529253988076 37.9761100567091034 O
atom 4.4262744332771140 2.4708152856254570 39.6993202896342723 Mo
atom 1.5989809506632371 0.0000153506251694 39.6993212117559935 Mo
atom 5.6467186829822458 1.0742838313234864 40.3781570503176965 O
atom 0.3785366465634296 3.5450794649274227 39.0204844058261671 O
atom 3.2058345995087469 3.8673514999262197 39.0204864314521842 O
atom 2.8194272755026883 1.3965541463227749 40.3781584972917216 O
atom 3.0902062811865871 2.4708165065494243 42.1013687302168833 Mo
atom 0.2629127985726893 0.0000165715491364 42.1013696523386045 Mo
atom 4.3106505308917091 1.0742850522474534 42.7802054909003147 O
atom 4.6970564031183306 3.5450806858513899 41.4225328464087781 O
atom 1.8697664474182194 3.8673527208501870 41.4225348720348023 O
atom 1.4833591234121513 1.3965553672467417 42.7802069378743397 O
atom 1.7541381290960496 2.4708177274733916 44.5034171707994943 Mo
atom 4.5814325551276003 0.0000177924731034 44.5034180929212226 Mo
atom 2.9745823788011916 1.0742862731714207 45.1822539314829399 O
atom 3.3609882510278029 3.5450819067753572 43.8245812869913891 O
atom 0.5336982953276920 3.8673539417741543 43.8245833126174134 O
atom 0.1472909713216136 1.3965565881707087 45.1822553784569507 O
