#===============================================================================
# Created using the Atomic Simulation Environment (ASE)

# Wed Feb 18 18:04:45 2026

#=======================================================
lattice_vector 5.6545879086454383 0.0000000000000000 0.0000000000000000 
lattice_vector 1.3360724993050910 5.4944786729160420 0.0000000000000000 
lattice_vector 0.0000000000000000 0.0000000000000000 58.0845068808506397 
atom 2.1592603803366610 1.6971238345967263 14.9999999999999982 Mo
atom 3.3797046300417821 0.1443458560987079 15.0000012510397820 O
atom 0.8231922282461290 0.6470095251131438 17.1603464184997456 Mo
atom 4.9865591535827720 3.9193084327288870 16.0801754091275342 Mo
atom 3.3797089772563380 4.5887102195311673 17.1603476695395294 O
atom 2.4300423501778790 1.9099475110484672 17.0194587761797678 O
atom 0.9388205465682905 3.2499048252248466 15.0000034403539111 O
atom 0.5524132225622218 0.4341875668365504 15.1408910613469700 O
atom 6.4777844841061265 5.0913738885456032 19.3206928369994948 Mo
atom 3.6504910014922380 2.8691941232453035 18.2405218276272834 Mo
atom 2.0436408251658009 3.5385959100475848 19.3206940880392786 O
atom 1.0939741980873445 0.8598332015648847 19.1798051946795169 O
atom 5.2573403031231978 2.1997905157412641 17.1603498588536603 O
atom 6.2070054784222179 4.8785519302690092 17.3012374798467192 O
atom 5.1417163320155899 4.0412595790620216 21.4810392554992404 Mo
atom 2.3144228494017014 1.8190798137617219 20.4008682461270290 Mo
atom 0.7075726730752716 2.4884816005640018 21.4810405065390242 O
atom 6.7485664539473369 5.3041975649973443 21.3401516131792661 O
atom 3.9212721510326629 1.1496762062576815 19.3206962773534059 O
atom 4.8709373263316849 3.8284376207854267 19.4615838983464684 O
atom 3.8056481799250581 2.9911452695784386 23.6413856739989896 Mo
atom 0.9783546973111698 0.7689655042781396 22.5612146646267746 Mo
atom 5.0260924296301805 1.4383672910804195 23.6413869250387734 O
atom 5.4124983018568100 4.2540832555137618 23.5004980316790153 O
atom 2.5852039989421236 0.0995618967740984 21.4810426958531551 O
atom 3.5348691742411456 2.7783233113018437 21.6219303168462176 O
atom 2.4695800278345237 1.9410309600948557 25.8017320924987388 Mo
atom 6.6329469531711638 5.2133298677105984 24.7215610831265238 Mo
atom 3.6900242775396408 0.3882529815968359 25.8017333435385225 O
atom 4.0764301497662752 3.2039689460301775 25.6608444501787645 O
atom 2.5852083461566875 4.5439262602065575 23.6413891143529042 O
atom 2.1988010221506165 1.7282090018182614 23.7822767353459597 O
atom 1.1335118757439890 0.8909166506112720 27.9620785109984880 Mo
atom 5.2968788010806360 4.1632155582270158 26.8819075016262730 Mo
atom 3.6900286247542033 4.8326173450292984 27.9620797620382717 O
atom 2.7403619976757319 2.1538546365465971 27.8211908686785065 O
atom 1.2491401940661484 3.4938119507229759 25.8017355328526534 O
atom 0.8627328700600768 0.6780946923346785 25.9426231538457088 O
atom 6.7881041316039843 5.3352810140437317 30.1224249294982371 Mo
atom 3.9608106489901007 3.1131012487434333 29.0422539201260221 Mo
atom 2.3539604726636689 3.7825030355457150 30.1224261805380138 O
atom 1.4042938455852025 1.1037403270630151 29.9815372871782557 O
atom 5.5676599506210520 2.4436976412393938 27.9620819513524026 O
atom 6.5173251259200820 5.1224590557671377 28.1029695723454580 O
atom 5.4520359795134441 4.2851667045601483 32.2827713479979792 Mo
atom 2.6247424968995614 2.0629869392598503 31.2026003386257713 Mo
atom 1.0178923205731345 2.7323887260621320 32.2827725990377630 O
atom 0.0682256934946634 0.0536260175794326 32.1418837056780049 O
atom 4.2315917985305225 1.3935833317558100 30.1224283698521518 O
atom 5.1812569738295524 4.0723447462835560 30.2633159908452072 O
atom 4.1159678274229208 3.2350523950765666 34.4431177664977284 Mo
atom 1.2886743448090319 1.0128726297762660 33.3629467571255205 Mo
atom 5.3364120771280383 1.6822744165785466 34.4431190175375121 O
atom 5.7228179493546589 4.4979903810118920 34.3022301241777541 O
atom 2.8955236464399889 0.3434690222722283 32.2827747883518938 O
atom 3.8451888217390131 3.0222304367999735 32.4236624093449564 O
atom 2.7798996753323859 2.1849380855929827 36.6034641849974776 Mo
atom 6.9432666006690367 5.4572369932087250 35.5232931756252697 Mo
atom 4.0003439250375141 0.6321601070949648 36.6034654360372613 O
atom 4.3867497972641338 3.4478760715283072 36.4625765426775033 O
atom 2.8955279936545457 4.7878333857046877 34.4431212068516501 O
atom 2.5091206696484889 1.9721161273163903 34.5840088278447055 O
atom 1.4438315232418515 1.1348237761093996 38.7638106034972267 Mo
atom 5.6071984485785027 4.4071226837251425 37.6836395941250188 Mo
atom 4.0003482722520705 5.0765244705274251 38.7638118545370105 O
atom 3.0506816451735994 2.3977617620447256 38.6229229611772524 O
atom 1.5594598415640111 3.7377190762211048 36.6034676253513922 O
atom 1.1730525175579547 0.9220018178328073 36.7443552463444547 O
atom 0.1077633711513080 0.0847094666258203 40.9241570219969688 Mo
atom 4.2711302964879492 3.3570083742415640 39.8439860126247609 Mo
atom 2.6642801201615365 4.0264101610438416 40.9241582730367597 O
atom 1.7146134930830552 1.3476474525611439 40.7832693796770016 O
atom 5.8779795981189160 2.6876047667375231 38.7638140438511414 O
atom 6.8276447734179397 5.3663661812652679 38.9047016648442039 O
atom 5.7623556270113134 4.5290738300582802 43.0845034404967180 Mo
atom 2.9350621443974245 2.3068940647579810 42.0043324311245101 Mo
atom 1.3282119680709918 2.9762958515602591 43.0845046915365089 O
atom 0.3785453409925413 0.2975331430775621 42.9436157981767437 O
atom 4.5419114460283811 1.6374904572539413 40.9241604623508906 O
atom 5.4915766213274164 4.3162518717816871 41.0650480833439460 O
atom 3.2058432939378667 0.5873761477703571 43.0845068808506397 O
