#===============================================================================
# Created using the Atomic Simulation Environment (ASE)

# Wed Feb 18 18:04:46 2026

#=======================================================
lattice_vector 6.9884813248544395 0.0000000000000000 0.0000000000000000 
lattice_vector 0.0000000322173502 2.7486205300000006 0.0000000000000000 
lattice_vector 0.0000000000000000 0.0000000000000000 74.9694129317221325 
atom 6.9884796808309808 0.0000000440430368 16.5192388032225885 Mo
atom 1.9749929748054416 2.7486204112169474 16.5192406197159833 O
atom 6.9884771627312672 1.3743099996765389 15.0000000000000018 O
atom 3.4942374698391210 0.0000000030860460 20.0134830153255052 Mo
atom 3.4942387693464685 1.3743107890429944 16.5192429716170111 Mo
atom 5.4692320886680239 2.7486203702599568 20.0134848318189000 O
atom 0.0000013871251562 1.3743100284094858 18.0384823864871180 O
atom 5.0134854870596666 2.7486203468690547 16.5192440790102850 O
atom 3.4942349517394096 1.3743099587195478 18.4942442121029202 O
atom 6.9884766159190539 2.7486204921290556 23.5077272274284255 Mo
atom 6.9884778832090522 1.3743107480860035 20.0134871837199277 Mo
atom 1.9749898776761672 2.7486203293029661 23.5077290439218132 O
atom 3.4942405009877393 1.3743099874524951 21.5327265985900311 O
atom 1.5192432760678096 2.7486203059120640 20.0134882911132053 O
atom 6.9884740656019888 1.3743099177625573 21.9884884242058405 O
atom 3.4942344049271949 2.7486204511720649 27.0019714395313386 Mo
atom 3.4942356722171923 1.3743107071290130 23.5077313958228444 Mo
atom 5.4692289915387500 2.7486202883459754 27.0019732560247334 O
atom 6.9884796148503217 1.3743099464955042 25.0269708106929514 O
atom 5.0134823899303909 2.7486202649550724 23.5077325032161220 O
atom 3.4942318546101330 1.3743098768055664 25.4827326363087572 O
atom 6.9884735187897782 2.7486204102150742 30.4962156516342588 Mo
atom 6.9884747860797756 1.3743106661720219 27.0019756079257647 Mo
atom 1.9749867805468941 2.7486202473889843 30.4962174681276537 O
atom 3.4942374038584632 1.3743099055385135 28.5212150227958716 O
atom 1.5192401789385319 2.7486202239980817 27.0019767153190386 O
atom 6.9884709684727166 1.3743098358485757 28.9769768484116739 O
atom 3.4942313077979250 2.7486203692580835 33.9904598637371720 Mo
atom 3.4942325750879197 1.3743106252150314 30.4962198200286778 Mo
atom 5.4692258944094743 2.7486202064319936 33.9904616802305810 O
atom 6.9884765177210468 1.3743098645815226 32.0154592348987919 O
atom 5.0134792928011125 2.7486201830410915 30.4962209274219589 O
atom 3.4942287574808630 1.3743097948915848 32.4712210605145941 O
atom 6.9884704216605051 2.7486203283010924 37.4847040758400922 Mo
atom 6.9884716889505025 1.3743105842580403 33.9904640321316052 Mo
atom 1.9749836834176149 2.7486201654750029 37.4847058923334870 O
atom 3.4942343067291901 1.3743098236245319 35.5097034470017050 O
atom 1.5192370818092527 2.7486201420841008 33.9904651395248720 O
atom 6.9884678713434463 1.3743097539345941 35.9654652726175073 O
atom 3.4942282106686520 2.7486202873441017 40.9789482879430196 Mo
atom 3.4942294779586467 1.3743105433010498 37.4847082442345183 Mo
atom 5.4692227972802012 2.7486201245180122 40.9789501044364073 O
atom 6.9884734205917729 1.3743097826675410 39.0039476591046252 O
atom 5.0134761956718421 2.7486201011271092 37.4847093516277923 O
atom 3.4942256603515842 1.3743097129776032 39.4597094847204275 O
atom 6.9884673245312259 2.7486202463871110 44.4731925000459327 Mo
atom 6.9884685918212330 1.3743105023440587 40.9789524563374385 Mo
atom 1.9749805862883481 2.7486200835610211 44.4731943165393275 O
atom 3.4942312095999144 1.3743097417105501 42.4981918712075384 O
atom 1.5192339846799892 2.7486200601701190 40.9789535637307125 O
atom 6.9884647742141706 1.3743096720206125 42.9539536968233477 O
atom 3.4942251135393794 2.7486202054301203 47.9674367121488459 Mo
atom 3.4942263808293736 1.3743104613870682 44.4731966684403588 Mo
atom 5.4692197001509220 2.7486200426040304 47.9674385286422478 O
atom 6.9884703234624936 1.3743097007535594 45.9924360833104515 O
atom 5.0134730985425753 2.7486200192131283 44.4731977758336328 O
atom 3.4942225632223112 1.3743096310636216 46.4481979089262680 O
atom 6.9884642274019653 2.7486201644731292 51.4616809242517661 Mo
atom 6.9884654946919600 1.3743104204300771 47.9674408805432719 Mo
atom 1.9749774891590752 2.7486200016470397 51.4616827407451538 O
atom 3.4942281124706414 1.3743096597965685 49.4866802954133718 O
atom 1.5192308875507159 2.7486199782561376 47.9674419879365530 O
atom 6.9884616770848913 1.3743095901066307 49.9424421210291811 O
atom 3.4942220164101001 2.7486201235161389 54.9559251363546934 Mo
atom 3.4942232837001006 1.3743103794730867 51.4616850926461993 Mo
atom 5.4692166030216489 2.7486199606900485 54.9559269528480741 O
atom 6.9884672263332277 1.3743096188395778 52.9809245075162991 O
atom 5.0134700014133022 2.7486199372991460 51.4616862000394661 O
atom 3.4942194660930443 1.3743095491496400 53.4366863331320943 O
atom 6.9884611302726798 2.7486200825591478 58.4501693484575924 Mo
atom 6.9884623975626745 1.3743103385160955 54.9559293047491053 Mo
atom 1.9749743920297895 2.7486199197330579 58.4501711649509943 O
atom 3.4942250153413559 1.3743095778825869 56.4751687196192051 O
atom 1.5192277904214369 2.7486198963421558 54.9559304121423793 O
atom 6.9884585799556120 1.3743095081926491 56.9309305452350145 O
atom 3.4942201865708151 1.3743102975591051 58.4501735168520185 Mo
atom 6.9884641292039422 1.3743095369255962 59.9694129317221254 O
atom 5.0134669042840230 2.7486198553851651 58.4501746242452995 O
