#===============================================================================
# Created using the Atomic Simulation Environment (ASE)

# Wed Feb 18 18:04:46 2026

#=======================================================
lattice_vector 4.9416061400006379 0.0000000000000000 0.0000000000000000 
lattice_vector 0.0000000455622007 2.7486205300000002 0.0000000000000000 
lattice_vector 0.0000000000000000 0.0000000000000000 91.4477891212873715 
atom 1.0742733743427988 0.0000000778260358 15.0000000000000053 O
atom 2.4708088205598551 2.7486204449999336 18.5450702006554131 Mo
atom 0.0000063527803932 1.3743096999999509 16.0742709856547741 Mo
atom 1.0742783943416865 0.0000000778259891 19.9416039499980897 O
atom 3.5450744134346532 1.3743104428260056 19.6193394650016444 O
atom 3.8673439156563005 0.0000001421738686 17.1485417213103162 O
atom 1.3965462221247462 1.3743105071738551 17.4708046563076351 O
atom 2.4708138405587428 2.7486204449998870 23.4866741506534993 Mo
atom 0.0000113727792808 1.3743096999999040 21.0158749356528638 Mo
atom 1.0742834143405739 0.0000000778259424 24.8832078999961794 O
atom 3.5450794334335418 1.3743104428259589 24.5609434149997341 O
atom 3.8673489356551882 0.0000001421738219 22.0901456713084023 O
atom 1.3965512421236339 1.3743105071738084 22.4124086063057248 O
atom 2.4708188605576304 2.7486204449998408 28.4282781006515854 Mo
atom 0.0000163927781685 1.3743096999998574 25.9574788856509500 Mo
atom 1.0742884343394616 0.0000000778258957 29.8248118499942656 O
atom 3.5450844534324291 1.3743104428259123 29.5025473649978203 O
atom 3.8673539556540759 0.0000001421737752 27.0317496213064885 O
atom 1.3965562621225216 1.3743105071737620 27.3540125563038110 O
atom 2.4708238805565181 2.7486204449997942 33.3698820506496787 Mo
atom 0.0000214127770561 1.3743096999998110 30.8990828356490397 Mo
atom 1.0742934543383493 0.0000000778258490 34.7664157999923589 O
atom 3.5450894734313163 1.3743104428258657 34.4441513149959064 O
atom 3.8673589756529636 0.0000001421737286 31.9733535713045818 O
atom 1.3965612821214091 1.3743105071737149 32.2956165063018972 O
atom 2.4708289005554058 2.7486204449997471 38.3114860006477613 Mo
atom 0.0000264327759437 1.3743096999997642 35.8406867856471294 Mo
atom 1.0742984743372368 0.0000000778258023 39.7080197499904415 O
atom 3.5450944934302044 1.3743104428258188 39.3857552649939961 O
atom 3.8673639956518513 0.0000001421736819 36.9149575213026679 O
atom 1.3965663021202968 1.3743105071736683 37.2372204562999940 O
atom 2.4708339205542935 2.7486204449997005 43.2530899506458439 Mo
atom 0.0000314527748313 1.3743096999997173 40.7822907356452120 Mo
atom 1.0743034943361245 0.0000000778257556 44.6496236999885241 O
atom 3.5450995134290921 1.3743104428257722 44.3273592149920717 O
atom 3.8673690156507390 0.0000001421736352 41.8565614713007506 O
atom 1.3965713221191844 1.3743105071736217 42.1788244062980766 O
atom 2.4708389405531808 2.7486204449996539 48.1946939006439408 Mo
atom 0.0000364727737190 1.3743096999996707 45.7238946856433017 Mo
atom 1.0743085143350122 0.0000000778257090 49.5912276499866209 O
atom 3.5451045334279798 1.3743104428257256 49.2689631649901685 O
atom 3.8673740356496262 0.0000001421735885 46.7981654212988332 O
atom 1.3965763421180719 1.3743105071735753 47.1204283562961592 O
atom 2.4708439605520685 2.7486204449996068 53.1362978506420234 Mo
atom 0.0000414927726066 1.3743096999996243 50.6654986356413843 Mo
atom 1.0743135343338999 0.0000000778256623 54.5328315999847035 O
atom 3.5451095534268675 1.3743104428256789 54.2105671149882511 O
atom 3.8673790556485139 0.0000001421735418 51.7397693712969300 O
atom 1.3965813621169598 1.3743105071735282 52.0620323062942560 O
atom 2.4708489805509561 2.7486204449995602 58.0779018006401202 Mo
atom 0.0000465127714942 1.3743096999995774 55.6071025856394812 Mo
atom 1.0743185543327873 0.0000000778256156 59.4744355499827861 O
atom 3.5451145734257552 1.3743104428256321 59.1521710649863337 O
atom 3.8673840756474016 0.0000001421734951 56.6813733212950126 O
atom 1.3965863821158473 1.3743105071734816 57.0036362562923387 O
atom 2.4708540005498438 2.7486204449995135 63.0195057506382028 Mo
atom 0.0000515327703819 1.3743096999995306 60.5487065356375638 Mo
atom 1.0743235743316750 0.0000000778255689 64.4160394999808830 O
atom 3.5451195934246420 1.3743104428255855 64.0937750149844305 O
atom 3.8673890956462893 0.0000001421734484 61.6229772712930952 O
atom 1.3965914021147348 1.3743105071734352 61.9452402062904213 O
atom 2.4708590205487315 2.7486204449994673 67.9611097006362854 Mo
atom 0.0000565527692695 1.3743096999994839 65.4903104856356606 Mo
atom 1.0743285943305627 0.0000000778255222 69.3576434499789656 O
atom 3.5451246134235306 1.3743104428255388 69.0353789649825131 O
atom 3.8673941156451770 0.0000001421734018 66.5645812212911920 O
atom 1.3965964221136227 1.3743105071733881 66.8868441562885181 O
atom 2.4708640405476192 2.7486204449994207 72.9027136506343822 Mo
atom 0.0000615727681571 1.3743096999994373 70.4319144356337290 Mo
atom 1.0743336143294502 0.0000000778254755 74.2992473999770482 O
atom 3.5451296334224178 1.3743104428254920 73.9769829149805958 O
atom 3.8673991356440647 0.0000001421733551 71.5061851712892746 O
atom 1.3966014421125101 1.3743105071733415 71.8284481062866007 O
atom 0.0000665927670447 1.3743096999993907 75.3735183856318258 Mo
atom 3.8674041556429524 0.0000001421733084 76.4477891212873715 O
