#===============================================================================
# Created using the Atomic Simulation Environment (ASE)

# Mon Mar 23 14:00:24 2026

#=======================================================
lattice_vector 15.4702201436246050 0.0000000000000000 0.0000000000000000 
lattice_vector 0.0000000000000000 10.9390864000000008 0.0000000000000000 
lattice_vector 0.0000000000000000 0.0000000000000000 43.5364436085222337 
atom 13.5364780870766044 8.2043143399999998 15.0000005391693385 Ce
atom 1.9338124525639253 8.2043140300000026 15.0000008538323968 Ce
atom 0.0000393752415484 10.9390847500000010 16.9337784813824968 Ce
atom 13.5364820451065810 6.8369294800000002 16.9337778290764405 O
atom 1.9338170540610118 9.5717002500000028 16.9337780942413723 O
atom 0.0000353818558029 9.5717001900000032 15.0000007742824231 O
atom 0.0000434888348373 6.8369294100000007 18.8675556015838133 O
atom 0.0000431494236823 9.5717001000000028 18.8675557005791070 O
atom 0.0000352404342427 6.8369293100000004 15.0000005762926705 O
atom 1.9338169904216200 6.8369293600000010 16.9337782993024000 O
atom 13.5364822006703740 9.5716999200000021 16.9337781260611351 O
atom 13.5364782638534678 2.7347710900000002 15.0000007018037174 Ce
atom 1.9338125444882379 2.7347718300000019 15.0000012851674391 Ce
atom 0.0000392126068164 5.4695447100000019 16.9337783187481001 Ce
atom 13.5364824057312614 1.3673854400000012 16.9337780482791764 O
atom 1.9338166156554442 4.1021579800000012 16.9337787164957803 O
atom 0.0000352333633526 4.1021582000000008 15.0000007530693686 O
atom 0.0000433615552154 1.3673855000000015 18.8675552056041447 O
atom 0.0000432130630330 4.1021579300000015 18.8675554389495375 O
atom 0.0000355727747549 1.3673853000000007 15.0000008944903804 O
atom 1.9338164105941622 1.3673857900000004 16.9337783982979424 O
atom 13.5364824057313786 4.1021576200000016 16.9337781614162672 O
atom 11.6027052784543692 10.9390852000000027 16.9337777424550957 Ce
atom 9.6689313101775962 8.2043142100000033 18.8675555114274651 Ce
atom 13.5364862859795121 8.2043137300000009 18.8675553593995673 Ce
atom 13.5364902015831579 9.5717004499999998 20.8013327200173883 O
atom 11.6027088263630045 9.5717002900000026 18.8675556121901806 O
atom 3.8675902233076016 6.8369293000000004 15.0000007848892238 O
atom 3.8675900041045019 9.5717002900000026 15.0000007919605167 O
atom 11.6027086000883166 6.8369291399999996 18.8675551030735242 O
atom 13.5364900743042949 6.8369292700000006 20.8013330735709090 O
atom 11.6027052077432327 5.4695439300000022 16.9337772899068320 Ce
atom 9.6689310768323082 2.7347708800000015 18.8675554619302268 Ce
atom 13.5364863496193504 2.7347708499999999 18.8675555786026052 Ce
atom 11.6027121762812513 5.4695446900000011 20.8013330010928499 Ce
atom 13.5364899045983531 4.1021581900000008 20.8013327624440976 O
atom 11.6027086637282828 4.1021578300000003 18.8675554495557911 O
atom 3.8675903152310727 1.3673861000000014 15.0000003818382659 O
atom 3.8675902515915124 4.1021581500000011 15.0000004313358062 O
atom 11.6027086566573647 1.3673852400000008 18.8675555980482201 O
atom 9.6689349641519353 4.1021577000000011 20.8013330771065199 O
atom 3.8675938843524329 10.9390861800000021 16.9337777919539185 Ce
atom 1.9338203969083514 8.2043144900000016 18.8675556457786051 Ce
atom 5.8013757616192603 8.2043144699999999 18.8675557412376875 Ce
atom 3.8676021610375226 10.9390850300000029 20.8013330293770622 Ce
atom 1.9338248145577881 6.8369296000000004 20.8013329851827145 O
atom 3.8675982030069971 9.5717004200000009 18.8675552020688038 O
atom 11.6027006769571770 6.8369295600000006 15.0000004030511747 O
atom 11.6027007830232343 9.5717002800000035 15.0000004384064027 O
atom 3.8675981959361070 6.8369297000000016 18.8675553788455090 O
atom 1.9338247226338603 9.5717003900000002 20.8013329356853411 O
atom 3.8675942520485087 5.4695438900000006 16.9337783293546948 Ce
atom 1.9338202484166018 2.7347711900000000 18.8675563033880636 Ce
atom 5.8013757474775005 2.7347707600000004 18.8675561089332291 Ce
atom 3.8676022600323270 5.4695448400000011 20.8013328879556099 Ce
atom 3.8675982454340483 4.1021576000000017 18.8675558384648703 O
atom 11.6027008537338538 1.3673853700000005 15.0000003818377934 O
atom 11.6027009810126849 4.1021578900000017 15.0000000000000000 O
atom 3.8675980474440483 1.3673855800000005 18.8675557394701201 O
atom 0.0000477226358413 10.9390859000000020 20.8013322904498708 Ce
atom 5.8013673505835524 8.2043145300000013 15.0000001714744897 Ce
atom 9.6689234294721533 8.2043145800000001 15.0000001184404219 Ce
atom 7.7351491924950881 10.9390851700000020 16.9337781702557741 Ce
atom 5.8013717328781196 6.8369295700000015 16.9337779704980456 O
atom 9.6689271965838675 9.5717004100000000 16.9337779669620758 O
atom 7.7351454465963876 9.5717004200000009 15.0000001308152591 O
atom 7.7351534687232943 6.8369295800000023 18.8675556369392474 O
atom 7.7351535818604491 9.5717001500000016 18.8675557076498031 O
atom 7.7351454748808166 6.8369297200000005 15.0000002863787252 O
atom 9.6689274016446554 6.8369293600000010 16.9337777901851680 O
atom 5.8013714571064945 9.5717004200000009 16.9337779917115299 O
atom 0.0000476872808617 5.4695442800000009 20.8013326369322336 Ce
atom 5.8013677960609931 2.7347719800000023 15.0000003341085950 Ce
atom 9.6689237830256136 2.7347713600000012 15.0000001891507360 Ce
atom 7.7351494329112187 5.4695446100000007 16.9337780005498963 Ce
atom 5.8013719308679308 1.3673858000000012 16.9337778856450285 O
atom 9.6689271046600229 4.1021579300000015 16.9337780023175064 O
atom 7.7351458708607552 4.1021579600000013 15.0000004277996730 O
atom 7.7351534687234658 1.3673852800000006 18.8675558066448730 O
atom 7.7351534192257105 4.1021577500000008 18.8675555308732790 O
atom 7.7351455880180886 1.3673857600000019 15.0000004702263716 O
atom 9.6689271824415481 1.3673852400000008 16.9337777831143264 O
atom 5.8013720581477282 4.1021577800000006 16.9337784513303298 O
atom 7.7351575469620366 10.9390849900000013 20.8013335278869924 Ce
atom 5.8013837837455249 8.2043143399999998 22.7351106109655738 Ce
atom 9.6689382928574474 8.2043140300000026 22.7351109256286321 Ce
atom 7.7351652155350701 10.9390847500000010 24.6688885531787214 Ce
atom 5.8013877417755007 6.8369294800000002 24.6688879008726722 O
atom 9.6689428943545401 9.5717002500000028 24.6688881660376005 O
atom 7.7351612221493244 9.5717001900000032 22.7351108460786584 O
atom 7.7351693291283592 6.8369294100000007 26.6026656733800415 O
atom 7.7351689897172040 9.5717001000000028 26.6026657723753424 O
atom 7.7351610807277718 6.8369293100000004 22.7351106480888987 O
atom 9.6689428307151353 6.8369293600000010 24.6688883710986282 O
atom 5.8013878973392954 9.5716999200000021 24.6688881978573669 O
atom 7.7351575328195556 5.4695443400000006 20.8013331884757484 Ce
atom 5.8013839605223883 2.7347710900000002 22.7351107735999456 Ce
atom 9.6689383847817663 2.7347718300000019 22.7351113569636638 Ce
atom 7.7351650529003386 5.4695447100000019 24.6688883905443355 Ce
atom 5.8013881024001783 1.3673854400000012 24.6688881200754047 O
atom 9.6689424559489723 4.1021579800000012 24.6688887882920120 O
atom 7.7351610736568812 4.1021582000000008 22.7351108248656075 O
atom 7.7351692018487306 1.3673855000000015 26.6026652774003729 O
atom 7.7351690533565485 4.1021579300000015 26.6026655107457621 O
atom 7.7351614130682833 1.3673853000000007 22.7351109662866158 O
atom 9.6689422508876710 1.3673857900000004 24.6688884700941706 O
atom 5.8013881024002956 4.1021576200000016 24.6688882332124955 O
atom 3.8676109751232932 10.9390852000000027 24.6688878142513239 Ce
atom 1.9338370068465098 8.2043142100000033 26.6026655832236933 Ce
atom 5.8013919826484326 8.2043137300000009 26.6026654311957991 Ce
atom 11.6027123389163052 10.9390852300000017 20.8013334889963666 Ce
atom 9.6689348085885030 6.8369296100000003 20.8013331336752216 O
atom 5.8013958982520712 9.5717004499999998 28.5364427918136165 O
atom 3.8676145230319214 9.5717002900000026 26.6026656839864124 O
atom 11.6027160636011200 6.8369293000000004 22.7351108566854556 O
atom 11.6027158443980269 9.5717002900000026 22.7351108637567449 O
atom 3.8676142967572340 6.8369291399999996 26.6026651748697525 O
atom 5.8013957709732127 6.8369292700000006 28.5364431453671408 O
atom 9.6689349995074245 9.5717000000000017 20.8013332255989063 O
atom 3.8676109044121523 5.4695439300000022 24.6688873617030673 Ce
atom 1.9338367735012278 2.7347708800000015 26.6026655337264550 Ce
atom 5.8013920462882709 2.7347708499999999 26.6026656503988299 Ce
atom 3.8676178729501713 5.4695446900000011 28.5364430728890817 Ce
atom 9.6689348863706606 1.3673857300000005 20.8013335367260090 O
atom 5.8013956012672745 4.1021581900000008 28.5364428342403293 O
atom 3.8676143603971962 4.1021578300000003 26.6026655213520193 O
atom 11.6027161555245950 1.3673861000000014 22.7351104536344941 O
atom 11.6027160918850338 4.1021581500000011 22.7351105031320344 O
atom 3.8676143533262786 1.3673852400000008 26.6026656698444377 O
atom 13.5364899187410206 1.3673855200000007 20.8013332857031052 O
atom 1.9338406608208529 4.1021577000000011 28.5364431489027446 O
atom 11.6027197246459615 10.9390861800000021 24.6688878637501539 Ce
atom 9.6689462372018866 8.2043144900000016 26.6026657175748475 Ce
atom 13.5365016019127822 8.2043144699999999 26.6026658130339122 Ce
atom 11.6027280013310445 10.9390850300000029 28.5364431011732940 Ce
atom 9.6689506548513098 6.8369296000000004 28.5364430569789498 O
atom 5.8013798610707346 9.5717003100000007 20.8013331725660073 O
atom 11.6027240433005190 9.5717004200000009 26.6026652738650391 O
atom 3.8676063736260966 6.8369295600000006 22.7351104748474029 O
atom 3.8676064796921481 9.5717002800000035 22.7351105102026310 O
atom 11.6027240362296293 6.8369297000000016 26.6026654506417337 O
atom 5.8013800166341509 6.8369294700000012 20.8013331018551710 O
atom 9.6689505629273818 9.5717003900000002 28.5364430074815623 O
atom 11.6027200923420377 5.4695438900000006 24.6688884011509266 Ce
atom 9.6689460887101308 2.7347711900000000 26.6026663751842953 Ce
atom 13.5365015877710224 2.7347707600000004 26.6026661807294538 Ce
atom 11.6027281003258480 5.4695448400000011 28.5364429597518345 Ce
atom 1.9338251186139843 1.3673854800000009 20.8013332609540527 O
atom 5.8013797974311920 4.1021580000000020 20.8013332362056822 O
atom 11.6027240857275711 4.1021576000000017 26.6026659102611056 O
atom 3.8676065504027668 1.3673853700000005 22.7351104536340216 O
atom 3.8676066776815987 4.1021578900000017 22.7351100717962282 O
atom 11.6027238877375769 1.3673855800000005 26.6026658112663590 O
atom 5.8013798893552506 1.3673851400000014 20.8013334129822844 O
atom 1.9338250691164207 4.1021581200000012 20.8013331690302259 O
atom 7.7351735629293774 10.9390859000000020 28.5364423622461025 Ce
atom 13.5364931908770778 8.2043145300000013 22.7351102432707179 Ce
atom 1.9338291261410772 8.2043145800000001 22.7351101902366501 Ce
atom 0.0000548891640049 10.9390851700000020 24.6688882420520024 Ce
atom 13.5364975731716353 6.8369295700000015 24.6688880422942738 O
atom 1.9338328932527882 9.5717004100000000 24.6688880387583076 O
atom 0.0000511432653009 9.5717004200000009 22.7351102026114908 O
atom 0.0000591653922113 6.8369295800000023 26.6026657087354756 O
atom 0.0000592785293660 9.5717001500000016 26.6026657794460384 O
atom 0.0000511715497339 6.8369297200000005 22.7351103581749605 O
atom 1.9338330983135685 6.8369293600000010 24.6688878619813998 O
atom 13.5364972974000199 9.5717004200000009 24.6688880635077616 O
atom 7.7351735275743838 5.4695442800000009 28.5364427087284547 Ce
atom 13.5364936363545141 2.7347719800000023 22.7351104059048268 Ce
atom 1.9338294796945346 2.7347713600000012 22.7351102609469642 Ce
atom 0.0000551295801358 5.4695446100000007 24.6688880723461246 Ce
atom 13.5364977711614536 1.3673858000000012 24.6688879574412603 O
atom 1.9338328013289359 4.1021579300000015 24.6688880741137346 O
atom 0.0000515675296724 4.1021579600000013 22.7351104995959048 O
atom 0.0000591653923899 1.3673852800000006 26.6026658784411048 O
atom 0.0000591158946271 4.1021577500000008 26.6026656026695072 O
atom 0.0000512846870054 1.3673857600000019 22.7351105420225998 O
atom 1.9338328791104582 1.3673852400000008 24.6688878549105546 O
atom 13.5364978984412527 4.1021577800000006 24.6688885231265580 O
atom 0.0000632436309466 10.9390849900000013 28.5364435996832206 Ce
atom 0.0000632294884725 5.4695443400000006 28.5364432602719766 Ce
atom 3.8676180355852265 10.9390852300000017 28.5364435607925948 Ce
atom 1.9338405052574232 6.8369296100000003 28.5364432054714534 O
atom 1.9338406961763410 9.5717000000000017 28.5364432973951345 O
atom 1.9338405830395711 1.3673857300000005 28.5364436085222373 O
atom 5.8013956154099402 1.3673855200000007 28.5364433574993335 O
atom 13.5365057013642573 9.5717003100000007 28.5364432443622285 O
atom 13.5365058569276719 6.8369294700000012 28.5364431736514028 O
atom 9.6689509589075122 1.3673854800000009 28.5364433327502773 O
atom 13.5365056377247139 4.1021580000000020 28.5364433080019033 O
atom 13.5365057296487787 1.3673851400000014 28.5364434847785127 O
atom 9.6689509094099417 4.1021581200000012 28.5364432408264541 O
