#===============================================================================
# Created using the Atomic Simulation Environment (ASE)

# Mon Mar 23 14:00:23 2026

#=======================================================
lattice_vector 15.4702201294824828 0.0000000000000000 0.0000000000000000 
lattice_vector 7.7350942821178856 13.3975945384849062 0.0000000000000000 
lattice_vector 0.0000000000000000 0.0000000000000000 44.2103010502986038 
atom 13.5364507308825601 1.1164610383617457 15.0000002598078694 O
atom 1.9337850115175077 1.1164609240514480 15.0000011142867322 O
atom 7.7351065221361566 11.1646569830501416 15.0000007130277062 O
atom 21.2715498283970241 12.2811231367571274 15.7894611620836400 Ce
atom 19.3377717677399588 11.1646574117110671 15.0000004358996577 O
atom 15.4702240539255467 4.4658591177648264 15.0000009324208747 O
atom 11.6026734621845140 2.2329258489315627 15.7894607723720597 Ce
atom 17.4039978153736961 7.8152582831088511 15.0000011258333075 O
atom 5.8013328950375289 7.8152586791102419 15.0000002020729202 O
atom 3.8675588719607399 4.4658594933531539 15.0000010421176739 O
atom 11.6026607413339313 11.1646567993380241 15.0000005225027060 O
atom 7.7351105879997935 8.9317241673717369 15.7894616441714284 Ce
atom 5.8013404469391414 1.1164605688757077 15.0000010450041934 O
atom 9.6688957480094491 1.1164606097011938 15.0000000000000000 O
atom 15.4702158939135277 11.1646566074609961 15.0000013654339064 O
atom 3.8675623792102392 2.2329255631568348 15.7894614536460907 Ce
atom 9.6688878213422846 7.8152585933779806 15.0000003233165238 O
atom 13.5364424365209466 7.8152579034377574 15.0000010911924004 O
atom 11.6026693609655567 4.4658592728996815 15.0000002973353670 O
atom 5.8013365437087474 5.5823252959663225 15.7894614334388628 Ce
atom 7.7351179701954127 2.2329255427446459 15.7894616730387156 Ce
atom 9.6688924670333343 5.5823256062357753 15.7894609600110485 Ce
atom 7.7351145124426024 4.4658594606940012 15.0000003088823100 O
atom 15.4702194365191623 8.9317230324401287 15.7894629893980269 Ce
atom 13.5364462266131476 10.0481866366395671 18.9473064743721693 Ce
atom 15.4702273631852911 6.6987884225136813 18.9473069102720970 Ce
atom 17.4040006155176528 10.0481862977926113 18.9473075078295246 Ce
atom 13.5364507308825530 10.0481846668453443 21.3156890368626932 O
atom 17.4040053672741735 7.8152533963829018 19.7367675383062213 O
atom 15.4702238559355862 8.9317213402546987 18.1578455403417536 O
atom 7.7351064867807127 13.3975877840265625 16.5789227023320436 O
atom 17.4040051409999847 10.0481845525350462 21.3156898913415560 O
atom 13.5364506248166769 7.8152539720133447 19.7367671572550769 O
atom 15.4702323695007511 6.6987860730488347 21.3156894900825264 O
atom 15.4702237074433988 11.1646518717870720 19.7367677548126572 O
atom 11.6026739218037989 6.6987885327422685 18.9473056285532273 Ce
atom 17.4039935020225869 12.2811219650832548 15.7894622475026605 Ce
atom 19.3377754729800699 8.9317243306706136 15.7894622965774882 Ce
atom 13.5364555462791341 7.8152522267558213 22.1051499391384638 Ce
atom 17.4039975678864884 12.2811195298854816 18.1578453122880603 O
atom 5.8013331283832450 10.0481897903550763 16.5789231209111207 O
atom 11.6026774856220740 6.6987865017097592 21.3156892129544815 O
atom 19.3377787115291717 11.1646520350866503 19.7367671774624895 O
atom 21.2715529113831288 12.2811202973927447 18.1578446945233836 O
atom 17.4039975183891613 10.0481889003732103 16.5789234961889562 O
atom 19.3377790085139054 8.9317219077199628 18.1578453960043582 O
atom 19.3377716051060737 13.3975875268300690 16.5789228755369820 O
atom 15.4702195001585316 13.3975842138974635 18.9473066446902401 Ce
atom 13.5364462902530196 5.5823244263969514 15.7894621089385279 Ce
atom 15.4702273066171259 2.2329256039811747 15.7894622619366274 Ce
atom 17.4040009266442688 5.5823246958402475 15.7894628190798159 Ce
atom 13.5364509147303238 5.5823230567277324 18.1578447926727975 O
atom 1.9337852519335537 3.3493914106770410 16.5789226994455028 O
atom 15.4702240539255413 13.3975827462484265 21.3156897094756985 O
atom 15.4702321573685868 4.4658554394541454 19.7367673333468971 O
atom 17.4040051904972408 5.5823231097992236 18.1578454970407819 O
atom 13.5364504338978975 3.3493916229663210 16.5789224511849156 O
atom 15.4702322210083114 2.2329240669303263 18.1578449398970747 O
atom 15.4702237710829600 6.6987901514424122 16.5789233720587390 O
atom 11.6026734621845122 11.1646494774151606 22.1051495494268870 Ce
atom 9.6688989158487804 3.3493891061180783 18.9473065321072127 Ce
atom 19.3377748153715068 13.3975848262700659 18.9473066446903005 Ce
atom 13.5364553412179927 3.3493903267818919 18.9473052734830532 Ce
atom 9.6689035332558060 3.3493873731075441 21.3156899028881313 O
atom 13.5364587777574350 1.1164566088742143 19.7367665799045433 O
atom 11.6026772734903574 2.2329240587654975 18.1578447609184153 O
atom 3.8675590133814053 6.6987906984956851 16.5789226157298657 O
atom 13.5364587424021163 3.3493877691089349 21.3156889791277422 O
atom 9.6689030736366401 1.1164559760884543 19.7367676480028003 O
atom 19.3377790014432236 13.3975831218367549 21.3156898191725013 O
atom 11.6026771744954935 4.4658550516183997 19.7367671197270695 O
atom 3.8675623509255366 6.6987885041637680 18.9473061193021977 Ce
atom 9.6688832110066567 12.2811225774556458 15.7894620569775554 Ce
atom 11.6026648708379376 8.9317236774731050 15.7894621464665548 Ce
atom 13.5364375786977522 12.2811218426080906 15.7894625592724900 Ce
atom 9.6688879486215846 12.2811202116606921 18.1578446772027213 O
atom 13.5364424506628680 10.0481889861054956 16.5789231497788663 O
atom 3.8675664592160413 6.6987858893367189 21.3156892995575298 O
atom 11.6026694175338640 11.1646523739333308 19.7367668714663687 O
atom 13.5364424365207583 12.2811196605249222 18.1578452141386606 O
atom 9.6688878779106897 10.0481894882515448 16.5789223530353524 O
atom 11.6026694599604472 8.9317214137400978 18.1578448475209342 O
atom 11.6026608756843999 13.3975876737990465 16.5789229101786226 O
atom 15.4702364353643933 4.4658532573704299 22.1051504212262557 Ce
atom 5.8013362537958075 10.0481874000636537 18.9473070401757226 Ce
atom 7.7351175459317778 6.6987881326574321 18.9473071296648534 Ce
atom 9.6688925448148257 10.0481874898799504 18.9473050945043155 Ce
atom 5.8013404469391361 10.0481841973593067 21.3156898220590136 O
atom 9.6688959389283156 7.8152539679311026 19.7367670764257497 O
atom 7.7351142083868885 8.9317216464413178 18.1578452112518995 O
atom 15.4702159363396383 13.3975872655507100 16.5789230371954659 O
atom 9.6688957480094473 10.0481842381847919 21.3156887770548273 O
atom 5.8013401923803043 7.8152538903632749 19.7367675671740344 O
atom 7.7351216117956358 6.6987856974596873 21.3156901424887302 O
atom 7.7351146821481658 11.1646523657685002 19.7367669522951523 O
atom 19.3377825086927189 11.1646491916404340 22.1051502307009144 Ce
atom 1.9337886389746364 3.3493899144497949 18.9473060644540610 Ce
atom 11.6026649132642294 13.3975849201675796 18.9473059922844058 Ce
atom 5.8013434238590218 3.3493893306541374 18.9473070113084248 Ce
atom 1.9337935392243941 3.3493876833766740 21.3156891003713511 O
atom 5.8013482463266595 1.1164560944807254 19.7367673420070417 O
atom 3.8675664875003455 2.2329239852803213 18.1578448821625358 O
atom 11.6026695023867390 6.6987906740010308 16.5789226330500092 O
atom 5.8013481544030636 3.3493869934364504 21.3156898682472260 O
atom 1.9337936452903000 1.1164566456164886 19.7367666838276392 O
atom 11.6026693609655585 13.3975829013832826 21.3156890743901926 O
atom 3.8675664521449611 4.4658553496391526 19.7367673564413764 O
atom 7.7351107930604082 13.3975854223138899 18.9473052128610249 Ce
atom 13.5364623910733464 1.1164543859650145 22.1051502104936901 Ce
atom 7.7351179701954065 11.1646491712282447 22.1051504500935394 Ce
atom 1.9337981849154515 1.1164546962344688 22.1051497370658794 Ce
atom 5.8013403338014848 5.5823227097162915 18.1578449716516417 O
atom 9.6688958682176676 3.3493919332352431 16.5789225666547324 O
atom 7.7351145124426006 13.3975830891775995 21.3156890859371337 O
atom 7.7351216683640285 4.4658548189162719 19.7367677952271663 O
atom 9.6688956914410493 5.5823228648508803 18.1578448735019009 O
atom 5.8013403974412210 3.3493917454406210 16.5789228841976524 O
atom 7.7351214562318429 2.2329236301041129 18.1578452112520736 O
atom 7.7351145195139370 6.6987906454234931 16.5789230198746367 O
atom 7.7351251544012722 4.4658521224388217 22.1051517664528490 Ce
atom 5.8013519444952584 5.5823157266382610 25.2629952514269966 Ce
atom 7.7351330810674028 2.2329175125123704 25.2629956873269208 Ce
atom 9.6689063333997662 5.5823153877913025 25.2629962848843519 Ce
atom 5.8013564487646656 5.5823137568440391 27.6313778139175170 O
atom 9.6689110851562852 3.3493824863815953 26.0524563153610487 O
atom 7.7351295738176979 4.4658504302533917 24.4735343173965703 O
atom 15.4702323341453134 8.9317168740252555 22.8946114793868674 O
atom 9.6689108588821071 5.5823136425337374 27.6313786683963833 O
atom 5.8013563426987931 3.3493830620120382 26.0524559343098971 O
atom 7.7351380873828735 2.2329151630475255 27.6313782671373538 O
atom 7.7351294253255034 6.6987809617857685 26.0524565318674810 O
atom 3.8675796396859043 2.2329176227409619 25.2629944056080475 Ce
atom 9.6688992199046986 7.8152510550819478 22.1051510245574825 Ce
atom 11.6026811908621870 4.4658534206693092 22.1051510736323138 Ce
atom 5.8013612641612404 3.3493813167545148 28.4208387161932876 Ce
atom 9.6689032857685966 7.8152486198841764 24.4735340893428841 O
atom 13.5364589757478448 5.5823188803537693 22.8946118979659445 O
atom 3.8675832035041808 2.2329155917084536 27.6313779900093017 O
atom 11.6026844294112905 6.6987811250853451 26.0524559545173098 O
atom 13.5364586292652387 7.8152493873914377 24.4735334715782074 O
atom 9.6689032362712748 5.5823179903719025 22.8946122732437800 O
atom 11.6026847263960171 4.4658509977186531 24.4735341730591820 O
atom 11.6026773229881872 8.9317166168287603 22.8946116525918058 O
atom 7.7351252180406442 8.9317133038961583 25.2629954217450674 Ce
atom 5.8013520081351349 1.1164535163956446 22.1051508859933463 Ce
atom 15.4702273066171259 11.1646492324647753 22.1051510389914512 Ce
atom 9.6689066445263840 1.1164537858389398 22.1051515961346396 Ce
atom 5.8013566326124435 1.1164521467264255 24.4735335697276177 O
atom 17.4040053814160345 12.2811150391606390 22.8946114765003266 O
atom 7.7351297718076584 8.9317118362471213 27.6313784865305188 O
atom 15.4702321573685815 13.3975790679377447 26.0524561104017209 O
atom 9.6689109083793472 1.1164521997979164 24.4735342740956057 O
atom 13.5364504338978957 12.2811152514499220 22.8946112282397394 O
atom 15.4702322210083061 11.1646476954139260 24.4735337169518985 O
atom 7.7351294889650770 2.2329192414411052 22.8946121491135699 O
atom 3.8675791800666266 6.6987785674138527 28.4208383264817073 Ce
atom 9.6688989158487750 12.2811127346016775 25.2629953091620365 Ce
atom 11.6026805332536185 8.9317139162687624 25.2629954217451171 Ce
atom 13.5364553412179855 12.2811139552654893 25.2629940505378769 Ce
atom 9.6689035332558078 12.2811110015911424 27.6313786799429622 O
atom 13.5364587777574332 10.0481802373578120 26.0524553569593671 O
atom 11.6026772734903467 11.1646476872490990 24.4735335379732390 O
atom 11.6026848607459971 2.2329197884943777 22.8946113927846895 O
atom 13.5364587424021163 12.2811113975925341 27.6313777561825624 O
atom 9.6689030736366366 10.0481796045720522 26.0524564250576240 O
atom 11.6026847193253317 8.9317122118354479 27.6313785962273180 O
atom 11.6026771744954971 13.3975786801019989 26.0524558967818933 O
atom 11.6026881982901262 2.2329175941624637 25.2629948963570214 Ce
atom 17.4040090583712512 7.8152516674543362 22.1051508340323792 Ce
atom 3.8675705887200471 4.4658527674717998 22.1051509235213786 Ce
atom 5.8013432965798621 7.8152509326067845 22.1051513363273138 Ce
atom 17.4040137959861809 7.8152493016593825 24.4735334542575416 O
atom 5.8013481685449761 5.5823180761041868 22.8946119268336936 O
atom 11.6026923065806358 2.2329149793354093 27.6313780766123500 O
atom 3.8675751354159806 6.6987814639320229 26.0524556485211960 O
atom 5.8013481544028709 7.8152487505236152 24.4735339911934844 O
atom 17.4040137252752878 5.5823185782502378 22.8946111300901762 O
atom 3.8675751778425558 4.4658505037387899 24.4735336245757544 O
atom 19.3377867230489926 8.9317167637977395 22.8946116872334429 O
atom 15.4702364353643897 13.3975768858540292 28.4208391982810760 Ce
atom 13.5364621011603976 5.5823164900623485 25.2629958172305464 Ce
atom 15.4702433932963697 2.2329172226561247 25.2629959067196737 Ce
atom 17.4040183921794238 5.5823165798786434 25.2629938715591358 Ce
atom 13.5364662943037324 5.5823132873579988 27.6313785991138410 O
atom 1.9338016568104253 3.3493830579297952 26.0524558534805699 O
atom 15.4702400557514839 4.4658507364400100 24.4735339883067233 O
atom 7.7351216542217500 8.9317163555494012 22.8946118142502968 O
atom 17.4040215953740436 5.5823133281834840 27.6313775541096547 O
atom 13.5364660397448855 3.3493829803619675 26.0524563442288581 O
atom 15.4702474591602339 2.2329147874583843 27.6313789195435504 O
atom 15.4702405295127612 6.6987814557671914 26.0524557293499797 O
atom 11.6026882265748288 6.6987782816391270 28.4208390077557347 Ce
atom 17.4040087684571176 12.2811135429333937 25.2629948415088812 Ce
atom 19.3377907606288204 8.9317140101662744 25.2629947693392296 Ce
atom 21.2715635533415011 12.2811129591377366 25.2629957883632486 Ce
atom 17.4040136687068738 12.2811113118602719 27.6313778774261749 O
atom 5.8013482463266550 10.0481797229643259 26.0524561190618620 O
atom 19.3377866169828252 11.1646476137639219 24.4735336592173596 O
atom 3.8675752202688485 2.2329197639997234 22.8946114101048330 O
atom 21.2715682838855358 12.2811106219200461 27.6313786453020498 O
atom 17.4040137747727783 10.0481802741000905 26.0524554608824630 O
atom 19.3377952083301459 8.9317119913819756 27.6313778514450163 O
atom 19.3377865816274479 13.3975789781227501 26.0524561334962002 O
atom 15.4702366404250000 8.9317145123125830 25.2629939899158451 Ce
atom 13.5364623910733410 10.0481780144486130 28.4208389875485103 Ce
atom 15.4702438175600037 6.6987782612269395 28.4208392271483667 Ce
atom 17.4040183143979306 10.0481783247180676 28.4208385141206961 Ce
atom 13.5364661811660802 1.1164517997149859 24.4735337487064619 O
atom 9.6688958682176587 12.2811155617188419 22.8946113437095562 O
atom 15.4702403598071960 8.9317121791762943 27.6313778629919575 O
atom 7.7351216683640232 13.3975784473998711 26.0524565722819936 O
atom 1.9338014093231615 1.1164519548495730 24.4735336505567247 O
atom 21.2715605269236967 12.2811153739242194 22.8946116612524797 O
atom 7.7351214562318411 11.1646472585877117 24.4735339883068974 O
atom 15.4702403668785280 2.2329197354221861 22.8946117969294534 O
atom 7.7351251544012696 13.3975757509224174 28.4208405435076763 Ce
atom 7.7351380520274216 4.4658459640239485 29.2103002564416911 O
atom 1.9338049377868110 3.3493801450806391 28.4208398016123063 Ce
atom 11.6026811908621870 13.3975770491529076 28.4208398506871340 Ce
atom 5.8013646936299548 1.1164479703524632 29.2103006750207612 O
atom 1.9338089541533809 1.1164470803705950 29.2103010502986038 O
atom 3.8675830408703029 4.4658457068274524 29.2103004296466295 O
atom 5.8013520081351206 10.0481771448792472 28.4208396630481737 Ce
atom 7.7351330244992402 6.6987783224634674 28.4208398160462679 Ce
atom 9.6689066445263787 10.0481774143225397 28.4208403731894599 Ce
atom 9.6689110992981480 7.8152441291593346 29.2103002535551468 O
atom 5.8013561517800083 7.8152443414486141 29.2103000052945632 O
atom 7.7351294889650708 11.1646428699247071 29.2103009261683830 O
atom 11.6026848607460025 11.1646434169779774 29.2103001698395168 O
atom 9.6689147762533612 3.3493807574530301 28.4208396110872066 Ce
atom 19.3377907182025339 13.3975763959553991 28.4208397005762023 Ce
atom 13.5364691439444638 3.3493800226054753 28.4208401133821411 Ce
atom 13.5364740159095724 1.1164471661028792 29.2103007038885139 O
atom 9.6689194431573942 1.1164476682489288 29.2102999071450000 O
atom 11.6026924409311079 4.4658458537964307 29.2103004642882702 O
atom 15.4702475015863481 4.4658454455480960 29.2103005913051170 O
atom 19.3377953497513317 11.1646433924833257 29.2103001871596497 O
atom 17.4040217155822567 7.8152446517175358 29.2103001207643800 O
atom 13.5364662448058120 7.8152444639229133 29.2103004383072999 O
atom 15.4702403668785351 11.1646433639057854 29.2103005739842807 O
