#===============================================================================
# Created using the Atomic Simulation Environment (ASE)

# Mon Mar 23 14:00:24 2026

#=======================================================
lattice_vector 15.4702201436246050 0.0000000000000000 0.0000000000000000 
lattice_vector 0.0000000000000000 10.9390864000000008 0.0000000000000000 
lattice_vector 0.0000000000000000 0.0000000000000000 33.8675562468191700 
atom 7.7351652155350701 10.9390847500000010 15.0000011914756541 Ce
atom 5.8013877417755007 6.8369294800000002 15.0000005391696050 O
atom 9.6689428943545401 9.5717002500000028 15.0000008043345332 O
atom 7.7351693291283592 6.8369294100000007 16.9337783116769742 O
atom 7.7351689897172040 9.5717001000000028 16.9337784106722751 O
atom 9.6689428307151353 6.8369293600000010 15.0000010093955609 O
atom 5.8013878973392954 9.5716999200000021 15.0000008361542996 O
atom 7.7351650529003386 5.4695447100000019 15.0000010288412682 Ce
atom 5.8013881024001783 1.3673854400000012 15.0000007583723374 O
atom 9.6689424559489723 4.1021579800000012 15.0000014265889448 O
atom 7.7351692018487306 1.3673855000000015 16.9337779156973056 O
atom 7.7351690533565485 4.1021579300000015 16.9337781490426948 O
atom 9.6689422508876710 1.3673857900000004 15.0000011083911033 O
atom 5.8013881024002956 4.1021576200000016 15.0000008715094282 O
atom 3.8676109751232932 10.9390852000000027 15.0000004525482566 Ce
atom 1.9338370068465098 8.2043142100000033 16.9337782215206261 Ce
atom 5.8013919826484326 8.2043137300000009 16.9337780694927318 Ce
atom 5.8013958982520712 9.5717004499999998 18.8675554301105493 O
atom 3.8676145230319214 9.5717002900000026 16.9337783222833451 O
atom 3.8676142967572340 6.8369291399999996 16.9337778131666852 O
atom 5.8013957709732127 6.8369292700000006 18.8675557836640735 O
atom 3.8676109044121523 5.4695439300000022 15.0000000000000000 Ce
atom 1.9338367735012278 2.7347708800000015 16.9337781720233878 Ce
atom 5.8013920462882709 2.7347708499999999 16.9337782886957626 Ce
atom 3.8676178729501713 5.4695446900000011 18.8675557111860144 Ce
atom 5.8013956012672745 4.1021581900000008 18.8675554725372621 O
atom 3.8676143603971962 4.1021578300000003 16.9337781596489521 O
atom 3.8676143533262786 1.3673852400000008 16.9337783081413704 O
atom 1.9338406608208529 4.1021577000000011 18.8675557871996773 O
atom 11.6027197246459615 10.9390861800000021 15.0000005020470866 Ce
atom 9.6689462372018866 8.2043144900000016 16.9337783558717803 Ce
atom 13.5365016019127822 8.2043144699999999 16.9337784513308449 Ce
atom 11.6027280013310445 10.9390850300000029 18.8675557394702267 Ce
atom 9.6689506548513098 6.8369296000000004 18.8675556952758825 O
atom 11.6027240433005190 9.5717004200000009 16.9337779121619718 O
atom 11.6027240362296293 6.8369297000000016 16.9337780889386664 O
atom 9.6689505629273818 9.5717003900000002 18.8675556457784950 O
atom 11.6027200923420377 5.4695438900000006 15.0000010394478593 Ce
atom 9.6689460887101308 2.7347711900000000 16.9337790134812280 Ce
atom 13.5365015877710224 2.7347707600000004 16.9337788190263865 Ce
atom 11.6027281003258480 5.4695448400000011 18.8675555980487673 Ce
atom 11.6027240857275711 4.1021576000000017 16.9337785485580383 O
atom 11.6027238877375769 1.3673855800000005 16.9337784495632917 O
atom 7.7351735629293774 10.9390859000000020 18.8675550005430352 Ce
atom 0.0000548891640049 10.9390851700000020 15.0000008803489351 Ce
atom 13.5364975731716353 6.8369295700000015 15.0000006805912065 O
atom 1.9338328932527882 9.5717004100000000 15.0000006770552403 O
atom 0.0000591653922113 6.8369295800000023 16.9337783470324084 O
atom 0.0000592785293660 9.5717001500000016 16.9337784177429711 O
atom 1.9338330983135685 6.8369293600000010 15.0000005002783325 O
atom 13.5364972974000199 9.5717004200000009 15.0000007018046944 O
atom 7.7351735275743838 5.4695442800000009 18.8675553470253874 Ce
atom 0.0000551295801358 5.4695446100000007 15.0000007106430573 Ce
atom 13.5364977711614536 1.3673858000000012 15.0000005957381930 O
atom 1.9338328013289359 4.1021579300000015 15.0000007124106673 O
atom 0.0000591653923899 1.3673852800000006 16.9337785167380375 O
atom 0.0000591158946271 4.1021577500000008 16.9337782409664399 O
atom 1.9338328791104582 1.3673852400000008 15.0000004932074873 O
atom 13.5364978984412527 4.1021577800000006 15.0000011614234907 O
atom 0.0000632436309466 10.9390849900000013 18.8675562379801534 Ce
atom 0.0000632294884725 5.4695443400000006 18.8675558985689094 Ce
atom 3.8676180355852265 10.9390852300000017 18.8675561990895275 Ce
atom 1.9338405052574232 6.8369296100000003 18.8675558437683861 O
atom 1.9338406961763410 9.5717000000000017 18.8675559356920672 O
atom 1.9338405830395711 1.3673857300000005 18.8675562468191700 O
atom 5.8013956154099402 1.3673855200000007 18.8675559957962662 O
atom 13.5365057013642573 9.5717003100000007 18.8675558826591612 O
atom 13.5365058569276719 6.8369294700000012 18.8675558119483355 O
atom 9.6689509589075122 1.3673854800000009 18.8675559710472101 O
atom 13.5365056377247139 4.1021580000000020 18.8675559462988360 O
atom 13.5365057296487787 1.3673851400000014 18.8675561230754454 O
atom 9.6689509094099417 4.1021581200000012 18.8675558791233868 O
