#===============================================================================
# Created using the Atomic Simulation Environment (ASE)

# Mon Mar 23 14:00:24 2026

#=======================================================
lattice_vector 15.4702201436246050 0.0000000000000000 0.0000000000000000 
lattice_vector 0.0000000000000000 10.9390864000000008 0.0000000000000000 
lattice_vector 0.0000000000000000 0.0000000000000000 30.0000012462761347 
atom 5.8013958982520712 9.5717004499999998 15.0000004295675140 O
atom 5.8013957709732127 6.8369292700000006 15.0000007831210382 O
atom 3.8676178729501713 5.4695446900000011 15.0000007106429791 Ce
atom 5.8013956012672745 4.1021581900000008 15.0000004719942268 O
atom 1.9338406608208529 4.1021577000000011 15.0000007866566420 O
atom 11.6027280013310445 10.9390850300000029 15.0000007389271914 Ce
atom 9.6689506548513098 6.8369296000000004 15.0000006947328473 O
atom 9.6689505629273818 9.5717003900000002 15.0000006452354597 O
atom 11.6027281003258480 5.4695448400000011 15.0000005975057320 Ce
atom 7.7351735629293774 10.9390859000000020 15.0000000000000000 Ce
atom 7.7351735275743838 5.4695442800000009 15.0000003464823521 Ce
atom 0.0000632436309466 10.9390849900000013 15.0000012374371181 Ce
atom 0.0000632294884725 5.4695443400000006 15.0000008980258741 Ce
atom 3.8676180355852265 10.9390852300000017 15.0000011985464923 Ce
atom 1.9338405052574232 6.8369296100000003 15.0000008432253509 O
atom 1.9338406961763410 9.5717000000000017 15.0000009351490320 O
atom 1.9338405830395711 1.3673857300000005 15.0000012462761347 O
atom 5.8013956154099402 1.3673855200000007 15.0000009952532309 O
atom 13.5365057013642573 9.5717003100000007 15.0000008821161259 O
atom 13.5365058569276719 6.8369294700000012 15.0000008114053003 O
atom 9.6689509589075122 1.3673854800000009 15.0000009705041748 O
atom 13.5365056377247139 4.1021580000000020 15.0000009457558008 O
atom 13.5365057296487787 1.3673851400000014 15.0000011225324101 O
atom 9.6689509094099417 4.1021581200000012 15.0000008785803516 O
