#===============================================================================
# Created using the Atomic Simulation Environment (ASE)

# Mon Mar 23 14:00:24 2026

#=======================================================
lattice_vector 15.4702201436246050 0.0000000000000000 0.0000000000000000 
lattice_vector 0.0000000000000000 10.9390864000000008 0.0000000000000000 
lattice_vector 0.0000000000000000 0.0000000000000000 31.9337784336524848 
atom 7.7351693291283592 6.8369294100000007 15.0000004985102890 O
atom 7.7351689897172040 9.5717001000000028 15.0000005975055899 O
atom 7.7351692018487306 1.3673855000000015 15.0000001025306204 O
atom 7.7351690533565485 4.1021579300000015 15.0000003358760097 O
atom 1.9338370068465098 8.2043142100000033 15.0000004083539409 Ce
atom 5.8013919826484326 8.2043137300000009 15.0000002563260466 Ce
atom 5.8013958982520712 9.5717004499999998 16.9337776169438641 O
atom 3.8676145230319214 9.5717002900000026 15.0000005091166599 O
atom 3.8676142967572340 6.8369291399999996 15.0000000000000000 O
atom 5.8013957709732127 6.8369292700000006 16.9337779704973883 O
atom 1.9338367735012278 2.7347708800000015 15.0000003588567026 Ce
atom 5.8013920462882709 2.7347708499999999 15.0000004755290774 Ce
atom 3.8676178729501713 5.4695446900000011 16.9337778980193292 Ce
atom 5.8013956012672745 4.1021581900000008 16.9337776593705769 O
atom 3.8676143603971962 4.1021578300000003 15.0000003464822669 O
atom 3.8676143533262786 1.3673852400000008 15.0000004949746852 O
atom 1.9338406608208529 4.1021577000000011 16.9337779740329921 O
atom 9.6689462372018866 8.2043144900000016 15.0000005427050951 Ce
atom 13.5365016019127822 8.2043144699999999 15.0000006381641597 Ce
atom 11.6027280013310445 10.9390850300000029 16.9337779263035415 Ce
atom 9.6689506548513098 6.8369296000000004 16.9337778821091973 O
atom 11.6027240433005190 9.5717004200000009 15.0000000989952866 O
atom 11.6027240362296293 6.8369297000000016 15.0000002757719813 O
atom 9.6689505629273818 9.5717003900000002 16.9337778326118098 O
atom 9.6689460887101308 2.7347711900000000 15.0000012003145429 Ce
atom 13.5365015877710224 2.7347707600000004 15.0000010058597013 Ce
atom 11.6027281003258480 5.4695448400000011 16.9337777848820821 Ce
atom 11.6027240857275711 4.1021576000000017 15.0000007353913531 O
atom 11.6027238877375769 1.3673855800000005 15.0000006363966065 O
atom 7.7351735629293774 10.9390859000000020 16.9337771873763501 Ce
atom 0.0000591653922113 6.8369295800000023 15.0000005338657232 O
atom 0.0000592785293660 9.5717001500000016 15.0000006045762859 O
atom 7.7351735275743838 5.4695442800000009 16.9337775338587022 Ce
atom 0.0000591653923899 1.3673852800000006 15.0000007035713523 O
atom 0.0000591158946271 4.1021577500000008 15.0000004277997547 O
atom 0.0000632436309466 10.9390849900000013 16.9337784248134682 Ce
atom 0.0000632294884725 5.4695443400000006 16.9337780854022242 Ce
atom 3.8676180355852265 10.9390852300000017 16.9337783859228423 Ce
atom 1.9338405052574232 6.8369296100000003 16.9337780306017009 O
atom 1.9338406961763410 9.5717000000000017 16.9337781225253821 O
atom 1.9338405830395711 1.3673857300000005 16.9337784336524848 O
atom 5.8013956154099402 1.3673855200000007 16.9337781826295810 O
atom 13.5365057013642573 9.5717003100000007 16.9337780694924760 O
atom 13.5365058569276719 6.8369294700000012 16.9337779987816504 O
atom 9.6689509589075122 1.3673854800000009 16.9337781578805249 O
atom 13.5365056377247139 4.1021580000000020 16.9337781331321509 O
atom 13.5365057296487787 1.3673851400000014 16.9337783099087602 O
atom 9.6689509094099417 4.1021581200000012 16.9337780659567017 O
