#===============================================================================
# Created using the Atomic Simulation Environment (ASE)

# Mon Mar 23 14:00:23 2026

#=======================================================
lattice_vector 15.4702201294824828 0.0000000000000000 0.0000000000000000 
lattice_vector 7.7350942821178856 13.3975945384849062 0.0000000000000000 
lattice_vector 0.0000000000000000 0.0000000000000000 37.8946122732437800 
atom 13.5364507308825530 10.0481846668453443 15.0000002598078659 O
atom 17.4040051409999847 10.0481845525350462 15.0000011142867287 O
atom 15.4702323695007511 6.6987860730488347 15.0000007130276991 O
atom 13.5364555462791341 7.8152522267558213 15.7894611620836365 Ce
atom 11.6026774856220740 6.6987865017097592 15.0000004358996541 O
atom 15.4702240539255413 13.3975827462484265 15.0000009324208712 O
atom 11.6026734621845122 11.1646494774151606 15.7894607723720597 Ce
atom 9.6689035332558060 3.3493873731075441 15.0000011258333039 O
atom 13.5364587424021163 3.3493877691089349 15.0000002020729148 O
atom 19.3377790014432236 13.3975831218367549 15.0000010421176739 O
atom 3.8675664592160413 6.6987858893367189 15.0000005225027024 O
atom 15.4702364353643933 4.4658532573704299 15.7894616441714284 Ce
atom 5.8013404469391361 10.0481841973593067 15.0000010450041863 O
atom 9.6688957480094473 10.0481842381847919 15.0000000000000000 O
atom 7.7351216117956358 6.6987856974596873 15.0000013654339028 O
atom 19.3377825086927189 11.1646491916404340 15.7894614536460871 Ce
atom 1.9337935392243941 3.3493876833766740 15.0000003233165238 O
atom 5.8013481544030636 3.3493869934364504 15.0000010911923987 O
atom 11.6026693609655585 13.3975829013832826 15.0000002973353652 O
atom 13.5364623910733464 1.1164543859650145 15.7894614334388628 Ce
atom 7.7351179701954065 11.1646491712282447 15.7894616730387121 Ce
atom 1.9337981849154515 1.1164546962344688 15.7894609600110520 Ce
atom 7.7351145124426006 13.3975830891775995 15.0000003088823064 O
atom 7.7351251544012722 4.4658521224388217 15.7894629893980216 Ce
atom 5.8013519444952584 5.5823157266382610 18.9473064743721693 Ce
atom 7.7351330810674028 2.2329175125123704 18.9473069102720935 Ce
atom 9.6689063333997662 5.5823153877913025 18.9473075078295246 Ce
atom 5.8013564487646656 5.5823137568440391 21.3156890368626897 O
atom 9.6689110851562852 3.3493824863815953 19.7367675383062213 O
atom 7.7351295738176979 4.4658504302533917 18.1578455403417429 O
atom 15.4702323341453134 8.9317168740252555 16.5789227023320400 O
atom 9.6689108588821071 5.5823136425337374 21.3156898913415560 O
atom 5.8013563426987931 3.3493830620120382 19.7367671572550698 O
atom 7.7351380873828735 2.2329151630475255 21.3156894900825264 O
atom 7.7351294253255034 6.6987809617857685 19.7367677548126537 O
atom 3.8675796396859043 2.2329176227409619 18.9473056285532202 Ce
atom 9.6688992199046986 7.8152510550819478 15.7894622475026551 Ce
atom 11.6026811908621870 4.4658534206693092 15.7894622965774865 Ce
atom 5.8013612641612404 3.3493813167545148 22.1051499391384603 Ce
atom 9.6689032857685966 7.8152486198841764 18.1578453122880568 O
atom 13.5364589757478448 5.5823188803537693 16.5789231209111172 O
atom 3.8675832035041808 2.2329155917084536 21.3156892129544744 O
atom 11.6026844294112905 6.6987811250853451 19.7367671774624824 O
atom 13.5364586292652387 7.8152493873914377 18.1578446945233800 O
atom 9.6689032362712748 5.5823179903719025 16.5789234961889527 O
atom 11.6026847263960171 4.4658509977186531 18.1578453960043547 O
atom 11.6026773229881872 8.9317166168287603 16.5789228755369784 O
atom 7.7351252180406442 8.9317133038961583 18.9473066446902401 Ce
atom 5.8013520081351349 1.1164535163956446 15.7894621089385190 Ce
atom 15.4702273066171259 11.1646492324647753 15.7894622619366238 Ce
atom 9.6689066445263840 1.1164537858389398 15.7894628190798123 Ce
atom 5.8013566326124435 1.1164521467264255 18.1578447926727904 O
atom 17.4040053814160345 12.2811150391606390 16.5789226994454992 O
atom 7.7351297718076584 8.9317118362471213 21.3156897094756914 O
atom 15.4702321573685815 13.3975790679377447 19.7367673333468936 O
atom 9.6689109083793472 1.1164521997979164 18.1578454970407783 O
atom 13.5364504338978957 12.2811152514499220 16.5789224511849120 O
atom 15.4702322210083061 11.1646476954139260 18.1578449398970712 O
atom 7.7351294889650770 2.2329192414411052 16.5789233720587426 O
atom 3.8675791800666266 6.6987785674138527 22.1051495494268799 Ce
atom 9.6688989158487750 12.2811127346016775 18.9473065321072092 Ce
atom 11.6026805332536185 8.9317139162687624 18.9473066446902898 Ce
atom 13.5364553412179855 12.2811139552654893 18.9473052734830496 Ce
atom 9.6689035332558078 12.2811110015911424 21.3156899028881348 O
atom 13.5364587777574332 10.0481802373578120 19.7367665799045398 O
atom 11.6026772734903467 11.1646476872490990 18.1578447609184117 O
atom 11.6026848607459971 2.2329197884943777 16.5789226157298621 O
atom 13.5364587424021163 12.2811113975925341 21.3156889791277351 O
atom 9.6689030736366366 10.0481796045720522 19.7367676480027967 O
atom 11.6026847193253317 8.9317122118354479 21.3156898191724906 O
atom 11.6026771744954971 13.3975786801019989 19.7367671197270660 O
atom 11.6026881982901262 2.2329175941624637 18.9473061193021941 Ce
atom 17.4040090583712512 7.8152516674543362 15.7894620569775519 Ce
atom 3.8675705887200471 4.4658527674717998 15.7894621464665512 Ce
atom 5.8013432965798621 7.8152509326067845 15.7894625592724864 Ce
atom 17.4040137959861809 7.8152493016593825 18.1578446772027142 O
atom 5.8013481685449761 5.5823180761041868 16.5789231497788663 O
atom 11.6026923065806358 2.2329149793354093 21.3156892995575227 O
atom 3.8675751354159806 6.6987814639320229 19.7367668714663687 O
atom 5.8013481544028709 7.8152487505236152 18.1578452141386570 O
atom 17.4040137252752878 5.5823185782502378 16.5789223530353489 O
atom 3.8675751778425558 4.4658505037387899 18.1578448475209271 O
atom 19.3377867230489926 8.9317167637977395 16.5789229101786155 O
atom 15.4702364353643897 13.3975768858540292 22.1051504212262486 Ce
atom 13.5364621011603976 5.5823164900623485 18.9473070401757191 Ce
atom 15.4702433932963697 2.2329172226561247 18.9473071296648463 Ce
atom 17.4040183921794238 5.5823165798786434 18.9473050945043084 Ce
atom 13.5364662943037324 5.5823132873579988 21.3156898220590136 O
atom 1.9338016568104253 3.3493830579297952 19.7367670764257426 O
atom 15.4702400557514839 4.4658507364400100 18.1578452112518960 O
atom 7.7351216542217500 8.9317163555494012 16.5789230371954694 O
atom 17.4040215953740436 5.5823133281834840 21.3156887770548273 O
atom 13.5364660397448855 3.3493829803619675 19.7367675671740308 O
atom 15.4702474591602339 2.2329147874583843 21.3156901424887231 O
atom 15.4702405295127612 6.6987814557671914 19.7367669522951523 O
atom 11.6026882265748288 6.6987782816391270 22.1051502307009073 Ce
atom 17.4040087684571176 12.2811135429333937 18.9473060644540539 Ce
atom 19.3377907606288204 8.9317140101662744 18.9473059922844023 Ce
atom 21.2715635533415011 12.2811129591377366 18.9473070113084212 Ce
atom 17.4040136687068738 12.2811113118602719 21.3156891003713476 O
atom 5.8013482463266550 10.0481797229643259 19.7367673420070346 O
atom 19.3377866169828252 11.1646476137639219 18.1578448821625322 O
atom 3.8675752202688485 2.2329197639997234 16.5789226330500057 O
atom 21.2715682838855358 12.2811106219200461 21.3156898682472224 O
atom 17.4040137747727783 10.0481802741000905 19.7367666838276357 O
atom 19.3377952083301459 8.9317119913819756 21.3156890743901890 O
atom 19.3377865816274479 13.3975789781227501 19.7367673564413728 O
atom 15.4702366404250000 8.9317145123125830 18.9473052128610178 Ce
atom 13.5364623910733410 10.0481780144486130 22.1051502104936830 Ce
atom 15.4702438175600037 6.6987782612269395 22.1051504500935394 Ce
atom 17.4040183143979306 10.0481783247180676 22.1051497370658687 Ce
atom 13.5364661811660802 1.1164517997149859 18.1578449716516346 O
atom 9.6688958682176587 12.2811155617188419 16.5789225666547289 O
atom 15.4702403598071960 8.9317121791762943 21.3156890859371302 O
atom 7.7351216683640232 13.3975784473998711 19.7367677952271663 O
atom 1.9338014093231615 1.1164519548495730 18.1578448735018974 O
atom 21.2715605269236967 12.2811153739242194 16.5789228841976524 O
atom 7.7351214562318411 11.1646472585877117 18.1578452112520701 O
atom 15.4702403668785280 2.2329197354221861 16.5789230198746260 O
atom 7.7351251544012696 13.3975757509224174 22.1051517664528490 Ce
atom 7.7351380520274216 4.4658459640239485 22.8946114793868638 O
atom 1.9338049377868110 3.3493801450806391 22.1051510245574789 Ce
atom 11.6026811908621870 13.3975770491529076 22.1051510736323067 Ce
atom 5.8013646936299548 1.1164479703524632 22.8946118979659339 O
atom 1.9338089541533809 1.1164470803705950 22.8946122732437765 O
atom 3.8675830408703029 4.4658457068274524 22.8946116525918022 O
atom 5.8013520081351206 10.0481771448792472 22.1051508859933463 Ce
atom 7.7351330244992402 6.6987783224634674 22.1051510389914405 Ce
atom 9.6689066445263787 10.0481774143225397 22.1051515961346325 Ce
atom 9.6689110992981480 7.8152441291593346 22.8946114765003195 O
atom 5.8013561517800083 7.8152443414486141 22.8946112282397358 O
atom 7.7351294889650708 11.1646428699247071 22.8946121491135557 O
atom 11.6026848607460025 11.1646434169779774 22.8946113927846895 O
atom 9.6689147762533612 3.3493807574530301 22.1051508340323792 Ce
atom 19.3377907182025339 13.3975763959553991 22.1051509235213750 Ce
atom 13.5364691439444638 3.3493800226054753 22.1051513363273138 Ce
atom 13.5364740159095724 1.1164471661028792 22.8946119268336865 O
atom 9.6689194431573942 1.1164476682489288 22.8946111300901727 O
atom 11.6026924409311079 4.4658458537964307 22.8946116872334429 O
atom 15.4702475015863481 4.4658454455480960 22.8946118142502897 O
atom 19.3377953497513317 11.1646433924833257 22.8946114101048224 O
atom 17.4040217155822567 7.8152446517175358 22.8946113437095526 O
atom 13.5364662448058120 7.8152444639229133 22.8946116612524726 O
atom 15.4702403668785351 11.1646433639057854 22.8946117969294534 O
