#===============================================================================
# Created using the Atomic Simulation Environment (ASE)

# Mon Mar 23 14:00:24 2026

#=======================================================
lattice_vector 15.4702201436246050 0.0000000000000000 0.0000000000000000 
lattice_vector 0.0000000000000000 10.9390864000000008 0.0000000000000000 
lattice_vector 0.0000000000000000 0.0000000000000000 35.8013335367260055 
atom 5.8013837837455249 8.2043143399999998 15.0000005391693456 Ce
atom 9.6689382928574474 8.2043140300000026 15.0000008538324039 Ce
atom 7.7351652155350701 10.9390847500000010 16.9337784813824932 Ce
atom 5.8013877417755007 6.8369294800000002 16.9337778290764440 O
atom 9.6689428943545401 9.5717002500000028 16.9337780942413723 O
atom 7.7351612221493244 9.5717001900000032 15.0000007742824302 O
atom 7.7351693291283592 6.8369294100000007 18.8675556015838133 O
atom 7.7351689897172040 9.5717001000000028 18.8675557005791141 O
atom 7.7351610807277718 6.8369293100000004 15.0000005762926705 O
atom 9.6689428307151353 6.8369293600000010 16.9337782993024000 O
atom 5.8013878973392954 9.5716999200000021 16.9337781260611386 O
atom 5.8013839605223883 2.7347710900000002 15.0000007018037174 Ce
atom 9.6689383847817663 2.7347718300000019 15.0000012851674356 Ce
atom 7.7351650529003386 5.4695447100000019 16.9337783187481072 Ce
atom 5.8013881024001783 1.3673854400000012 16.9337780482791764 O
atom 9.6689424559489723 4.1021579800000012 16.9337787164957838 O
atom 7.7351610736568812 4.1021582000000008 15.0000007530693793 O
atom 7.7351692018487306 1.3673855000000015 18.8675552056041447 O
atom 7.7351690533565485 4.1021579300000015 18.8675554389495339 O
atom 7.7351614130682833 1.3673853000000007 15.0000008944903875 O
atom 9.6689422508876710 1.3673857900000004 16.9337783982979424 O
atom 5.8013881024002956 4.1021576200000016 16.9337781614162672 O
atom 3.8676109751232932 10.9390852000000027 16.9337777424550957 Ce
atom 1.9338370068465098 8.2043142100000033 18.8675555114274651 Ce
atom 5.8013919826484326 8.2043137300000009 18.8675553593995708 Ce
atom 5.8013958982520712 9.5717004499999998 20.8013327200173883 O
atom 3.8676145230319214 9.5717002900000026 18.8675556121901842 O
atom 11.6027160636011200 6.8369293000000004 15.0000007848892274 O
atom 11.6027158443980269 9.5717002900000026 15.0000007919605167 O
atom 3.8676142967572340 6.8369291399999996 18.8675551030735242 O
atom 5.8013957709732127 6.8369292700000006 20.8013330735709125 O
atom 3.8676109044121523 5.4695439300000022 16.9337772899068391 Ce
atom 1.9338367735012278 2.7347708800000015 18.8675554619302268 Ce
atom 5.8013920462882709 2.7347708499999999 18.8675555786026017 Ce
atom 3.8676178729501713 5.4695446900000011 20.8013330010928534 Ce
atom 5.8013956012672745 4.1021581900000008 20.8013327624441011 O
atom 3.8676143603971962 4.1021578300000003 18.8675554495557911 O
atom 11.6027161555245950 1.3673861000000014 15.0000003818382659 O
atom 11.6027160918850338 4.1021581500000011 15.0000004313358062 O
atom 3.8676143533262786 1.3673852400000008 18.8675555980482095 O
atom 1.9338406608208529 4.1021577000000011 20.8013330771065164 O
atom 11.6027197246459615 10.9390861800000021 16.9337777919539256 Ce
atom 9.6689462372018866 8.2043144900000016 18.8675556457786193 Ce
atom 13.5365016019127822 8.2043144699999999 18.8675557412376840 Ce
atom 11.6027280013310445 10.9390850300000029 20.8013330293770657 Ce
atom 9.6689506548513098 6.8369296000000004 20.8013329851827216 O
atom 11.6027240433005190 9.5717004200000009 18.8675552020688109 O
atom 3.8676063736260966 6.8369295600000006 15.0000004030511747 O
atom 3.8676064796921481 9.5717002800000035 15.0000004384064027 O
atom 11.6027240362296293 6.8369297000000016 18.8675553788455055 O
atom 9.6689505629273818 9.5717003900000002 20.8013329356853340 O
atom 11.6027200923420377 5.4695438900000006 16.9337783293546984 Ce
atom 9.6689460887101308 2.7347711900000000 18.8675563033880671 Ce
atom 13.5365015877710224 2.7347707600000004 18.8675561089332255 Ce
atom 11.6027281003258480 5.4695448400000011 20.8013328879556063 Ce
atom 11.6027240857275711 4.1021576000000017 18.8675558384648774 O
atom 3.8676065504027668 1.3673853700000005 15.0000003818377934 O
atom 3.8676066776815987 4.1021578900000017 15.0000000000000000 O
atom 11.6027238877375769 1.3673855800000005 18.8675557394701308 O
atom 7.7351735629293774 10.9390859000000020 20.8013322904498743 Ce
atom 13.5364931908770778 8.2043145300000013 15.0000001714744897 Ce
atom 1.9338291261410772 8.2043145800000001 15.0000001184404219 Ce
atom 0.0000548891640049 10.9390851700000020 16.9337781702557741 Ce
atom 13.5364975731716353 6.8369295700000015 16.9337779704980456 O
atom 1.9338328932527882 9.5717004100000000 16.9337779669620794 O
atom 0.0000511432653009 9.5717004200000009 15.0000001308152626 O
atom 0.0000591653922113 6.8369295800000023 18.8675556369392474 O
atom 0.0000592785293660 9.5717001500000016 18.8675557076498102 O
atom 0.0000511715497339 6.8369297200000005 15.0000002863787323 O
atom 1.9338330983135685 6.8369293600000010 16.9337777901851716 O
atom 13.5364972974000199 9.5717004200000009 16.9337779917115334 O
atom 7.7351735275743838 5.4695442800000009 20.8013326369322264 Ce
atom 13.5364936363545141 2.7347719800000023 15.0000003341085986 Ce
atom 1.9338294796945346 2.7347713600000012 15.0000001891507360 Ce
atom 0.0000551295801358 5.4695446100000007 16.9337780005498963 Ce
atom 13.5364977711614536 1.3673858000000012 16.9337778856450321 O
atom 1.9338328013289359 4.1021579300000015 16.9337780023175064 O
atom 0.0000515675296724 4.1021579600000013 15.0000004277996766 O
atom 0.0000591653923899 1.3673852800000006 18.8675558066448765 O
atom 0.0000591158946271 4.1021577500000008 18.8675555308732790 O
atom 0.0000512846870054 1.3673857600000019 15.0000004702263716 O
atom 1.9338328791104582 1.3673852400000008 16.9337777831143264 O
atom 13.5364978984412527 4.1021577800000006 16.9337784513303298 O
atom 0.0000632436309466 10.9390849900000013 20.8013335278869924 Ce
atom 0.0000632294884725 5.4695443400000006 20.8013331884757484 Ce
atom 3.8676180355852265 10.9390852300000017 20.8013334889963666 Ce
atom 1.9338405052574232 6.8369296100000003 20.8013331336752252 O
atom 1.9338406961763410 9.5717000000000017 20.8013332255989063 O
atom 1.9338405830395711 1.3673857300000005 20.8013335367260090 O
atom 5.8013956154099402 1.3673855200000007 20.8013332857031052 O
atom 13.5365057013642573 9.5717003100000007 20.8013331725660002 O
atom 13.5365058569276719 6.8369294700000012 20.8013331018551746 O
atom 9.6689509589075122 1.3673854800000009 20.8013332609540491 O
atom 13.5365056377247139 4.1021580000000020 20.8013332362056751 O
atom 13.5365057296487787 1.3673851400000014 20.8013334129822844 O
atom 9.6689509094099417 4.1021581200000012 20.8013331690302259 O
