#===============================================================================
# Created using the Atomic Simulation Environment (ASE)

# Mon Mar 23 14:00:24 2026

#=======================================================
lattice_vector 15.4702201436246050 0.0000000000000000 0.0000000000000000 
lattice_vector 0.0000000000000000 10.9390864000000008 0.0000000000000000 
lattice_vector 0.0000000000000000 0.0000000000000000 45.4702213898685983 
atom 5.8013643612896360 9.5717004499999998 15.0000004295675211 O
atom 5.8013642340107729 6.8369292700000006 15.0000007831210453 O
atom 3.8675863359877258 5.4695446900000011 15.0000007106429862 Ce
atom 5.8013640643048321 4.1021581900000008 15.0000004719942339 O
atom 1.9338091238584176 4.1021577000000011 15.0000007866566563 O
atom 11.6026964643686021 10.9390850300000029 15.0000007389271985 Ce
atom 9.6689191178888709 6.8369296000000004 15.0000006947328473 O
atom 9.6689190259649465 9.5717003900000002 15.0000006452354668 O
atom 11.6026965633634056 5.4695448400000011 15.0000005975057391 Ce
atom 7.7351420259669279 10.9390859000000020 15.0000000000000000 Ce
atom 7.7351419906119414 5.4695442800000009 15.0000003464823628 Ce
atom 0.0000317066685145 10.9390849900000013 15.0000012374371252 Ce
atom 13.5364780870766044 8.2043143399999998 16.9337783205156995 Ce
atom 1.9338124525639253 8.2043140300000026 16.9337786351787578 Ce
atom 0.0000393752415484 10.9390847500000010 18.8675562627288578 Ce
atom 13.5364820451065810 6.8369294800000002 18.8675556104228015 O
atom 1.9338170540610118 9.5717002500000028 18.8675558755877333 O
atom 0.0000353818558029 9.5717001900000032 16.9337785556287841 O
atom 0.0000434888348373 6.8369294100000007 20.8013333829301743 O
atom 0.0000431494236823 9.5717001000000028 20.8013334819254680 O
atom 0.0000352404342427 6.8369293100000004 16.9337783576390315 O
atom 1.9338169904216200 6.8369293600000010 18.8675560806487610 O
atom 13.5364822006703740 9.5716999200000021 18.8675559074074961 O
atom 0.0000316925260336 5.4695443400000006 15.0000008980258812 Ce
atom 13.5364782638534678 2.7347710900000002 16.9337784831500784 Ce
atom 1.9338125444882379 2.7347718300000019 16.9337790665138002 Ce
atom 0.0000392126068164 5.4695447100000019 18.8675561000944612 Ce
atom 13.5364824057312614 1.3673854400000012 18.8675558296255375 O
atom 1.9338166156554442 4.1021579800000012 18.8675564978421413 O
atom 0.0000352333633526 4.1021582000000008 16.9337785344157297 O
atom 0.0000433615552154 1.3673855000000015 20.8013329869505057 O
atom 0.0000432130630330 4.1021579300000015 20.8013332202958985 O
atom 0.0000355727747549 1.3673853000000007 16.9337786758367415 O
atom 1.9338164105941622 1.3673857900000004 18.8675561796443034 O
atom 13.5364824057313786 4.1021576200000016 18.8675559427626283 O
atom 11.6027052784543692 10.9390852000000027 18.8675555238014567 Ce
atom 9.6689313101775962 8.2043142100000033 20.8013332927738261 Ce
atom 13.5364862859795121 8.2043137300000009 20.8013331407459283 Ce
atom 3.8675864986227877 10.9390852300000017 15.0000011985464994 Ce
atom 1.9338089682949742 6.8369296100000003 15.0000008432253509 O
atom 13.5364902015831579 9.5717004499999998 22.7351105013637493 O
atom 11.6027088263630045 9.5717002900000026 20.8013333935365416 O
atom 3.8675902233076016 6.8369293000000004 16.9337785662355849 O
atom 3.8675900041045019 9.5717002900000026 16.9337785733068777 O
atom 11.6027086000883166 6.8369291399999996 20.8013328844198853 O
atom 13.5364900743042949 6.8369292700000006 22.7351108549172700 O
atom 1.9338091592139022 9.5717000000000017 15.0000009351490426 O
atom 11.6027052077432327 5.4695439300000022 18.8675550712531930 Ce
atom 9.6689310768323082 2.7347708800000015 20.8013332432765878 Ce
atom 13.5364863496193504 2.7347708499999999 20.8013333599489663 Ce
atom 11.6027121762812513 5.4695446900000011 22.7351107824392109 Ce
atom 1.9338090460771320 1.3673857300000005 15.0000012462761383 O
atom 13.5364899045983531 4.1021581900000008 22.7351105437904586 O
atom 11.6027086637282828 4.1021578300000003 20.8013332309021521 O
atom 3.8675903152310727 1.3673861000000014 16.9337781631846269 O
atom 3.8675902515915124 4.1021581500000011 16.9337782126821672 O
atom 11.6027086566573647 1.3673852400000008 20.8013333793945812 O
atom 5.8013640784474978 1.3673855200000007 15.0000009952532345 O
atom 9.6689349641519353 4.1021577000000011 22.7351108584528809 O
atom 3.8675938843524329 10.9390861800000021 18.8675555733002795 Ce
atom 1.9338203969083514 8.2043144900000016 20.8013334271249661 Ce
atom 5.8013757616192603 8.2043144699999999 20.8013335225840486 Ce
atom 3.8676021610375226 10.9390850300000029 22.7351108107234232 Ce
atom 1.9338248145577881 6.8369296000000004 22.7351107665290755 O
atom 13.5364741644018185 9.5717003100000007 15.0000008821161366 O
atom 3.8675982030069971 9.5717004200000009 20.8013329834151648 O
atom 11.6027006769571770 6.8369295600000006 16.9337781843975357 O
atom 11.6027007830232343 9.5717002800000035 16.9337782197527638 O
atom 3.8675981959361070 6.8369297000000016 20.8013331601918701 O
atom 13.5364743199652366 6.8369294700000012 15.0000008114053003 O
atom 1.9338247226338603 9.5717003900000002 22.7351107170317022 O
atom 3.8675942520485087 5.4695438900000006 18.8675561107010559 Ce
atom 1.9338202484166018 2.7347711900000000 20.8013340847344246 Ce
atom 5.8013757474775005 2.7347707600000004 20.8013338902795901 Ce
atom 3.8676022600323270 5.4695448400000011 22.7351106693019709 Ce
atom 9.6689194219450680 1.3673854800000009 15.0000009705041890 O
atom 13.5364741007622715 4.1021580000000020 15.0000009457558114 O
atom 3.8675982454340483 4.1021576000000017 20.8013336198112313 O
atom 11.6027008537338538 1.3673853700000005 16.9337781631841544 O
atom 11.6027009810126849 4.1021578900000017 16.9337777813463610 O
atom 3.8675980474440483 1.3673855800000005 20.8013335208164811 O
atom 13.5364741926863399 1.3673851400000014 15.0000011225324101 O
atom 9.6689193724475029 4.1021581200000012 15.0000008785803516 O
atom 0.0000477226358413 10.9390859000000020 22.7351100717962318 Ce
atom 5.8013673505835524 8.2043145300000013 16.9337779528208507 Ce
atom 9.6689234294721533 8.2043145800000001 16.9337778997867829 Ce
atom 7.7351491924950881 10.9390851700000020 18.8675559516021352 Ce
atom 5.8013717328781196 6.8369295700000015 18.8675557518444066 O
atom 9.6689271965838675 9.5717004100000000 18.8675557483084368 O
atom 7.7351454465963876 9.5717004200000009 16.9337779121616201 O
atom 7.7351534687232943 6.8369295800000023 20.8013334182856084 O
atom 7.7351535818604491 9.5717001500000016 20.8013334889961641 O
atom 7.7351454748808166 6.8369297200000005 16.9337780677250862 O
atom 9.6689274016446554 6.8369293600000010 18.8675555715315291 O
atom 5.8013714571064945 9.5717004200000009 18.8675557730578909 O
atom 0.0000476872808617 5.4695442800000009 22.7351104182785946 Ce
atom 5.8013677960609931 2.7347719800000023 16.9337781154549560 Ce
atom 9.6689237830256136 2.7347713600000012 16.9337779704970970 Ce
atom 7.7351494329112187 5.4695446100000007 18.8675557818962574 Ce
atom 5.8013719308679308 1.3673858000000012 18.8675556669913895 O
atom 9.6689271046600229 4.1021579300000015 18.8675557836638674 O
atom 7.7351458708607552 4.1021579600000013 16.9337782091460340 O
atom 7.7351534687234658 1.3673852800000006 20.8013335879912340 O
atom 7.7351534192257105 4.1021577500000008 20.8013333122196400 O
atom 7.7351455880180886 1.3673857600000019 16.9337782515727326 O
atom 9.6689271824415481 1.3673852400000008 18.8675555644606874 O
atom 5.8013720581477282 4.1021577800000006 18.8675562326766908 O
atom 7.7351575469620366 10.9390849900000013 22.7351113092333534 Ce
atom 5.8013837837455249 8.2043143399999998 24.6688883923119349 Ce
atom 9.6689382928574474 8.2043140300000026 24.6688887069749931 Ce
atom 7.7351652155350701 10.9390847500000010 26.6026663345250824 Ce
atom 5.8013877417755007 6.8369294800000002 26.6026656822190333 O
atom 9.6689428943545401 9.5717002500000028 26.6026659473839615 O
atom 7.7351612221493244 9.5717001900000032 24.6688886274250194 O
atom 7.7351693291283592 6.8369294100000007 28.5364434547264025 O
atom 7.7351689897172040 9.5717001000000028 28.5364435537217034 O
atom 7.7351610807277718 6.8369293100000004 24.6688884294352597 O
atom 9.6689428307151353 6.8369293600000010 26.6026661524449892 O
atom 5.8013878973392954 9.5716999200000021 26.6026659792037279 O
atom 7.7351575328195556 5.4695443400000006 22.7351109698221094 Ce
atom 5.8013839605223883 2.7347710900000002 24.6688885549463066 Ce
atom 9.6689383847817663 2.7347718300000019 24.6688891383100248 Ce
atom 7.7351650529003386 5.4695447100000019 26.6026661718906965 Ce
atom 5.8013881024001783 1.3673854400000012 26.6026659014217657 O
atom 9.6689424559489723 4.1021579800000012 26.6026665696383731 O
atom 7.7351610736568812 4.1021582000000008 24.6688886062119686 O
atom 7.7351692018487306 1.3673855000000015 28.5364430587467339 O
atom 7.7351690533565485 4.1021579300000015 28.5364432920921232 O
atom 7.7351614130682833 1.3673853000000007 24.6688887476329768 O
atom 9.6689422508876710 1.3673857900000004 26.6026662514405317 O
atom 5.8013881024002956 4.1021576200000016 26.6026660145588565 O
atom 3.8676109751232932 10.9390852000000027 26.6026655955976850 Ce
atom 1.9338370068465098 8.2043142100000033 28.5364433645700544 Ce
atom 5.8013919826484326 8.2043137300000009 28.5364432125421601 Ce
atom 11.6027123389163052 10.9390852300000017 22.7351112703427276 Ce
atom 9.6689348085885030 6.8369296100000003 22.7351109150215827 O
atom 5.8013958982520712 9.5717004499999998 30.4702205731599776 O
atom 3.8676145230319214 9.5717002900000026 28.5364434653327734 O
atom 11.6027160636011200 6.8369293000000004 24.6688886380318166 O
atom 11.6027158443980269 9.5717002900000026 24.6688886451031060 O
atom 3.8676142967572340 6.8369291399999996 28.5364429562161135 O
atom 5.8013957709732127 6.8369292700000006 30.4702209267135018 O
atom 9.6689349995074245 9.5717000000000017 22.7351110069452673 O
atom 3.8676109044121523 5.4695439300000022 26.6026651430494283 Ce
atom 1.9338367735012278 2.7347708800000015 28.5364433150728161 Ce
atom 5.8013920462882709 2.7347708499999999 28.5364434317451909 Ce
atom 3.8676178729501713 5.4695446900000011 30.4702208542354427 Ce
atom 9.6689348863706606 1.3673857300000005 22.7351113180723701 O
atom 5.8013956012672745 4.1021581900000008 30.4702206155866904 O
atom 3.8676143603971962 4.1021578300000003 28.5364433026983804 O
atom 11.6027161555245950 1.3673861000000014 24.6688882349808551 O
atom 11.6027160918850338 4.1021581500000011 24.6688882844783954 O
atom 3.8676143533262786 1.3673852400000008 28.5364434511907987 O
atom 13.5364899187410206 1.3673855200000007 22.7351110670494663 O
atom 1.9338406608208529 4.1021577000000011 30.4702209302491056 O
atom 11.6027197246459615 10.9390861800000021 26.6026656450965149 Ce
atom 9.6689462372018866 8.2043144900000016 28.5364434989212086 Ce
atom 13.5365016019127822 8.2043144699999999 28.5364435943802732 Ce
atom 11.6027280013310445 10.9390850300000029 30.4702208825196550 Ce
atom 9.6689506548513098 6.8369296000000004 30.4702208383253108 O
atom 5.8013798610707346 9.5717003100000007 22.7351109539123684 O
atom 11.6027240433005190 9.5717004200000009 28.5364430552114001 O
atom 3.8676063736260966 6.8369295600000006 24.6688882561937639 O
atom 3.8676064796921481 9.5717002800000035 24.6688882915489920 O
atom 11.6027240362296293 6.8369297000000016 28.5364432319880947 O
atom 5.8013800166341509 6.8369294700000012 22.7351108832015321 O
atom 9.6689505629273818 9.5717003900000002 30.4702207888279233 O
atom 11.6027200923420377 5.4695438900000006 26.6026661824972877 Ce
atom 9.6689460887101308 2.7347711900000000 28.5364441565306564 Ce
atom 13.5365015877710224 2.7347707600000004 28.5364439620758148 Ce
atom 11.6027281003258480 5.4695448400000011 30.4702207410981956 Ce
atom 1.9338251186139843 1.3673854800000009 22.7351110423004137 O
atom 5.8013797974311920 4.1021580000000020 22.7351110175520432 O
atom 11.6027240857275711 4.1021576000000017 28.5364436916074666 O
atom 3.8676065504027668 1.3673853700000005 24.6688882349803826 O
atom 3.8676066776815987 4.1021578900000017 24.6688878531425893 O
atom 11.6027238877375769 1.3673855800000005 28.5364435926127200 O
atom 5.8013798893552506 1.3673851400000014 22.7351111943286455 O
atom 1.9338250691164207 4.1021581200000012 22.7351109503765869 O
atom 7.7351735629293774 10.9390859000000020 30.4702201435924636 Ce
atom 13.5364931908770778 8.2043145300000013 24.6688880246170790 Ce
atom 1.9338291261410772 8.2043145800000001 24.6688879715830112 Ce
atom 0.0000548891640049 10.9390851700000020 26.6026660233983634 Ce
atom 13.5364975731716353 6.8369295700000015 26.6026658236406348 O
atom 1.9338328932527882 9.5717004100000000 26.6026658201046686 O
atom 0.0000511432653009 9.5717004200000009 24.6688879839578519 O
atom 0.0000591653922113 6.8369295800000023 28.5364434900818367 O
atom 0.0000592785293660 9.5717001500000016 28.5364435607923994 O
atom 0.0000511715497339 6.8369297200000005 24.6688881395213215 O
atom 1.9338330983135685 6.8369293600000010 26.6026656433277608 O
atom 13.5364972974000199 9.5717004200000009 26.6026658448541227 O
atom 7.7351735275743838 5.4695442800000009 30.4702204900748157 Ce
atom 13.5364936363545141 2.7347719800000023 24.6688881872511878 Ce
atom 1.9338294796945346 2.7347713600000012 24.6688880422933252 Ce
atom 0.0000551295801358 5.4695446100000007 26.6026658536924856 Ce
atom 13.5364977711614536 1.3673858000000012 26.6026657387876213 O
atom 1.9338328013289359 4.1021579300000015 26.6026658554600957 O
atom 0.0000515675296724 4.1021579600000013 24.6688882809422658 O
atom 0.0000591653923899 1.3673852800000006 28.5364436597874658 O
atom 0.0000591158946271 4.1021577500000008 28.5364433840158682 O
atom 0.0000512846870054 1.3673857600000019 24.6688883233689609 O
atom 1.9338328791104582 1.3673852400000008 26.6026656362569156 O
atom 13.5364978984412527 4.1021577800000006 26.6026663044729190 O
atom 0.0000632436309466 10.9390849900000013 30.4702213810295817 Ce
atom 0.0000632294884725 5.4695443400000006 30.4702210416183377 Ce
atom 3.8676180355852265 10.9390852300000017 30.4702213421389558 Ce
atom 1.9338405052574232 6.8369296100000003 30.4702209868178144 O
atom 1.9338406961763410 9.5717000000000017 30.4702210787414955 O
atom 1.9338405830395711 1.3673857300000005 30.4702213898685983 O
atom 5.8013956154099402 1.3673855200000007 30.4702211388456945 O
atom 13.5365057013642573 9.5717003100000007 30.4702210257085895 O
atom 13.5365058569276719 6.8369294700000012 30.4702209549977638 O
atom 9.6689509589075122 1.3673854800000009 30.4702211140966384 O
atom 13.5365056377247139 4.1021580000000020 30.4702210893482643 O
atom 13.5365057296487787 1.3673851400000014 30.4702212661248737 O
atom 9.6689509094099417 4.1021581200000012 30.4702210221728151 O
