#===============================================================================
# Created using the Atomic Simulation Environment (ASE)

# Mon Mar 23 14:00:23 2026

#=======================================================
lattice_vector 15.4702201294824828 0.0000000000000000 0.0000000000000000 
lattice_vector 7.7350942821178856 13.3975945384849062 0.0000000000000000 
lattice_vector 0.0000000000000000 0.0000000000000000 34.7367675960410622 
atom 5.8013519444952584 5.5823157266382610 15.7894617971694551 Ce
atom 7.7351330810674028 2.2329175125123704 15.7894622330693792 Ce
atom 9.6689063333997662 5.5823153877913025 15.7894628306268103 Ce
atom 5.8013564487646656 5.5823137568440391 18.1578443596599755 O
atom 9.6689110851562852 3.3493824863815953 16.5789228611035071 O
atom 7.7351295738176979 4.4658504302533917 15.0000008631390287 O
atom 9.6689108588821071 5.5823136425337374 18.1578452141388418 O
atom 5.8013563426987931 3.3493830620120382 16.5789224800523556 O
atom 7.7351380873828735 2.2329151630475255 18.1578448128798122 O
atom 7.7351294253255034 6.6987809617857685 16.5789230776099394 O
atom 3.8675796396859043 2.2329176227409619 15.7894609513505060 Ce
atom 5.8013612641612404 3.3493813167545148 18.9473052619357460 Ce
atom 9.6689032857685966 7.8152486198841764 15.0000006350853425 O
atom 3.8675832035041808 2.2329155917084536 18.1578445357517602 O
atom 11.6026844294112905 6.6987811250853451 16.5789225002597682 O
atom 13.5364586292652387 7.8152493873914377 15.0000000173206658 O
atom 11.6026847263960171 4.4658509977186531 15.0000007188016404 O
atom 7.7351252180406442 8.9317133038961583 15.7894619674875258 Ce
atom 5.8013566326124435 1.1164521467264255 15.0000001154700762 O
atom 7.7351297718076584 8.9317118362471213 18.1578450322729772 O
atom 15.4702321573685815 13.3975790679377447 16.5789226561441794 O
atom 9.6689109083793472 1.1164521997979164 15.0000008198380641 O
atom 15.4702322210083061 11.1646476954139260 15.0000002626943569 O
atom 3.8675791800666266 6.6987785674138527 18.9473048722241657 Ce
atom 9.6688989158487750 12.2811127346016775 15.7894618549044949 Ce
atom 11.6026805332536185 8.9317139162687624 15.7894619674875756 Ce
atom 13.5364553412179855 12.2811139552654893 15.7894605962803354 Ce
atom 9.6689035332558078 12.2811110015911424 18.1578452256854206 O
atom 13.5364587777574332 10.0481802373578120 16.5789219027018255 O
atom 11.6026772734903467 11.1646476872490990 15.0000000837156975 O
atom 13.5364587424021163 12.2811113975925341 18.1578443019250209 O
atom 9.6689030736366366 10.0481796045720522 16.5789229708000825 O
atom 11.6026847193253317 8.9317122118354479 18.1578451419697764 O
atom 11.6026771744954971 13.3975786801019989 16.5789224425243518 O
atom 11.6026881982901262 2.2329175941624637 15.7894614420994799 Ce
atom 17.4040137959861809 7.8152493016593825 15.0000000000000000 O
atom 11.6026923065806358 2.2329149793354093 18.1578446223548085 O
atom 3.8675751354159806 6.6987814639320229 16.5789221942636544 O
atom 5.8013481544028709 7.8152487505236152 15.0000005369359428 O
atom 3.8675751778425558 4.4658505037387899 15.0000001703182129 O
atom 15.4702364353643897 13.3975768858540292 18.9473057440235344 Ce
atom 13.5364621011603976 5.5823164900623485 15.7894623629730049 Ce
atom 15.4702433932963697 2.2329172226561247 15.7894624524621321 Ce
atom 17.4040183921794238 5.5823165798786434 15.7894604173015942 Ce
atom 13.5364662943037324 5.5823132873579988 18.1578451448562994 O
atom 1.9338016568104253 3.3493830579297952 16.5789223992230283 O
atom 15.4702400557514839 4.4658507364400100 15.0000005340491818 O
atom 17.4040215953740436 5.5823133281834840 18.1578440998521131 O
atom 13.5364660397448855 3.3493829803619675 16.5789228899713166 O
atom 15.4702474591602339 2.2329147874583843 18.1578454652860088 O
atom 15.4702405295127612 6.6987814557671914 16.5789222750924381 O
atom 11.6026882265748288 6.6987782816391270 18.9473055534981931 Ce
atom 17.4040087684571176 12.2811135429333937 15.7894613872513396 Ce
atom 19.3377907606288204 8.9317140101662744 15.7894613150816880 Ce
atom 21.2715635533415011 12.2811129591377366 15.7894623341057070 Ce
atom 17.4040136687068738 12.2811113118602719 18.1578444231686333 O
atom 5.8013482463266550 10.0481797229643259 16.5789226648043204 O
atom 19.3377866169828252 11.1646476137639219 15.0000002049598180 O
atom 21.2715682838855358 12.2811106219200461 18.1578451910445082 O
atom 17.4040137747727783 10.0481802741000905 16.5789220066249214 O
atom 19.3377952083301459 8.9317119913819756 18.1578443971874748 O
atom 19.3377865816274479 13.3975789781227501 16.5789226792386586 O
atom 15.4702366404250000 8.9317145123125830 15.7894605356583035 Ce
atom 13.5364623910733410 10.0481780144486130 18.9473055332909688 Ce
atom 15.4702438175600037 6.6987782612269395 18.9473057728908252 Ce
atom 17.4040183143979306 10.0481783247180676 18.9473050598631545 Ce
atom 13.5364661811660802 1.1164517997149859 15.0000002944489204 O
atom 15.4702403598071960 8.9317121791762943 18.1578444087344160 O
atom 7.7351216683640232 13.3975784473998711 16.5789231180244521 O
atom 1.9338014093231615 1.1164519548495730 15.0000001962991831 O
atom 7.7351214562318411 11.1646472585877117 15.0000005340493558 O
atom 7.7351251544012696 13.3975757509224174 18.9473070892501347 Ce
atom 7.7351380520274216 4.4658459640239485 19.7367668021841496 O
atom 1.9338049377868110 3.3493801450806391 18.9473063473547647 Ce
atom 11.6026811908621870 13.3975770491529076 18.9473063964295925 Ce
atom 5.8013646936299548 1.1164479703524632 19.7367672207632197 O
atom 1.9338089541533809 1.1164470803705950 19.7367675960410622 O
atom 3.8675830408703029 4.4658457068274524 19.7367669753890880 O
atom 5.8013520081351206 10.0481771448792472 18.9473062087906321 Ce
atom 7.7351330244992402 6.6987783224634674 18.9473063617887263 Ce
atom 9.6689066445263787 10.0481774143225397 18.9473069189319183 Ce
atom 9.6689110992981480 7.8152441291593346 19.7367667992976052 O
atom 5.8013561517800083 7.8152443414486141 19.7367665510370216 O
atom 7.7351294889650708 11.1646428699247071 19.7367674719108415 O
atom 11.6026848607460025 11.1646434169779774 19.7367667155819753 O
atom 9.6689147762533612 3.3493807574530301 18.9473061568296650 Ce
atom 19.3377907182025339 13.3975763959553991 18.9473062463186608 Ce
atom 13.5364691439444638 3.3493800226054753 18.9473066591245995 Ce
atom 13.5364740159095724 1.1164471661028792 19.7367672496309723 O
atom 9.6689194431573942 1.1164476682489288 19.7367664528874585 O
atom 11.6026924409311079 4.4658458537964307 19.7367670100307286 O
atom 15.4702475015863481 4.4658454455480960 19.7367671370475755 O
atom 19.3377953497513317 11.1646433924833257 19.7367667329021081 O
atom 17.4040217155822567 7.8152446517175358 19.7367666665068384 O
atom 13.5364662448058120 7.8152444639229133 19.7367669840497584 O
atom 15.4702403668785351 11.1646433639057854 19.7367671197267391 O
