#===============================================================================
# Created using the Atomic Simulation Environment (ASE)

# Mon Mar 23 14:00:23 2026

#=======================================================
lattice_vector 15.4702201294824828 0.0000000000000000 0.0000000000000000 
lattice_vector 7.7350942821178856 13.3975945384849062 0.0000000000000000 
lattice_vector 0.0000000000000000 0.0000000000000000 41.0524563730958789 
atom 13.5364462266131476 10.0481866366395671 15.7894617971694480 Ce
atom 15.4702273631852911 6.6987884225136813 15.7894622330693757 Ce
atom 17.4040006155176528 10.0481862977926113 15.7894628306268032 Ce
atom 13.5364507308825530 10.0481846668453443 18.1578443596599719 O
atom 17.4040053672741735 7.8152533963829018 16.5789228611035000 O
atom 15.4702238559355862 8.9317213402546987 15.0000008631390322 O
atom 17.4040051409999847 10.0481845525350462 18.1578452141388347 O
atom 13.5364506248166769 7.8152539720133447 16.5789224800523556 O
atom 15.4702323695007511 6.6987860730488347 18.1578448128798051 O
atom 15.4702237074433988 11.1646518717870720 16.5789230776099359 O
atom 11.6026739218037989 6.6987885327422685 15.7894609513505060 Ce
atom 13.5364555462791341 7.8152522267558213 18.9473052619357425 Ce
atom 17.4039975678864884 12.2811195298854816 15.0000006350853390 O
atom 11.6026774856220740 6.6987865017097592 18.1578445357517602 O
atom 19.3377787115291717 11.1646520350866503 16.5789225002597682 O
atom 21.2715529113831288 12.2811202973927447 15.0000000173206622 O
atom 19.3377790085139054 8.9317219077199628 15.0000007188016369 O
atom 15.4702195001585316 13.3975842138974635 15.7894619674875187 Ce
atom 13.5364509147303238 5.5823230567277324 15.0000001154700762 O
atom 15.4702240539255413 13.3975827462484265 18.1578450322729772 O
atom 15.4702321573685868 4.4658554394541454 16.5789226561441758 O
atom 17.4040051904972408 5.5823231097992236 15.0000008198380606 O
atom 15.4702322210083114 2.2329240669303263 15.0000002626943534 O
atom 11.6026734621845122 11.1646494774151606 18.9473048722241657 Ce
atom 9.6688989158487804 3.3493891061180783 15.7894618549044914 Ce
atom 19.3377748153715068 13.3975848262700659 15.7894619674875791 Ce
atom 13.5364553412179927 3.3493903267818919 15.7894605962803318 Ce
atom 9.6689035332558060 3.3493873731075441 18.1578452256854099 O
atom 13.5364587777574350 1.1164566088742143 16.5789219027018220 O
atom 11.6026772734903574 2.2329240587654975 15.0000000837156939 O
atom 13.5364587424021163 3.3493877691089349 18.1578443019250209 O
atom 9.6689030736366401 1.1164559760884543 16.5789229708000789 O
atom 19.3377790014432236 13.3975831218367549 18.1578451419697799 O
atom 11.6026771744954935 4.4658550516183997 16.5789224425243482 O
atom 3.8675623509255366 6.6987885041637680 15.7894614420994763 Ce
atom 9.6688879486215846 12.2811202116606921 15.0000000000000000 O
atom 3.8675664592160413 6.6987858893367189 18.1578446223548085 O
atom 11.6026694175338640 11.1646523739333308 16.5789221942636473 O
atom 13.5364424365207583 12.2811196605249222 15.0000005369359393 O
atom 11.6026694599604472 8.9317214137400978 15.0000001703182129 O
atom 15.4702364353643933 4.4658532573704299 18.9473057440235344 Ce
atom 5.8013362537958075 10.0481874000636537 15.7894623629730013 Ce
atom 7.7351175459317778 6.6987881326574321 15.7894624524621321 Ce
atom 9.6688925448148257 10.0481874898799504 15.7894604173015942 Ce
atom 5.8013404469391361 10.0481841973593067 18.1578451448562923 O
atom 9.6688959389283156 7.8152539679311026 16.5789223992230283 O
atom 7.7351142083868885 8.9317216464413178 15.0000005340491782 O
atom 9.6688957480094473 10.0481842381847919 18.1578440998521060 O
atom 5.8013401923803043 7.8152538903632749 16.5789228899713130 O
atom 7.7351216117956358 6.6987856974596873 18.1578454652860088 O
atom 7.7351146821481658 11.1646523657685002 16.5789222750924310 O
atom 19.3377825086927189 11.1646491916404340 18.9473055534981931 Ce
atom 1.9337886389746364 3.3493899144497949 15.7894613872513396 Ce
atom 11.6026649132642294 13.3975849201675796 15.7894613150816845 Ce
atom 5.8013434238590218 3.3493893306541374 15.7894623341057034 Ce
atom 1.9337935392243941 3.3493876833766740 18.1578444231686298 O
atom 5.8013482463266595 1.1164560944807254 16.5789226648043204 O
atom 3.8675664875003455 2.2329239852803213 15.0000002049598145 O
atom 5.8013481544030636 3.3493869934364504 18.1578451910445047 O
atom 1.9337936452903000 1.1164566456164886 16.5789220066249179 O
atom 11.6026693609655585 13.3975829013832826 18.1578443971874712 O
atom 3.8675664521449611 4.4658553496391526 16.5789226792386550 O
atom 7.7351107930604082 13.3975854223138899 15.7894605356583035 Ce
atom 13.5364623910733464 1.1164543859650145 18.9473055332909688 Ce
atom 7.7351179701954065 11.1646491712282447 18.9473057728908181 Ce
atom 1.9337981849154515 1.1164546962344688 18.9473050598631580 Ce
atom 5.8013403338014848 5.5823227097162915 15.0000002944489204 O
atom 7.7351145124426006 13.3975830891775995 18.1578444087344124 O
atom 7.7351216683640285 4.4658548189162719 16.5789231180244450 O
atom 9.6688956914410493 5.5823228648508803 15.0000001962991796 O
atom 7.7351214562318429 2.2329236301041129 15.0000005340493523 O
atom 7.7351251544012722 4.4658521224388217 18.9473070892501276 Ce
atom 5.8013519444952584 5.5823157266382610 22.1051505742242753 Ce
atom 7.7351330810674028 2.2329175125123704 22.1051510101241995 Ce
atom 9.6689063333997662 5.5823153877913025 22.1051516076816306 Ce
atom 5.8013564487646656 5.5823137568440391 24.4735331367147957 O
atom 9.6689110851562852 3.3493824863815953 22.8946116381583273 O
atom 7.7351295738176979 4.4658504302533917 21.3156896401938489 O
atom 15.4702323341453134 8.9317168740252555 19.7367668021841460 O
atom 9.6689108588821071 5.5823136425337374 24.4735339911936620 O
atom 5.8013563426987931 3.3493830620120382 22.8946112571071758 O
atom 7.7351380873828735 2.2329151630475255 24.4735335899346325 O
atom 7.7351294253255034 6.6987809617857685 22.8946118546647597 O
atom 3.8675796396859043 2.2329176227409619 22.1051497284053262 Ce
atom 9.6688992199046986 7.8152510550819478 18.9473063473547612 Ce
atom 11.6026811908621870 4.4658534206693092 18.9473063964295925 Ce
atom 5.8013612641612404 3.3493813167545148 25.2629940389905663 Ce
atom 9.6689032857685966 7.8152486198841764 21.3156894121401628 O
atom 13.5364589757478448 5.5823188803537693 19.7367672207632232 O
atom 3.8675832035041808 2.2329155917084536 24.4735333128065804 O
atom 11.6026844294112905 6.6987811250853451 22.8946112773145884 O
atom 13.5364586292652387 7.8152493873914377 21.3156887943754860 O
atom 9.6689032362712748 5.5823179903719025 19.7367675960410587 O
atom 11.6026847263960171 4.4658509977186531 21.3156894958564607 O
atom 11.6026773229881872 8.9317166168287603 19.7367669753890844 O
atom 7.7351252180406442 8.9317133038961583 22.1051507445423461 Ce
atom 5.8013520081351349 1.1164535163956446 18.9473062087906250 Ce
atom 15.4702273066171259 11.1646492324647753 18.9473063617887298 Ce
atom 9.6689066445263840 1.1164537858389398 18.9473069189319183 Ce
atom 5.8013566326124435 1.1164521467264255 21.3156888925248964 O
atom 17.4040053814160345 12.2811150391606390 19.7367667992976052 O
atom 7.7351297718076584 8.9317118362471213 24.4735338093277974 O
atom 15.4702321573685815 13.3975790679377447 22.8946114331989996 O
atom 9.6689109083793472 1.1164521997979164 21.3156895968928843 O
atom 13.5364504338978957 12.2811152514499220 19.7367665510370180 O
atom 15.4702322210083061 11.1646476954139260 21.3156890397491772 O
atom 7.7351294889650770 2.2329192414411052 19.7367674719108486 O
atom 3.8675791800666266 6.6987785674138527 25.2629936492789859 Ce
atom 9.6688989158487750 12.2811127346016775 22.1051506319593152 Ce
atom 11.6026805332536185 8.9317139162687624 22.1051507445423958 Ce
atom 13.5364553412179855 12.2811139552654893 22.1051493733351556 Ce
atom 9.6689035332558078 12.2811110015911424 24.4735340027402408 O
atom 13.5364587777574332 10.0481802373578120 22.8946106797566458 O
atom 11.6026772734903467 11.1646476872490990 21.3156888607705177 O
atom 11.6026848607459971 2.2329197884943777 19.7367667155819682 O
atom 13.5364587424021163 12.2811113975925341 24.4735330789798411 O
atom 9.6689030736366366 10.0481796045720522 22.8946117478549027 O
atom 11.6026847193253317 8.9317122118354479 24.4735339190245966 O
atom 11.6026771744954971 13.3975786801019989 22.8946112195791720 O
atom 11.6026881982901262 2.2329175941624637 22.1051502191543001 Ce
atom 17.4040090583712512 7.8152516674543362 18.9473061568296579 Ce
atom 3.8675705887200471 4.4658527674717998 18.9473062463186572 Ce
atom 5.8013432965798621 7.8152509326067845 18.9473066591245924 Ce
atom 17.4040137959861809 7.8152493016593825 21.3156887770548202 O
atom 5.8013481685449761 5.5823180761041868 19.7367672496309723 O
atom 11.6026923065806358 2.2329149793354093 24.4735333994096287 O
atom 3.8675751354159806 6.6987814639320229 22.8946109713184747 O
atom 5.8013481544028709 7.8152487505236152 21.3156893139907631 O
atom 17.4040137252752878 5.5823185782502378 19.7367664528874549 O
atom 3.8675751778425558 4.4658505037387899 21.3156889473730331 O
atom 19.3377867230489926 8.9317167637977395 19.7367670100307215 O
atom 15.4702364353643897 13.3975768858540292 25.2629945210783546 Ce
atom 13.5364621011603976 5.5823164900623485 22.1051511400278251 Ce
atom 15.4702433932963697 2.2329172226561247 22.1051512295169523 Ce
atom 17.4040183921794238 5.5823165798786434 22.1051491943564145 Ce
atom 13.5364662943037324 5.5823132873579988 24.4735339219111196 O
atom 1.9338016568104253 3.3493830579297952 22.8946111762778486 O
atom 15.4702400557514839 4.4658507364400100 21.3156893111040020 O
atom 7.7351216542217500 8.9317163555494012 19.7367671370475755 O
atom 17.4040215953740436 5.5823133281834840 24.4735328769069334 O
atom 13.5364660397448855 3.3493829803619675 22.8946116670261368 O
atom 15.4702474591602339 2.2329147874583843 24.4735342423408291 O
atom 15.4702405295127612 6.6987814557671914 22.8946110521472583 O
atom 11.6026882265748288 6.6987782816391270 25.2629943305530134 Ce
atom 17.4040087684571176 12.2811135429333937 22.1051501643061599 Ce
atom 19.3377907606288204 8.9317140101662744 22.1051500921365083 Ce
atom 21.2715635533415011 12.2811129591377366 22.1051511111605272 Ce
atom 17.4040136687068738 12.2811113118602719 24.4735332002234536 O
atom 5.8013482463266550 10.0481797229643259 22.8946114418591407 O
atom 19.3377866169828252 11.1646476137639219 21.3156889820146382 O
atom 3.8675752202688485 2.2329197639997234 19.7367667329021117 O
atom 21.2715682838855358 12.2811106219200461 24.4735339680993285 O
atom 17.4040137747727783 10.0481802741000905 22.8946107836797417 O
atom 19.3377952083301459 8.9317119913819756 24.4735331742422950 O
atom 19.3377865816274479 13.3975789781227501 22.8946114562934788 O
atom 15.4702366404250000 8.9317145123125830 22.1051493127131238 Ce
atom 13.5364623910733410 10.0481780144486130 25.2629943103457890 Ce
atom 15.4702438175600037 6.6987782612269395 25.2629945499456454 Ce
atom 17.4040183143979306 10.0481783247180676 25.2629938369179747 Ce
atom 13.5364661811660802 1.1164517997149859 21.3156890715037406 O
atom 9.6688958682176587 12.2811155617188419 19.7367666665068349 O
atom 15.4702403598071960 8.9317121791762943 24.4735331857892362 O
atom 7.7351216683640232 13.3975784473998711 22.8946118950792723 O
atom 1.9338014093231615 1.1164519548495730 21.3156889733540034 O
atom 21.2715605269236967 12.2811153739242194 19.7367669840497584 O
atom 7.7351214562318411 11.1646472585877117 21.3156893111041761 O
atom 15.4702403668785280 2.2329197354221861 19.7367671197267320 O
atom 7.7351251544012696 13.3975757509224174 25.2629958663049550 Ce
atom 7.7351380520274216 4.4658459640239485 26.0524555792389698 O
atom 1.9338049377868110 3.3493801450806391 25.2629951244095849 Ce
atom 11.6026811908621870 13.3975770491529076 25.2629951734844127 Ce
atom 5.8013646936299548 1.1164479703524632 26.0524559978180399 O
atom 1.9338089541533809 1.1164470803705950 26.0524563730958825 O
atom 3.8675830408703029 4.4658457068274524 26.0524557524439082 O
atom 5.8013520081351206 10.0481771448792472 25.2629949858454523 Ce
atom 7.7351330244992402 6.6987783224634674 25.2629951388435465 Ce
atom 9.6689066445263787 10.0481774143225397 25.2629956959867386 Ce
atom 9.6689110992981480 7.8152441291593346 26.0524555763524255 O
atom 5.8013561517800083 7.8152443414486141 26.0524553280918418 O
atom 7.7351294889650708 11.1646428699247071 26.0524562489656617 O
atom 11.6026848607460025 11.1646434169779774 26.0524554926367955 O
atom 9.6689147762533612 3.3493807574530301 25.2629949338844852 Ce
atom 19.3377907182025339 13.3975763959553991 25.2629950233734810 Ce
atom 13.5364691439444638 3.3493800226054753 25.2629954361794198 Ce
atom 13.5364740159095724 1.1164471661028792 26.0524560266857925 O
atom 9.6689194431573942 1.1164476682489288 26.0524552299422787 O
atom 11.6026924409311079 4.4658458537964307 26.0524557870855489 O
atom 15.4702475015863481 4.4658454455480960 26.0524559141023957 O
atom 19.3377953497513317 11.1646433924833257 26.0524555099569284 O
atom 17.4040217155822567 7.8152446517175358 26.0524554435616587 O
atom 13.5364662448058120 7.8152444639229133 26.0524557611045786 O
atom 15.4702403668785351 11.1646433639057854 26.0524558967815594 O
