#===============================================================================
# Created using the Atomic Simulation Environment (ASE)

# Mon Mar 23 14:00:24 2026

#=======================================================
lattice_vector 15.4702201436246050 0.0000000000000000 0.0000000000000000 
lattice_vector 0.0000000000000000 10.9390864000000008 0.0000000000000000 
lattice_vector 0.0000000000000000 0.0000000000000000 49.3377763904116335 
atom 7.7351336785726277 10.9390847500000010 15.0000011914756612 Ce
atom 5.8013562048130591 6.8369294800000002 15.0000005391696121 O
atom 9.6689113573921048 9.5717002500000028 15.0000008043345332 O
atom 7.7351377921659239 6.8369294100000007 16.9337783116769813 O
atom 7.7351374527547652 9.5717001000000028 16.9337784106722751 O
atom 9.6689112937527000 6.8369293600000010 15.0000010093955645 O
atom 5.8013563603768556 9.5716999200000021 15.0000008361542996 O
atom 7.7351335159379024 5.4695447100000019 15.0000010288412682 Ce
atom 5.8013565654377395 1.3673854400000012 15.0000007583723445 O
atom 9.6689109189865263 4.1021579800000012 15.0000014265889483 O
atom 7.7351376648862953 1.3673855000000015 16.9337779156973127 O
atom 7.7351375163941123 4.1021579300000015 16.9337781490427020 O
atom 9.6689107139252393 1.3673857900000004 15.0000011083911104 O
atom 5.8013565654378558 4.1021576200000016 15.0000008715094317 O
atom 3.8675794381608473 10.9390852000000027 15.0000004525482638 Ce
atom 1.9338054698840743 8.2043142100000033 16.9337782215206296 Ce
atom 5.8013604456859902 8.2043137300000009 16.9337780694927318 Ce
atom 5.8013643612896360 9.5717004499999998 18.8675554301105564 O
atom 3.8675829860694857 9.5717002900000026 16.9337783222833451 O
atom 3.8675827597947916 6.8369291399999996 16.9337778131666923 O
atom 5.8013642340107729 6.8369292700000006 18.8675557836640806 O
atom 3.8675793674497134 5.4695439300000022 15.0000000000000000 Ce
atom 1.9338052365387854 2.7347708800000015 16.9337781720233949 Ce
atom 5.8013605093258285 2.7347708499999999 16.9337782886957697 Ce
atom 3.8675863359877258 5.4695446900000011 18.8675557111860215 Ce
atom 5.8013640643048321 4.1021581900000008 18.8675554725372692 O
atom 3.8675828234347573 4.1021578300000003 16.9337781596489556 O
atom 3.8675828163638433 1.3673852400000008 16.9337783081413846 O
atom 1.9338091238584176 4.1021577000000011 18.8675557871996915 O
atom 11.6026881876835262 10.9390861800000021 15.0000005020470866 Ce
atom 9.6689147002394407 8.2043144900000016 16.9337783558717732 Ce
atom 13.5364700649503433 8.2043144699999999 16.9337784513308556 Ce
atom 11.6026964643686021 10.9390850300000029 18.8675557394702338 Ce
atom 9.6689191178888709 6.8369296000000004 18.8675556952758825 O
atom 11.6026925063380801 9.5717004200000009 16.9337779121619789 O
atom 11.6026924992671905 6.8369297000000016 16.9337780889386771 O
atom 9.6689190259649465 9.5717003900000002 18.8675556457785021 O
atom 11.6026885553795918 5.4695438900000006 15.0000010394478629 Ce
atom 9.6689145517476884 2.7347711900000000 16.9337790134812316 Ce
atom 13.5364700508085800 2.7347707600000004 16.9337788190263971 Ce
atom 11.6026965633634056 5.4695448400000011 18.8675555980487744 Ce
atom 11.6026925487651340 4.1021576000000017 16.9337785485580348 O
atom 11.6026923507751345 1.3673855800000005 16.9337784495632881 O
atom 7.7351420259669279 10.9390859000000020 18.8675550005430352 Ce
atom 0.0000233522015659 10.9390851700000020 15.0000008803489351 Ce
atom 13.5364660362092017 6.8369295700000015 15.0000006805912136 O
atom 1.9338013562903491 9.5717004100000000 15.0000006770552403 O
atom 0.0000276284297758 6.8369295800000023 16.9337783470324084 O
atom 0.0000277415669306 9.5717001500000016 16.9337784177429711 O
atom 1.9338015613511295 6.8369293600000010 15.0000005002783361 O
atom 13.5364657604375775 9.5717004200000009 15.0000007018046944 O
atom 7.7351419906119414 5.4695442800000009 18.8675553470253980 Ce
atom 0.0000235926176969 5.4695446100000007 15.0000007106430644 Ce
atom 13.5364662341990147 1.3673858000000012 15.0000005957381930 O
atom 1.9338012643665003 4.1021579300000015 15.0000007124106745 O
atom 0.0000276284299441 1.3673852800000006 16.9337785167380446 O
atom 0.0000275789321882 4.1021577500000008 16.9337782409664470 O
atom 1.9338013421480262 1.3673852400000008 15.0000004932074944 O
atom 13.5364663614788103 4.1021577800000006 15.0000011614234907 O
atom 0.0000317066685145 10.9390849900000013 18.8675562379801605 Ce
atom 13.5364780870766044 8.2043143399999998 20.8013333210587348 Ce
atom 1.9338124525639253 8.2043140300000026 20.8013336357217931 Ce
atom 0.0000393752415484 10.9390847500000010 22.7351112632718930 Ce
atom 13.5364820451065810 6.8369294800000002 22.7351106109658367 O
atom 1.9338170540610118 9.5717002500000028 22.7351108761307685 O
atom 0.0000353818558029 9.5717001900000032 20.8013335561718193 O
atom 0.0000434888348373 6.8369294100000007 24.6688883834732096 O
atom 0.0000431494236823 9.5717001000000028 24.6688884824685033 O
atom 0.0000352404342427 6.8369293100000004 20.8013333581820667 O
atom 1.9338169904216200 6.8369293600000010 22.7351110811917962 O
atom 13.5364822006703740 9.5716999200000021 22.7351109079505314 O
atom 0.0000316925260336 5.4695443400000006 18.8675558985689165 Ce
atom 13.5364782638534678 2.7347710900000002 20.8013334836931136 Ce
atom 1.9338125444882379 2.7347718300000019 20.8013340670568354 Ce
atom 0.0000392126068164 5.4695447100000019 22.7351111006374964 Ce
atom 13.5364824057312614 1.3673854400000012 22.7351108301685727 O
atom 1.9338166156554442 4.1021579800000012 22.7351114983851765 O
atom 0.0000352333633526 4.1021582000000008 20.8013335349587649 O
atom 0.0000433615552154 1.3673855000000015 24.6688879874935409 O
atom 0.0000432130630330 4.1021579300000015 24.6688882208389337 O
atom 0.0000355727747549 1.3673853000000007 20.8013336763797767 O
atom 1.9338164105941622 1.3673857900000004 22.7351111801873387 O
atom 13.5364824057313786 4.1021576200000016 22.7351109433056635 O
atom 11.6027052784543692 10.9390852000000027 22.7351105243444920 Ce
atom 9.6689313101775962 8.2043142100000033 24.6688882933168614 Ce
atom 13.5364862859795121 8.2043137300000009 24.6688881412889636 Ce
atom 3.8675864986227877 10.9390852300000017 18.8675561990895346 Ce
atom 1.9338089682949742 6.8369296100000003 18.8675558437683861 O
atom 13.5364902015831579 9.5717004499999998 26.6026655019067846 O
atom 11.6027088263630045 9.5717002900000026 24.6688883940795769 O
atom 3.8675902233076016 6.8369293000000004 20.8013335667786201 O
atom 3.8675900041045019 9.5717002900000026 20.8013335738499130 O
atom 11.6027086000883166 6.8369291399999996 24.6688878849629205 O
atom 13.5364900743042949 6.8369292700000006 26.6026658554603053 O
atom 1.9338091592139022 9.5717000000000017 18.8675559356920779 O
atom 11.6027052077432327 5.4695439300000022 22.7351100717962282 Ce
atom 9.6689310768323082 2.7347708800000015 24.6688882438196231 Ce
atom 13.5364863496193504 2.7347708499999999 24.6688883604920015 Ce
atom 11.6027121762812513 5.4695446900000011 26.6026657829822462 Ce
atom 1.9338090460771320 1.3673857300000005 18.8675562468191735 O
atom 13.5364899045983531 4.1021581900000008 26.6026655443334938 O
atom 11.6027086637282828 4.1021578300000003 24.6688882314451874 O
atom 3.8675903152310727 1.3673861000000014 20.8013331637276622 O
atom 3.8675902515915124 4.1021581500000011 20.8013332132252025 O
atom 11.6027086566573647 1.3673852400000008 24.6688883799376164 O
atom 5.8013640784474978 1.3673855200000007 18.8675559957962697 O
atom 9.6689349641519353 4.1021577000000011 26.6026658589959162 O
atom 3.8675938843524329 10.9390861800000021 22.7351105738433148 Ce
atom 1.9338203969083514 8.2043144900000016 24.6688884276680014 Ce
atom 5.8013757616192603 8.2043144699999999 24.6688885231270838 Ce
atom 3.8676021610375226 10.9390850300000029 26.6026658112664585 Ce
atom 1.9338248145577881 6.8369296000000004 26.6026657670721107 O
atom 13.5364741644018185 9.5717003100000007 18.8675558826591718 O
atom 3.8675982030069971 9.5717004200000009 24.6688879839582000 O
atom 11.6027006769571770 6.8369295600000006 20.8013331849405709 O
atom 11.6027007830232343 9.5717002800000035 20.8013332202957990 O
atom 3.8675981959361070 6.8369297000000016 24.6688881607349053 O
atom 13.5364743199652366 6.8369294700000012 18.8675558119483355 O
atom 1.9338247226338603 9.5717003900000002 26.6026657175747374 O
atom 3.8675942520485087 5.4695438900000006 22.7351111112440911 Ce
atom 1.9338202484166018 2.7347711900000000 24.6688890852774598 Ce
atom 5.8013757474775005 2.7347707600000004 24.6688888908226254 Ce
atom 3.8676022600323270 5.4695448400000011 26.6026656698450061 Ce
atom 9.6689194219450680 1.3673854800000009 18.8675559710472243 O
atom 13.5364741007622715 4.1021580000000020 18.8675559462988467 O
atom 3.8675982454340483 4.1021576000000017 24.6688886203542665 O
atom 11.6027008537338538 1.3673853700000005 20.8013331637271897 O
atom 11.6027009810126849 4.1021578900000017 20.8013327818893963 O
atom 3.8675980474440483 1.3673855800000005 24.6688885213595164 O
atom 13.5364741926863399 1.3673851400000014 18.8675561230754454 O
atom 9.6689193724475029 4.1021581200000012 18.8675558791233868 O
atom 0.0000477226358413 10.9390859000000020 26.6026650723392670 Ce
atom 5.8013673505835524 8.2043145300000013 20.8013329533638860 Ce
atom 9.6689234294721533 8.2043145800000001 20.8013329003298182 Ce
atom 7.7351491924950881 10.9390851700000020 22.7351109521451704 Ce
atom 5.8013717328781196 6.8369295700000015 22.7351107523874418 O
atom 9.6689271965838675 9.5717004100000000 22.7351107488514721 O
atom 7.7351454465963876 9.5717004200000009 20.8013329127046553 O
atom 7.7351534687232943 6.8369295800000023 24.6688884188286437 O
atom 7.7351535818604491 9.5717001500000016 24.6688884895391993 O
atom 7.7351454748808166 6.8369297200000005 20.8013330682681215 O
atom 9.6689274016446554 6.8369293600000010 22.7351105720745643 O
atom 5.8013714571064945 9.5717004200000009 22.7351107736009261 O
atom 0.0000476872808617 5.4695442800000009 26.6026654188216298 Ce
atom 5.8013677960609931 2.7347719800000023 20.8013331159979913 Ce
atom 9.6689237830256136 2.7347713600000012 20.8013329710401322 Ce
atom 7.7351494329112187 5.4695446100000007 22.7351107824392926 Ce
atom 5.8013719308679308 1.3673858000000012 22.7351106675344248 O
atom 9.6689271046600229 4.1021579300000015 22.7351107842069027 O
atom 7.7351458708607552 4.1021579600000013 20.8013332096890693 O
atom 7.7351534687234658 1.3673852800000006 24.6688885885342692 O
atom 7.7351534192257105 4.1021577500000008 24.6688883127626752 O
atom 7.7351455880180886 1.3673857600000019 20.8013332521157679 O
atom 9.6689271824415481 1.3673852400000008 22.7351105650037226 O
atom 5.8013720581477282 4.1021577800000006 22.7351112332197260 O
atom 7.7351575469620366 10.9390849900000013 26.6026663097763887 Ce
atom 5.8013837837455249 8.2043143399999998 28.5364433928549701 Ce
atom 9.6689382928574474 8.2043140300000026 28.5364437075180284 Ce
atom 7.7351652155350701 10.9390847500000010 30.4702213350681177 Ce
atom 5.8013877417755007 6.8369294800000002 30.4702206827620685 O
atom 9.6689428943545401 9.5717002500000028 30.4702209479269968 O
atom 7.7351612221493244 9.5717001900000032 28.5364436279680547 O
atom 7.7351693291283592 6.8369294100000007 32.4039984552694378 O
atom 7.7351689897172040 9.5717001000000028 32.4039985542647386 O
atom 7.7351610807277718 6.8369293100000004 28.5364434299782950 O
atom 9.6689428307151353 6.8369293600000010 30.4702211529880245 O
atom 5.8013878973392954 9.5716999200000021 30.4702209797467631 O
atom 7.7351575328195556 5.4695443400000006 26.6026659703651447 Ce
atom 5.8013839605223883 2.7347710900000002 28.5364435554893419 Ce
atom 9.6689383847817663 2.7347718300000019 28.5364441388530601 Ce
atom 7.7351650529003386 5.4695447100000019 30.4702211724337317 Ce
atom 5.8013881024001783 1.3673854400000012 30.4702209019648009 O
atom 9.6689424559489723 4.1021579800000012 30.4702215701814083 O
atom 7.7351610736568812 4.1021582000000008 28.5364436067550038 O
atom 7.7351692018487306 1.3673855000000015 32.4039980592897692 O
atom 7.7351690533565485 4.1021579300000015 32.4039982926351584 O
atom 7.7351614130682833 1.3673853000000007 28.5364437481760120 O
atom 9.6689422508876710 1.3673857900000004 30.4702212519835669 O
atom 5.8013881024002956 4.1021576200000016 30.4702210151018917 O
atom 3.8676109751232932 10.9390852000000027 30.4702205961407202 Ce
atom 1.9338370068465098 8.2043142100000033 32.4039983651130896 Ce
atom 5.8013919826484326 8.2043137300000009 32.4039982130851953 Ce
atom 11.6027123389163052 10.9390852300000017 26.6026662708857629 Ce
atom 9.6689348085885030 6.8369296100000003 26.6026659155646179 O
atom 5.8013958982520712 9.5717004499999998 34.3377755737030128 O
atom 3.8676145230319214 9.5717002900000026 32.4039984658758087 O
atom 11.6027160636011200 6.8369293000000004 28.5364436385748519 O
atom 11.6027158443980269 9.5717002900000026 28.5364436456461412 O
atom 3.8676142967572340 6.8369291399999996 32.4039979567591487 O
atom 5.8013957709732127 6.8369292700000006 34.3377759272565370 O
atom 9.6689349995074245 9.5717000000000017 26.6026660074883026 O
atom 3.8676109044121523 5.4695439300000022 30.4702201435924636 Ce
atom 1.9338367735012278 2.7347708800000015 32.4039983156158513 Ce
atom 5.8013920462882709 2.7347708499999999 32.4039984322882262 Ce
atom 3.8676178729501713 5.4695446900000011 34.3377758547784779 Ce
atom 9.6689348863706606 1.3673857300000005 26.6026663186154053 O
atom 5.8013956012672745 4.1021581900000008 34.3377756161297256 O
atom 3.8676143603971962 4.1021578300000003 32.4039983032414156 O
atom 11.6027161555245950 1.3673861000000014 28.5364432355238904 O
atom 11.6027160918850338 4.1021581500000011 28.5364432850214307 O
atom 3.8676143533262786 1.3673852400000008 32.4039984517338340 O
atom 13.5364899187410206 1.3673855200000007 26.6026660675925015 O
atom 1.9338406608208529 4.1021577000000011 34.3377759307921409 O
atom 11.6027197246459615 10.9390861800000021 30.4702206456395501 Ce
atom 9.6689462372018866 8.2043144900000016 32.4039984994642438 Ce
atom 13.5365016019127822 8.2043144699999999 32.4039985949233085 Ce
atom 11.6027280013310445 10.9390850300000029 34.3377758830626902 Ce
atom 9.6689506548513098 6.8369296000000004 34.3377758388683461 O
atom 5.8013798610707346 9.5717003100000007 26.6026659544554036 O
atom 11.6027240433005190 9.5717004200000009 32.4039980557544354 O
atom 3.8676063736260966 6.8369295600000006 28.5364432567367992 O
atom 3.8676064796921481 9.5717002800000035 28.5364432920920272 O
atom 11.6027240362296293 6.8369297000000016 32.4039982325311300 O
atom 5.8013800166341509 6.8369294700000012 26.6026658837445673 O
atom 9.6689505629273818 9.5717003900000002 34.3377757893709585 O
atom 11.6027200923420377 5.4695438900000006 30.4702211830403229 Ce
atom 9.6689460887101308 2.7347711900000000 32.4039991570736916 Ce
atom 13.5365015877710224 2.7347707600000004 32.4039989626188500 Ce
atom 11.6027281003258480 5.4695448400000011 34.3377757416412308 Ce
atom 1.9338251186139843 1.3673854800000009 26.6026660428434489 O
atom 5.8013797974311920 4.1021580000000020 26.6026660180950785 O
atom 11.6027240857275711 4.1021576000000017 32.4039986921505019 O
atom 3.8676065504027668 1.3673853700000005 28.5364432355234179 O
atom 3.8676066776815987 4.1021578900000017 28.5364428536856245 O
atom 11.6027238877375769 1.3673855800000005 32.4039985931557553 O
atom 5.8013798893552506 1.3673851400000014 26.6026661948716807 O
atom 1.9338250691164207 4.1021581200000012 26.6026659509196222 O
atom 7.7351735629293774 10.9390859000000020 34.3377751441354988 Ce
atom 13.5364931908770778 8.2043145300000013 28.5364430251601142 Ce
atom 1.9338291261410772 8.2043145800000001 28.5364429721260464 Ce
atom 0.0000548891640049 10.9390851700000020 30.4702210239413986 Ce
atom 13.5364975731716353 6.8369295700000015 30.4702208241836701 O
atom 1.9338328932527882 9.5717004100000000 30.4702208206477039 O
atom 0.0000511432653009 9.5717004200000009 28.5364429845008871 O
atom 0.0000591653922113 6.8369295800000023 32.4039984906248719 O
atom 0.0000592785293660 9.5717001500000016 32.4039985613354347 O
atom 0.0000511715497339 6.8369297200000005 28.5364431400643568 O
atom 1.9338330983135685 6.8369293600000010 30.4702206438707961 O
atom 13.5364972974000199 9.5717004200000009 30.4702208453971579 O
atom 7.7351735275743838 5.4695442800000009 34.3377754906178509 Ce
atom 13.5364936363545141 2.7347719800000023 28.5364431877942231 Ce
atom 1.9338294796945346 2.7347713600000012 28.5364430428363605 Ce
atom 0.0000551295801358 5.4695446100000007 30.4702208542355208 Ce
atom 13.5364977711614536 1.3673858000000012 30.4702207393306566 O
atom 1.9338328013289359 4.1021579300000015 30.4702208560031309 O
atom 0.0000515675296724 4.1021579600000013 28.5364432814853011 O
atom 0.0000591653923899 1.3673852800000006 32.4039986603305010 O
atom 0.0000591158946271 4.1021577500000008 32.4039983845589035 O
atom 0.0000512846870054 1.3673857600000019 28.5364433239119961 O
atom 1.9338328791104582 1.3673852400000008 30.4702206367999509 O
atom 13.5364978984412527 4.1021577800000006 30.4702213050159543 O
atom 0.0000632436309466 10.9390849900000013 34.3377763815726169 Ce
atom 0.0000632294884725 5.4695443400000006 34.3377760421613729 Ce
atom 3.8676180355852265 10.9390852300000017 34.3377763426819911 Ce
atom 1.9338405052574232 6.8369296100000003 34.3377759873608497 O
atom 1.9338406961763410 9.5717000000000017 34.3377760792845308 O
atom 1.9338405830395711 1.3673857300000005 34.3377763904116335 O
atom 5.8013956154099402 1.3673855200000007 34.3377761393887297 O
atom 13.5365057013642573 9.5717003100000007 34.3377760262516247 O
atom 13.5365058569276719 6.8369294700000012 34.3377759555407991 O
atom 9.6689509589075122 1.3673854800000009 34.3377761146396736 O
atom 13.5365056377247139 4.1021580000000020 34.3377760898912996 O
atom 13.5365057296487787 1.3673851400000014 34.3377762666679089 O
atom 9.6689509094099417 4.1021581200000012 34.3377760227158504 O
