#===============================================================================
# Created using the Atomic Simulation Environment (ASE)

# Mon Mar 23 14:00:23 2026

#=======================================================
lattice_vector 15.4702201294824828 0.0000000000000000 0.0000000000000000 
lattice_vector 7.7350942821178856 13.3975945384849062 0.0000000000000000 
lattice_vector 0.0000000000000000 0.0000000000000000 31.5789234961889491 
atom 5.8013564487646656 5.5823137568440391 15.0000002598078623 O
atom 9.6689108588821071 5.5823136425337374 15.0000011142867287 O
atom 7.7351380873828735 2.2329151630475255 15.0000007130276991 O
atom 5.8013612641612404 3.3493813167545148 15.7894611620836329 Ce
atom 3.8675832035041808 2.2329155917084536 15.0000004358996470 O
atom 7.7351297718076584 8.9317118362471213 15.0000009324208641 O
atom 3.8675791800666266 6.6987785674138527 15.7894607723720526 Ce
atom 9.6689035332558078 12.2811110015911424 15.0000011258333075 O
atom 13.5364587424021163 12.2811113975925341 15.0000002020729077 O
atom 11.6026847193253317 8.9317122118354479 15.0000010421176633 O
atom 11.6026923065806358 2.2329149793354093 15.0000005225026953 O
atom 15.4702364353643897 13.3975768858540292 15.7894616441714213 Ce
atom 13.5364662943037324 5.5823132873579988 15.0000010450041863 O
atom 17.4040215953740436 5.5823133281834840 15.0000000000000000 O
atom 15.4702474591602339 2.2329147874583843 15.0000013654338957 O
atom 11.6026882265748288 6.6987782816391270 15.7894614536460800 Ce
atom 17.4040136687068738 12.2811113118602719 15.0000003233165202 O
atom 21.2715682838855358 12.2811106219200461 15.0000010911923951 O
atom 19.3377952083301459 8.9317119913819756 15.0000002973353617 O
atom 13.5364623910733410 10.0481780144486130 15.7894614334388557 Ce
atom 15.4702438175600037 6.6987782612269395 15.7894616730387121 Ce
atom 17.4040183143979306 10.0481783247180676 15.7894609600110414 Ce
atom 15.4702403598071960 8.9317121791762943 15.0000003088823028 O
atom 7.7351251544012696 13.3975757509224174 15.7894629893980216 Ce
atom 7.7351380520274216 4.4658459640239485 16.5789227023320365 O
atom 1.9338049377868110 3.3493801450806391 15.7894622475026516 Ce
atom 11.6026811908621870 13.3975770491529076 15.7894622965774793 Ce
atom 5.8013646936299548 1.1164479703524632 16.5789231209111065 O
atom 1.9338089541533809 1.1164470803705950 16.5789234961889491 O
atom 3.8675830408703029 4.4658457068274524 16.5789228755369749 O
atom 5.8013520081351206 10.0481771448792472 15.7894621089385190 Ce
atom 7.7351330244992402 6.6987783224634674 15.7894622619366132 Ce
atom 9.6689066445263787 10.0481774143225397 15.7894628190798052 Ce
atom 9.6689110992981480 7.8152441291593346 16.5789226994454921 O
atom 5.8013561517800083 7.8152443414486141 16.5789224511849085 O
atom 7.7351294889650708 11.1646428699247071 16.5789233720587283 O
atom 11.6026848607460025 11.1646434169779774 16.5789226157298621 O
atom 9.6689147762533612 3.3493807574530301 15.7894620569775519 Ce
atom 19.3377907182025339 13.3975763959553991 15.7894621464665477 Ce
atom 13.5364691439444638 3.3493800226054753 15.7894625592724864 Ce
atom 13.5364740159095724 1.1164471661028792 16.5789231497788592 O
atom 9.6689194431573942 1.1164476682489288 16.5789223530353453 O
atom 11.6026924409311079 4.4658458537964307 16.5789229101786155 O
atom 15.4702475015863481 4.4658454455480960 16.5789230371954623 O
atom 19.3377953497513317 11.1646433924833257 16.5789226330499950 O
atom 17.4040217155822567 7.8152446517175358 16.5789225666547253 O
atom 13.5364662448058120 7.8152444639229133 16.5789228841976453 O
atom 15.4702403668785351 11.1646433639057854 16.5789230198746260 O
