#===============================================================================
# Created using the Atomic Simulation Environment (ASE)

# Mon Mar 23 14:00:24 2026

#=======================================================
lattice_vector 15.4702201436246050 0.0000000000000000 0.0000000000000000 
lattice_vector 0.0000000000000000 10.9390864000000008 0.0000000000000000 
lattice_vector 0.0000000000000000 0.0000000000000000 39.6688885054487130 
atom 0.0000434888348373 6.8369294100000007 15.0000004985102890 O
atom 0.0000431494236823 9.5717001000000028 15.0000005975055828 O
atom 0.0000433615552154 1.3673855000000015 15.0000001025306204 O
atom 0.0000432130630330 4.1021579300000015 15.0000003358760132 O
atom 9.6689313101775962 8.2043142100000033 15.0000004083539409 Ce
atom 13.5364862859795121 8.2043137300000009 15.0000002563260431 Ce
atom 13.5364902015831579 9.5717004499999998 16.9337776169438641 O
atom 11.6027088263630045 9.5717002900000026 15.0000005091166564 O
atom 11.6027086000883166 6.8369291399999996 15.0000000000000000 O
atom 13.5364900743042949 6.8369292700000006 16.9337779704973848 O
atom 9.6689310768323082 2.7347708800000015 15.0000003588567026 Ce
atom 13.5364863496193504 2.7347708499999999 15.0000004755290810 Ce
atom 11.6027121762812513 5.4695446900000011 16.9337778980193256 Ce
atom 13.5364899045983531 4.1021581900000008 16.9337776593705733 O
atom 11.6027086637282828 4.1021578300000003 15.0000003464822669 O
atom 11.6027086566573647 1.3673852400000008 15.0000004949746959 O
atom 9.6689349641519353 4.1021577000000011 16.9337779740329957 O
atom 1.9338203969083514 8.2043144900000016 15.0000005427050809 Ce
atom 5.8013757616192603 8.2043144699999999 15.0000006381641633 Ce
atom 3.8676021610375226 10.9390850300000029 16.9337779263035380 Ce
atom 1.9338248145577881 6.8369296000000004 16.9337778821091902 O
atom 3.8675982030069971 9.5717004200000009 15.0000000989952795 O
atom 3.8675981959361070 6.8369297000000016 15.0000002757719848 O
atom 1.9338247226338603 9.5717003900000002 16.9337778326118169 O
atom 1.9338202484166018 2.7347711900000000 15.0000012003145393 Ce
atom 5.8013757474775005 2.7347707600000004 15.0000010058597049 Ce
atom 3.8676022600323270 5.4695448400000011 16.9337777848820856 Ce
atom 3.8675982454340483 4.1021576000000017 15.0000007353913460 O
atom 3.8675980474440483 1.3673855800000005 15.0000006363965959 O
atom 0.0000477226358413 10.9390859000000020 16.9337771873763465 Ce
atom 7.7351534687232943 6.8369295800000023 15.0000005338657232 O
atom 7.7351535818604491 9.5717001500000016 15.0000006045762788 O
atom 0.0000476872808617 5.4695442800000009 16.9337775338587093 Ce
atom 7.7351534687234658 1.3673852800000006 15.0000007035713487 O
atom 7.7351534192257105 4.1021577500000008 15.0000004277997547 O
atom 7.7351575469620366 10.9390849900000013 16.9337784248134682 Ce
atom 5.8013837837455249 8.2043143399999998 18.8675555078920496 Ce
atom 9.6689382928574474 8.2043140300000026 18.8675558225551079 Ce
atom 7.7351652155350701 10.9390847500000010 20.8013334501051972 Ce
atom 5.8013877417755007 6.8369294800000002 20.8013327977991480 O
atom 9.6689428943545401 9.5717002500000028 20.8013330629640762 O
atom 7.7351612221493244 9.5717001900000032 18.8675557430051342 O
atom 7.7351693291283592 6.8369294100000007 22.7351105703065173 O
atom 7.7351689897172040 9.5717001000000028 22.7351106693018181 O
atom 7.7351610807277718 6.8369293100000004 18.8675555450153745 O
atom 9.6689428307151353 6.8369293600000010 20.8013332680251040 O
atom 5.8013878973392954 9.5716999200000021 20.8013330947838426 O
atom 7.7351575328195556 5.4695443400000006 16.9337780854022242 Ce
atom 5.8013839605223883 2.7347710900000002 18.8675556705264214 Ce
atom 9.6689383847817663 2.7347718300000019 18.8675562538901396 Ce
atom 7.7351650529003386 5.4695447100000019 20.8013332874708112 Ce
atom 5.8013881024001783 1.3673854400000012 20.8013330170018804 O
atom 9.6689424559489723 4.1021579800000012 20.8013336852184878 O
atom 7.7351610736568812 4.1021582000000008 18.8675557217920833 O
atom 7.7351692018487306 1.3673855000000015 22.7351101743268487 O
atom 7.7351690533565485 4.1021579300000015 22.7351104076722379 O
atom 7.7351614130682833 1.3673853000000007 18.8675558632130915 O
atom 9.6689422508876710 1.3673857900000004 20.8013333670206464 O
atom 5.8013881024002956 4.1021576200000016 20.8013331301389712 O
atom 3.8676109751232932 10.9390852000000027 20.8013327111777997 Ce
atom 1.9338370068465098 8.2043142100000033 22.7351104801501691 Ce
atom 5.8013919826484326 8.2043137300000009 22.7351103281222748 Ce
atom 11.6027123389163052 10.9390852300000017 16.9337783859228423 Ce
atom 9.6689348085885030 6.8369296100000003 16.9337780306016974 O
atom 5.8013958982520712 9.5717004499999998 24.6688876887400923 O
atom 3.8676145230319214 9.5717002900000026 22.7351105809128882 O
atom 11.6027160636011200 6.8369293000000004 18.8675557536119314 O
atom 11.6027158443980269 9.5717002900000026 18.8675557606832207 O
atom 3.8676142967572340 6.8369291399999996 22.7351100717962282 O
atom 5.8013957709732127 6.8369292700000006 24.6688880422936165 O
atom 9.6689349995074245 9.5717000000000017 16.9337781225253821 O
atom 3.8676109044121523 5.4695439300000022 20.8013322586295430 Ce
atom 1.9338367735012278 2.7347708800000015 22.7351104306529308 Ce
atom 5.8013920462882709 2.7347708499999999 22.7351105473253057 Ce
atom 3.8676178729501713 5.4695446900000011 24.6688879698155574 Ce
atom 9.6689348863706606 1.3673857300000005 16.9337784336524848 O
atom 5.8013956012672745 4.1021581900000008 24.6688877311668051 O
atom 3.8676143603971962 4.1021578300000003 22.7351104182784951 O
atom 11.6027161555245950 1.3673861000000014 18.8675553505609699 O
atom 11.6027160918850338 4.1021581500000011 18.8675554000585102 O
atom 3.8676143533262786 1.3673852400000008 22.7351105667709135 O
atom 13.5364899187410206 1.3673855200000007 16.9337781826295810 O
atom 1.9338406608208529 4.1021577000000011 24.6688880458292203 O
atom 11.6027197246459615 10.9390861800000021 20.8013327606766296 Ce
atom 9.6689462372018866 8.2043144900000016 22.7351106145013233 Ce
atom 13.5365016019127822 8.2043144699999999 22.7351107099603880 Ce
atom 11.6027280013310445 10.9390850300000029 24.6688879980997697 Ce
atom 9.6689506548513098 6.8369296000000004 24.6688879539054255 O
atom 5.8013798610707346 9.5717003100000007 16.9337780694924831 O
atom 11.6027240433005190 9.5717004200000009 22.7351101707915149 O
atom 3.8676063736260966 6.8369295600000006 18.8675553717738786 O
atom 3.8676064796921481 9.5717002800000035 18.8675554071291067 O
atom 11.6027240362296293 6.8369297000000016 22.7351103475682095 O
atom 5.8013800166341509 6.8369294700000012 16.9337779987816468 O
atom 9.6689505629273818 9.5717003900000002 24.6688879044080380 O
atom 11.6027200923420377 5.4695438900000006 20.8013332980774024 Ce
atom 9.6689460887101308 2.7347711900000000 22.7351112721107711 Ce
atom 13.5365015877710224 2.7347707600000004 22.7351110776559295 Ce
atom 11.6027281003258480 5.4695448400000011 24.6688878566783103 Ce
atom 1.9338251186139843 1.3673854800000009 16.9337781578805284 O
atom 5.8013797974311920 4.1021580000000020 16.9337781331321580 O
atom 11.6027240857275711 4.1021576000000017 22.7351108071875814 O
atom 3.8676065504027668 1.3673853700000005 18.8675553505604974 O
atom 3.8676066776815987 4.1021578900000017 18.8675549687227040 O
atom 11.6027238877375769 1.3673855800000005 22.7351107081928347 O
atom 5.8013798893552506 1.3673851400000014 16.9337783099087602 O
atom 1.9338250691164207 4.1021581200000012 16.9337780659567017 O
atom 7.7351735629293774 10.9390859000000020 24.6688872591725783 Ce
atom 13.5364931908770778 8.2043145300000013 18.8675551401971937 Ce
atom 1.9338291261410772 8.2043145800000001 18.8675550871631259 Ce
atom 0.0000548891640049 10.9390851700000020 20.8013331389784781 Ce
atom 13.5364975731716353 6.8369295700000015 20.8013329392207496 O
atom 1.9338328932527882 9.5717004100000000 20.8013329356847834 O
atom 0.0000511432653009 9.5717004200000009 18.8675550995379666 O
atom 0.0000591653922113 6.8369295800000023 22.7351106056619514 O
atom 0.0000592785293660 9.5717001500000016 22.7351106763725141 O
atom 0.0000511715497339 6.8369297200000005 18.8675552551014363 O
atom 1.9338330983135685 6.8369293600000010 20.8013327589078756 O
atom 13.5364972974000199 9.5717004200000009 20.8013329604342374 O
atom 7.7351735275743838 5.4695442800000009 24.6688876056549304 Ce
atom 13.5364936363545141 2.7347719800000023 18.8675553028313026 Ce
atom 1.9338294796945346 2.7347713600000012 18.8675551578734400 Ce
atom 0.0000551295801358 5.4695446100000007 20.8013329692726003 Ce
atom 13.5364977711614536 1.3673858000000012 20.8013328543677360 O
atom 1.9338328013289359 4.1021579300000015 20.8013329710402104 O
atom 0.0000515675296724 4.1021579600000013 18.8675553965223806 O
atom 0.0000591653923899 1.3673852800000006 22.7351107753675805 O
atom 0.0000591158946271 4.1021577500000008 22.7351104995959830 O
atom 0.0000512846870054 1.3673857600000019 18.8675554389490756 O
atom 1.9338328791104582 1.3673852400000008 20.8013327518370303 O
atom 13.5364978984412527 4.1021577800000006 20.8013334200530338 O
atom 0.0000632436309466 10.9390849900000013 24.6688884966096964 Ce
atom 0.0000632294884725 5.4695443400000006 24.6688881571984524 Ce
atom 3.8676180355852265 10.9390852300000017 24.6688884577190706 Ce
atom 1.9338405052574232 6.8369296100000003 24.6688881023979292 O
atom 1.9338406961763410 9.5717000000000017 24.6688881943216103 O
atom 1.9338405830395711 1.3673857300000005 24.6688885054487130 O
atom 5.8013956154099402 1.3673855200000007 24.6688882544258092 O
atom 13.5365057013642573 9.5717003100000007 24.6688881412887042 O
atom 13.5365058569276719 6.8369294700000012 24.6688880705778786 O
atom 9.6689509589075122 1.3673854800000009 24.6688882296767531 O
atom 13.5365056377247139 4.1021580000000020 24.6688882049283791 O
atom 13.5365057296487787 1.3673851400000014 24.6688883817049884 O
atom 9.6689509094099417 4.1021581200000012 24.6688881377529299 O
