#===============================================================================
# Created using the Atomic Simulation Environment (ASE)

# Mon Mar 23 14:00:59 2026

#=======================================================
lattice_vector 10.9390864200000006 0.0000000000000000 0.0000000000000000 
lattice_vector 0.0000000000000000 10.9390864000000008 0.0000000000000000 
lattice_vector 0.0000000000000000 0.0000000000000000 62.8173264600000110 
atom 2.7347716200000001 2.7347720600000001 17.7347772100000007 Ce
atom 5.4695421900000003 5.4695424700000004 17.7347771600000002 Ce
atom 0.0000002300000000 2.7347719300000004 15.0000000499999988 Ce
atom 1.3673858600000000 1.3673860900000003 16.3673886899999985 O
atom 4.1021572500000012 4.1021568400000001 16.3673885999999982 O
atom 4.1021572000000006 1.3673861200000001 16.3673886999999993 O
atom 1.3673857000000000 4.1021569300000005 16.3673887499999964 O
atom 0.0000005000000000 8.2043156400000008 15.0000002999999982 Ce
atom 1.3673859500000005 6.8369283999999988 16.3673886899999985 O
atom 4.1021571100000003 9.5717010300000016 16.3673887100000002 O
atom 4.1021567499999998 6.8369285099999999 16.3673885299999995 O
atom 1.3673860099999999 9.5717012600000011 16.3673888800000000 O
atom 5.4695426600000001 2.7347718200000006 15.0000000000000000 Ce
atom 6.8369288200000016 1.3673859900000001 16.3673886999999993 O
atom 9.5717006399999995 4.1021568200000003 16.3673886999999993 O
atom 9.5717006100000024 1.3673862500000002 16.3673888299999959 O
atom 6.8369285499999997 4.1021570399999998 16.3673887200000010 O
atom 5.4695424600000004 8.2043150400000009 15.0000002999999982 Ce
atom 6.8369289100000001 6.8369284700000001 16.3673886599999996 O
atom 9.5717007600000024 9.5717011200000019 16.3673888200000022 O
atom 9.5717005999999998 6.8369286499999999 16.3673885900000009 O
atom 6.8369286999999996 9.5717011600000017 16.3673885600000020 O
atom 0.0000001900000000 0.0000014100000000 17.7347776500000016 Ce
atom 2.7347716200000001 2.7347720600000001 28.6738859300000044 Ce
atom 0.0000006100000000 2.7347723700000000 20.4695542400000008 Ce
atom 2.7347719399999999 0.0000016500000000 20.4695546700000008 Ce
atom 4.1021572500000012 4.1021569199999997 19.1021656499999999 O
atom 1.3673857500000000 1.3673861500000000 21.8369430999999992 O
atom 1.3673860400000004 1.3673862100000000 19.1021659100000036 O
atom 4.1021573399999998 4.1021569900000001 21.8369430999999992 O
atom 4.1021576499999997 1.3673862999999999 21.8369429300000029 O
atom 1.3673860000000004 4.1021570900000013 19.1021656699999980 O
atom 1.3673859400000004 4.1021570399999998 21.8369432000000003 O
atom 4.1021573499999997 1.3673864800000004 19.1021659700000015 O
atom 10.9390863800000009 5.4695420600000011 17.7347774000000022 Ce
atom 2.7347716100000001 8.2043153100000001 17.7347774499999993 Ce
atom 0.0000008500000000 8.2043145699999993 20.4695546099999994 Ce
atom 2.7347719399999999 5.4695416899999998 20.4695544400000031 Ce
atom 4.1021571500000000 9.5717009600000011 19.1021660600000018 O
atom 1.3673865000000003 6.8369284200000005 21.8369432300000028 O
atom 1.3673861300000003 6.8369282000000000 19.1021657900000008 O
atom 4.1021571500000000 9.5717008999999997 21.8369427299999970 O
atom 4.1021574200000002 6.8369284700000001 21.8369427900000019 O
atom 1.3673859900000005 9.5717011000000003 19.1021661300000005 O
atom 1.3673864200000003 9.5717006100000006 21.8369428600000006 O
atom 4.1021572300000013 6.8369287800000000 19.1021661400000013 O
atom 5.4695424600000004 0.0000012000000000 17.7347775300000023 Ce
atom 8.2043145200000005 2.7347721900000002 17.7347774300000012 Ce
atom 5.4695428499999998 2.7347726700000003 20.4695544600000012 Ce
atom 8.2043151499999993 0.0000011700000000 20.4695546299999975 Ce
atom 9.5717007100000018 4.1021567900000004 19.1021657800000000 O
atom 6.8369285599999996 1.3673859500000001 21.8369429199999985 O
atom 6.8369287900000000 1.3673861100000004 19.1021660900000008 O
atom 9.5717009999999991 4.1021571000000012 21.8369429600000018 O
atom 9.5717011600000017 1.3673861100000004 21.8369428099999965 O
atom 6.8369285900000021 4.1021572600000002 19.1021655699999968 O
atom 6.8369289000000011 4.1021571300000010 21.8369430799999975 O
atom 9.5717006399999995 1.3673863999999998 19.1021659800000023 O
atom 5.4695421900000003 5.4695424700000004 28.6738858800000074 Ce
atom 8.2043146500000024 8.2043155199999998 17.7347772299999988 Ce
atom 5.4695429600000001 8.2043155500000005 20.4695546600000000 Ce
atom 8.2043149200000016 5.4695417099999997 20.4695541700000021 Ce
atom 9.5717009399999995 9.5717006700000002 19.1021661199999997 O
atom 6.8369287999999999 6.8369282100000000 21.8369427400000014 O
atom 6.8369287900000000 6.8369285700000004 19.1021658599999995 O
atom 9.5717006500000004 9.5717003000000016 21.8369427400000014 O
atom 9.5717007299999999 6.8369282499999988 21.8369427299999970 O
atom 6.8369289000000011 9.5717011600000017 19.1021659600000007 O
atom 6.8369291600000004 9.5717008800000016 21.8369431200000008 O
atom 9.5717005600000000 6.8369286999999996 19.1021658500000022 O
atom 0.0000002200000000 0.0000002200000000 23.2043309899999954 Ce
atom 2.7347720000000009 2.7347719099999996 23.2043312899999989 Ce
atom 0.0000002300000000 2.7347719300000004 25.9391087699999972 Ce
atom 2.7347716900000001 0.0000013700000000 25.9391085899999965 Ce
atom 4.1021573399999998 4.1021568000000004 24.5717200899999995 O
atom 1.3673858600000000 1.3673860900000003 27.3064974099999986 O
atom 1.3673856799999999 1.3673859799999999 24.5717197700000014 O
atom 4.1021572500000012 4.1021568400000001 27.3064973199999983 O
atom 4.1021572000000006 1.3673861200000001 27.3064974199999995 O
atom 1.3673858100000000 4.1021567000000001 24.5717198899999971 O
atom 1.3673857000000000 4.1021569300000005 27.3064974700000036 O
atom 4.1021573699999996 1.3673860099999999 24.5717199899999983 O
atom 0.0000003400000000 5.4695425100000010 23.2043316299999987 Ce
atom 2.7347725700000001 8.2043152100000025 23.2043316500000003 Ce
atom 0.0000005000000000 8.2043156400000008 25.9391090200000036 Ce
atom 2.7347715199999998 5.4695415600000006 25.9391085600000011 Ce
atom 4.1021573199999999 9.5717009200000014 24.5717204999999979 O
atom 1.3673859500000005 6.8369283999999988 27.3064974099999986 O
atom 1.3673861000000005 6.8369287999999999 24.5717202499999985 O
atom 4.1021571100000003 9.5717010300000016 27.3064974300000003 O
atom 4.1021567499999998 6.8369285099999999 27.3064972499999996 O
atom 1.3673861700000003 9.5717008200000002 24.5717200400000024 O
atom 1.3673860099999999 9.5717012600000011 27.3064976000000001 O
atom 4.1021572900000001 6.8369282800000004 24.5717203999999967 O
atom 5.4695423500000011 0.0000005000000000 23.2043313100000006 Ce
atom 8.2043150399999991 2.7347718699999994 23.2043308399999972 Ce
atom 5.4695426600000001 2.7347718200000006 25.9391087200000001 Ce
atom 8.2043151099999996 0.0000012300000000 25.9391086299999998 Ce
atom 9.5717007299999999 4.1021568300000002 24.5717199400000013 O
atom 6.8369288200000016 1.3673859900000001 27.3064974199999995 O
atom 6.8369287999999999 1.3673859799999999 24.5717198099999976 O
atom 9.5717006399999995 4.1021568200000003 27.3064974199999995 O
atom 9.5717006100000024 1.3673862500000002 27.3064975500000031 O
atom 6.8369288900000011 4.1021566800000011 24.5717199400000013 O
atom 6.8369285499999997 4.1021570399999998 27.3064974399999940 O
atom 9.5717009399999995 1.3673859799999999 24.5717197600000006 O
atom 5.4695426200000004 5.4695421200000007 23.2043315299999975 Ce
atom 8.2043148400000003 8.2043144199999993 23.2043312699999973 Ce
atom 5.4695424600000004 8.2043150400000009 25.9391090200000036 Ce
atom 8.2043148200000022 5.4695417900000001 25.9391086800000039 Ce
atom 9.5717005299999993 9.5717005999999998 24.5717200200000008 O
atom 6.8369289100000001 6.8369284700000001 27.3064973799999962 O
atom 6.8369287099999996 6.8369284400000003 24.5717203199999972 O
atom 9.5717007600000024 9.5717011200000019 27.3064975400000023 O
atom 9.5717005999999998 6.8369286499999999 27.3064973100000046 O
atom 6.8369289400000008 9.5717006399999995 24.5717201500000044 O
atom 6.8369286999999996 9.5717011600000017 27.3064972800000021 O
atom 9.5717008400000019 6.8369286200000001 24.5717205099999987 O
atom 0.0000001900000000 0.0000014100000000 28.6738863699999982 Ce
atom 2.7347716200000001 2.7347720600000001 39.6129946500000045 Ce
atom 0.0000006100000000 2.7347723700000000 31.4086629600000009 Ce
atom 2.7347719399999999 0.0000016500000000 31.4086633900000010 Ce
atom 4.1021572500000012 4.1021569199999997 30.0412743700000036 O
atom 1.3673857500000000 1.3673861500000000 32.7760518199999993 O
atom 1.3673860400000004 1.3673862100000000 30.0412746299999966 O
atom 4.1021573399999998 4.1021569900000001 32.7760518199999993 O
atom 4.1021576499999997 1.3673862999999999 32.7760516500000065 O
atom 1.3673860000000004 4.1021570900000013 30.0412743899999981 O
atom 1.3673859400000004 4.1021570399999998 32.7760519200000005 O
atom 4.1021573499999997 1.3673864800000004 30.0412746900000016 O
atom 10.9390863800000009 5.4695420600000011 28.6738861199999988 Ce
atom 2.7347716100000001 8.2043153100000001 28.6738861700000029 Ce
atom 0.0000008500000000 8.2043145699999993 31.4086633299999960 Ce
atom 2.7347719399999999 5.4695416899999998 31.4086631599999961 Ce
atom 4.1021571500000000 9.5717009600000011 30.0412747800000020 O
atom 1.3673865000000003 6.8369284200000005 32.7760519500000029 O
atom 1.3673861300000003 6.8369282000000000 30.0412745100000009 O
atom 4.1021571500000000 9.5717008999999997 32.7760514499999971 O
atom 4.1021574200000002 6.8369284700000001 32.7760515100000021 O
atom 1.3673859900000005 9.5717011000000003 30.0412748500000006 O
atom 1.3673864200000003 9.5717006100000006 32.7760515800000007 O
atom 4.1021572300000013 6.8369287800000000 30.0412748600000015 O
atom 5.4695424600000004 0.0000012000000000 28.6738862500000025 Ce
atom 8.2043145200000005 2.7347721900000002 28.6738861500000013 Ce
atom 5.4695428499999998 2.7347726700000003 31.4086631799999978 Ce
atom 8.2043151499999993 0.0000011700000000 31.4086633500000048 Ce
atom 9.5717007100000018 4.1021567900000004 30.0412745000000001 O
atom 6.8369285599999996 1.3673859500000001 32.7760516400000057 O
atom 6.8369287900000000 1.3673861100000004 30.0412748099999973 O
atom 9.5717009999999991 4.1021571000000012 32.7760516800000019 O
atom 9.5717011600000017 1.3673861100000004 32.7760515299999966 O
atom 6.8369285900000021 4.1021572600000002 30.0412742900000040 O
atom 6.8369289000000011 4.1021571300000010 32.7760518000000047 O
atom 9.5717006399999995 1.3673863999999998 30.0412747000000024 O
atom 5.4695421900000003 5.4695424700000004 39.6129946000000075 Ce
atom 8.2043146500000024 8.2043155199999998 28.6738859499999990 Ce
atom 5.4695429600000001 8.2043155500000005 31.4086633800000001 Ce
atom 8.2043149200000016 5.4695417099999997 31.4086628900000022 Ce
atom 9.5717009399999995 9.5717006700000002 30.0412748399999998 O
atom 6.8369287999999999 6.8369282100000000 32.7760514599999979 O
atom 6.8369287900000000 6.8369285700000004 30.0412745800000067 O
atom 9.5717006500000004 9.5717003000000016 32.7760514599999979 O
atom 9.5717007299999999 6.8369282499999988 32.7760514499999971 O
atom 6.8369289000000011 9.5717011600000017 30.0412746800000008 O
atom 6.8369291600000004 9.5717008800000016 32.7760518400000009 O
atom 9.5717005600000000 6.8369286999999996 30.0412745699999988 O
atom 0.0000002200000000 0.0000002200000000 34.1434397100000027 Ce
atom 2.7347720000000009 2.7347719099999996 34.1434400100000062 Ce
atom 0.0000002300000000 2.7347719300000004 36.8782174899999973 Ce
atom 2.7347716900000001 0.0000013700000000 36.8782173100000037 Ce
atom 4.1021573399999998 4.1021568000000004 35.5108288099999996 O
atom 1.3673858600000000 1.3673860900000003 38.2456061300000059 O
atom 1.3673856799999999 1.3673859799999999 35.5108284900000015 O
atom 4.1021572500000012 4.1021568400000001 38.2456060399999984 O
atom 4.1021572000000006 1.3673861200000001 38.2456061399999996 O
atom 1.3673858100000000 4.1021567000000001 35.5108286100000043 O
atom 1.3673857000000000 4.1021569300000005 38.2456061899999966 O
atom 4.1021573699999996 1.3673860099999999 35.5108287100000055 O
atom 0.0000003400000000 5.4695425100000010 34.1434403499999988 Ce
atom 2.7347725700000001 8.2043152100000025 34.1434403700000004 Ce
atom 0.0000005000000000 8.2043156400000008 36.8782177399999966 Ce
atom 2.7347715199999998 5.4695415600000006 36.8782172800000012 Ce
atom 4.1021573199999999 9.5717009200000014 35.5108292199999980 O
atom 1.3673859500000005 6.8369283999999988 38.2456061300000059 O
atom 1.3673861000000005 6.8369287999999999 35.5108289699999986 O
atom 4.1021571100000003 9.5717010300000016 38.2456061500000075 O
atom 4.1021567499999998 6.8369285099999999 38.2456059700000068 O
atom 1.3673861700000003 9.5717008200000002 35.5108287600000025 O
atom 1.3673860099999999 9.5717012600000011 38.2456063200000003 O
atom 4.1021572900000001 6.8369282800000004 35.5108291200000039 O
atom 5.4695423500000011 0.0000005000000000 34.1434400300000007 Ce
atom 8.2043150399999991 2.7347718699999994 34.1434395599999974 Ce
atom 5.4695426600000001 2.7347718200000006 36.8782174400000073 Ce
atom 8.2043151099999996 0.0000012300000000 36.8782173499999999 Ce
atom 9.5717007299999999 4.1021568300000002 35.5108286600000014 O
atom 6.8369288200000016 1.3673859900000001 38.2456061399999996 O
atom 6.8369287999999999 1.3673859799999999 35.5108285300000048 O
atom 9.5717006399999995 4.1021568200000003 38.2456061399999996 O
atom 9.5717006100000024 1.3673862500000002 38.2456062699999961 O
atom 6.8369288900000011 4.1021566800000011 35.5108286600000014 O
atom 6.8369285499999997 4.1021570399999998 38.2456061600000012 O
atom 9.5717009399999995 1.3673859799999999 35.5108284800000007 O
atom 5.4695426200000004 5.4695421200000007 34.1434402500000047 Ce
atom 8.2043148400000003 8.2043144199999993 34.1434399899999974 Ce
atom 5.4695424600000004 8.2043150400000009 36.8782177399999966 Ce
atom 8.2043148200000022 5.4695417900000001 36.8782174000000040 Ce
atom 9.5717005299999993 9.5717005999999998 35.5108287400000009 O
atom 6.8369289100000001 6.8369284700000001 38.2456061000000034 O
atom 6.8369287099999996 6.8369284400000003 35.5108290400000044 O
atom 9.5717007600000024 9.5717011200000019 38.2456062600000024 O
atom 9.5717005999999998 6.8369286499999999 38.2456060299999976 O
atom 6.8369289400000008 9.5717006399999995 35.5108288700000045 O
atom 6.8369286999999996 9.5717011600000017 38.2456060000000022 O
atom 9.5717008400000019 6.8369286200000001 35.5108292299999988 O
atom 0.0000001900000000 0.0000014100000000 39.6129950900000054 Ce
atom 0.0000006100000000 2.7347723700000000 42.3477716800000081 Ce
atom 2.7347719399999999 0.0000016500000000 42.3477721100000082 Ce
atom 4.1021572500000012 4.1021569199999997 40.9803830900000037 O
atom 1.3673857500000000 1.3673861500000000 43.7151605400000136 O
atom 1.3673860400000004 1.3673862100000000 40.9803833500000110 O
atom 4.1021573399999998 4.1021569900000001 43.7151605400000136 O
atom 4.1021576499999997 1.3673862999999999 43.7151603700000067 O
atom 1.3673860000000004 4.1021570900000013 40.9803831100000053 O
atom 1.3673859400000004 4.1021570399999998 43.7151606400000077 O
atom 4.1021573499999997 1.3673864800000004 40.9803834100000017 O
atom 10.9390863800000009 5.4695420600000011 39.6129948400000060 Ce
atom 2.7347716100000001 8.2043153100000001 39.6129948900000031 Ce
atom 0.0000008500000000 8.2043145699999993 42.3477720500000032 Ce
atom 2.7347719399999999 5.4695416899999998 42.3477718800000105 Ce
atom 4.1021571500000000 9.5717009600000011 40.9803835000000021 O
atom 1.3673865000000003 6.8369284200000005 43.7151606700000031 O
atom 1.3673861300000003 6.8369282000000000 40.9803832300000082 O
atom 4.1021571500000000 9.5717008999999997 43.7151601700000043 O
atom 4.1021574200000002 6.8369284700000001 43.7151602300000022 O
atom 1.3673859900000005 9.5717011000000003 40.9803835700000079 O
atom 1.3673864200000003 9.5717006100000006 43.7151603000000151 O
atom 4.1021572300000013 6.8369287800000000 40.9803835800000087 O
atom 5.4695424600000004 0.0000012000000000 39.6129949700000026 Ce
atom 8.2043145200000005 2.7347721900000002 39.6129948700000156 Ce
atom 5.4695428499999998 2.7347726700000003 42.3477719000000050 Ce
atom 8.2043151499999993 0.0000011700000000 42.3477720700000049 Ce
atom 9.5717007100000018 4.1021567900000004 40.9803832200000073 O
atom 6.8369285599999996 1.3673859500000001 43.7151603600000058 O
atom 6.8369287900000000 1.3673861100000004 40.9803835300000046 O
atom 9.5717009999999991 4.1021571000000012 43.7151604000000020 O
atom 9.5717011600000017 1.3673861100000004 43.7151602500000109 O
atom 6.8369285900000021 4.1021572600000002 40.9803830100000042 O
atom 6.8369289000000011 4.1021571300000010 43.7151605200000049 O
atom 9.5717006399999995 1.3673863999999998 40.9803834200000026 O
atom 8.2043146500000024 8.2043155199999998 39.6129946700000062 Ce
atom 5.4695429600000001 8.2043155500000005 42.3477721000000074 Ce
atom 8.2043149200000016 5.4695417099999997 42.3477716100000023 Ce
atom 9.5717009399999995 9.5717006700000002 40.9803835600000070 O
atom 6.8369287999999999 6.8369282100000000 43.7151601800000051 O
atom 6.8369287900000000 6.8369285700000004 40.9803833000000068 O
atom 9.5717006500000004 9.5717003000000016 43.7151601800000051 O
atom 9.5717007299999999 6.8369282499999988 43.7151601700000043 O
atom 6.8369289000000011 9.5717011600000017 40.9803834000000151 O
atom 6.8369291600000004 9.5717008800000016 43.7151605600000011 O
atom 9.5717005600000000 6.8369286999999996 40.9803832900000060 O
atom 0.0000002200000000 0.0000002200000000 45.0825484300000028 Ce
atom 2.7347720000000009 2.7347719099999996 45.0825487300000063 Ce
atom 0.0000002300000000 2.7347719300000004 47.8173262100000045 Ce
atom 4.1021573399999998 4.1021568000000004 46.4499375300000068 O
atom 1.3673856799999999 1.3673859799999999 46.4499372100000087 O
atom 1.3673858100000000 4.1021567000000001 46.4499373300000045 O
atom 4.1021573699999996 1.3673860099999999 46.4499374300000056 O
atom 0.0000003400000000 5.4695425100000010 45.0825490700000060 Ce
atom 2.7347725700000001 8.2043152100000025 45.0825490900000077 Ce
atom 0.0000005000000000 8.2043156400000008 47.8173264600000110 Ce
atom 4.1021573199999999 9.5717009200000014 46.4499379400000052 O
atom 1.3673861000000005 6.8369287999999999 46.4499376900000058 O
atom 1.3673861700000003 9.5717008200000002 46.4499374800000027 O
atom 4.1021572900000001 6.8369282800000004 46.4499378400000111 O
atom 5.4695423500000011 0.0000005000000000 45.0825487500000008 Ce
atom 8.2043150399999991 2.7347718699999994 45.0825482800000046 Ce
atom 5.4695426600000001 2.7347718200000006 47.8173261600000075 Ce
atom 9.5717007299999999 4.1021568300000002 46.4499373800000015 O
atom 6.8369287999999999 1.3673859799999999 46.4499372500000050 O
atom 6.8369288900000011 4.1021566800000011 46.4499373800000015 O
atom 9.5717009399999995 1.3673859799999999 46.4499372000000079 O
atom 5.4695426200000004 5.4695421200000007 45.0825489700000048 Ce
atom 8.2043148400000003 8.2043144199999993 45.0825487100000046 Ce
atom 5.4695424600000004 8.2043150400000009 47.8173264600000110 Ce
atom 9.5717005299999993 9.5717005999999998 46.4499374600000081 O
atom 6.8369287099999996 6.8369284400000003 46.4499377600000116 O
atom 6.8369289400000008 9.5717006399999995 46.4499375900000047 O
atom 9.5717008400000019 6.8369286200000001 46.4499379500000060 O
