#===============================================================================
# Created using the Atomic Simulation Environment (ASE)

# Mon Mar 23 14:00:24 2026

#=======================================================
lattice_vector 15.4702201436246050 0.0000000000000000 0.0000000000000000 
lattice_vector 0.0000000000000000 10.9390864000000008 0.0000000000000000 
lattice_vector 0.0000000000000000 0.0000000000000000 37.7351113180723701 
atom 13.5364902015831579 9.5717004499999998 15.0000004295675176 O
atom 13.5364900743042949 6.8369292700000006 15.0000007831210382 O
atom 11.6027121762812513 5.4695446900000011 15.0000007106429791 Ce
atom 13.5364899045983531 4.1021581900000008 15.0000004719942268 O
atom 9.6689349641519353 4.1021577000000011 15.0000007866566492 O
atom 3.8676021610375226 10.9390850300000029 15.0000007389271914 Ce
atom 1.9338248145577881 6.8369296000000004 15.0000006947328437 O
atom 1.9338247226338603 9.5717003900000002 15.0000006452354704 O
atom 3.8676022600323270 5.4695448400000011 15.0000005975057391 Ce
atom 0.0000477226358413 10.9390859000000020 15.0000000000000000 Ce
atom 0.0000476872808617 5.4695442800000009 15.0000003464823628 Ce
atom 7.7351575469620366 10.9390849900000013 15.0000012374371217 Ce
atom 5.8013837837455249 8.2043143399999998 16.9337783205157031 Ce
atom 9.6689382928574474 8.2043140300000026 16.9337786351787614 Ce
atom 7.7351652155350701 10.9390847500000010 18.8675562627288507 Ce
atom 5.8013877417755007 6.8369294800000002 18.8675556104228015 O
atom 9.6689428943545401 9.5717002500000028 18.8675558755877297 O
atom 7.7351612221493244 9.5717001900000032 16.9337785556287876 O
atom 7.7351693291283592 6.8369294100000007 20.8013333829301708 O
atom 7.7351689897172040 9.5717001000000028 20.8013334819254716 O
atom 7.7351610807277718 6.8369293100000004 16.9337783576390279 O
atom 9.6689428307151353 6.8369293600000010 18.8675560806487574 O
atom 5.8013878973392954 9.5716999200000021 18.8675559074074961 O
atom 7.7351575328195556 5.4695443400000006 15.0000008980258777 Ce
atom 5.8013839605223883 2.7347710900000002 16.9337784831500748 Ce
atom 9.6689383847817663 2.7347718300000019 16.9337790665137931 Ce
atom 7.7351650529003386 5.4695447100000019 18.8675561000944647 Ce
atom 5.8013881024001783 1.3673854400000012 18.8675558296255339 O
atom 9.6689424559489723 4.1021579800000012 18.8675564978421413 O
atom 7.7351610736568812 4.1021582000000008 16.9337785344157368 O
atom 7.7351692018487306 1.3673855000000015 20.8013329869505021 O
atom 7.7351690533565485 4.1021579300000015 20.8013332202958914 O
atom 7.7351614130682833 1.3673853000000007 16.9337786758367450 O
atom 9.6689422508876710 1.3673857900000004 18.8675561796442999 O
atom 5.8013881024002956 4.1021576200000016 18.8675559427626247 O
atom 3.8676109751232932 10.9390852000000027 18.8675555238014532 Ce
atom 1.9338370068465098 8.2043142100000033 20.8013332927738226 Ce
atom 5.8013919826484326 8.2043137300000009 20.8013331407459283 Ce
atom 11.6027123389163052 10.9390852300000017 15.0000011985464958 Ce
atom 9.6689348085885030 6.8369296100000003 15.0000008432253509 O
atom 5.8013958982520712 9.5717004499999998 22.7351105013637458 O
atom 3.8676145230319214 9.5717002900000026 20.8013333935365416 O
atom 11.6027160636011200 6.8369293000000004 16.9337785662355849 O
atom 11.6027158443980269 9.5717002900000026 16.9337785733068742 O
atom 3.8676142967572340 6.8369291399999996 20.8013328844198817 O
atom 5.8013957709732127 6.8369292700000006 22.7351108549172700 O
atom 9.6689349995074245 9.5717000000000017 15.0000009351490355 O
atom 3.8676109044121523 5.4695439300000022 18.8675550712531965 Ce
atom 1.9338367735012278 2.7347708800000015 20.8013332432765843 Ce
atom 5.8013920462882709 2.7347708499999999 20.8013333599489592 Ce
atom 3.8676178729501713 5.4695446900000011 22.7351107824392109 Ce
atom 9.6689348863706606 1.3673857300000005 15.0000012462761383 O
atom 5.8013956012672745 4.1021581900000008 22.7351105437904586 O
atom 3.8676143603971962 4.1021578300000003 20.8013332309021486 O
atom 11.6027161555245950 1.3673861000000014 16.9337781631846234 O
atom 11.6027160918850338 4.1021581500000011 16.9337782126821637 O
atom 3.8676143533262786 1.3673852400000008 20.8013333793945669 O
atom 13.5364899187410206 1.3673855200000007 15.0000009952532345 O
atom 1.9338406608208529 4.1021577000000011 22.7351108584528738 O
atom 11.6027197246459615 10.9390861800000021 18.8675555733002831 Ce
atom 9.6689462372018866 8.2043144900000016 20.8013334271249768 Ce
atom 13.5365016019127822 8.2043144699999999 20.8013335225840414 Ce
atom 11.6027280013310445 10.9390850300000029 22.7351108107234232 Ce
atom 9.6689506548513098 6.8369296000000004 22.7351107665290790 O
atom 5.8013798610707346 9.5717003100000007 15.0000008821161366 O
atom 11.6027240433005190 9.5717004200000009 20.8013329834151683 O
atom 3.8676063736260966 6.8369295600000006 16.9337781843975321 O
atom 3.8676064796921481 9.5717002800000035 16.9337782197527602 O
atom 11.6027240362296293 6.8369297000000016 20.8013331601918630 O
atom 5.8013800166341509 6.8369294700000012 15.0000008114053003 O
atom 9.6689505629273818 9.5717003900000002 22.7351107170316915 O
atom 11.6027200923420377 5.4695438900000006 18.8675561107010559 Ce
atom 9.6689460887101308 2.7347711900000000 20.8013340847344246 Ce
atom 13.5365015877710224 2.7347707600000004 20.8013338902795830 Ce
atom 11.6027281003258480 5.4695448400000011 22.7351106693019638 Ce
atom 1.9338251186139843 1.3673854800000009 15.0000009705041819 O
atom 5.8013797974311920 4.1021580000000020 15.0000009457558114 O
atom 11.6027240857275711 4.1021576000000017 20.8013336198112349 O
atom 3.8676065504027668 1.3673853700000005 16.9337781631841509 O
atom 3.8676066776815987 4.1021578900000017 16.9337777813463575 O
atom 11.6027238877375769 1.3673855800000005 20.8013335208164882 O
atom 5.8013798893552506 1.3673851400000014 15.0000011225324137 O
atom 1.9338250691164207 4.1021581200000012 15.0000008785803551 O
atom 7.7351735629293774 10.9390859000000020 22.7351100717962318 Ce
atom 13.5364931908770778 8.2043145300000013 16.9337779528208472 Ce
atom 1.9338291261410772 8.2043145800000001 16.9337778997867794 Ce
atom 0.0000548891640049 10.9390851700000020 18.8675559516021316 Ce
atom 13.5364975731716353 6.8369295700000015 18.8675557518444030 O
atom 1.9338328932527882 9.5717004100000000 18.8675557483084368 O
atom 0.0000511432653009 9.5717004200000009 16.9337779121616201 O
atom 0.0000591653922113 6.8369295800000023 20.8013334182856049 O
atom 0.0000592785293660 9.5717001500000016 20.8013334889961676 O
atom 0.0000511715497339 6.8369297200000005 16.9337780677250898 O
atom 1.9338330983135685 6.8369293600000010 18.8675555715315291 O
atom 13.5364972974000199 9.5717004200000009 18.8675557730578909 O
atom 7.7351735275743838 5.4695442800000009 22.7351104182785839 Ce
atom 13.5364936363545141 2.7347719800000023 16.9337781154549560 Ce
atom 1.9338294796945346 2.7347713600000012 16.9337779704970934 Ce
atom 0.0000551295801358 5.4695446100000007 18.8675557818962538 Ce
atom 13.5364977711614536 1.3673858000000012 18.8675556669913895 O
atom 1.9338328013289359 4.1021579300000015 18.8675557836638639 O
atom 0.0000515675296724 4.1021579600000013 16.9337782091460340 O
atom 0.0000591653923899 1.3673852800000006 20.8013335879912340 O
atom 0.0000591158946271 4.1021577500000008 20.8013333122196364 O
atom 0.0000512846870054 1.3673857600000019 16.9337782515727291 O
atom 1.9338328791104582 1.3673852400000008 18.8675555644606838 O
atom 13.5364978984412527 4.1021577800000006 18.8675562326766872 O
atom 0.0000632436309466 10.9390849900000013 22.7351113092333499 Ce
atom 0.0000632294884725 5.4695443400000006 22.7351109698221059 Ce
atom 3.8676180355852265 10.9390852300000017 22.7351112703427241 Ce
atom 1.9338405052574232 6.8369296100000003 22.7351109150215827 O
atom 1.9338406961763410 9.5717000000000017 22.7351110069452638 O
atom 1.9338405830395711 1.3673857300000005 22.7351113180723665 O
atom 5.8013956154099402 1.3673855200000007 22.7351110670494627 O
atom 13.5365057013642573 9.5717003100000007 22.7351109539123577 O
atom 13.5365058569276719 6.8369294700000012 22.7351108832015321 O
atom 9.6689509589075122 1.3673854800000009 22.7351110423004066 O
atom 13.5365056377247139 4.1021580000000020 22.7351110175520326 O
atom 13.5365057296487787 1.3673851400000014 22.7351111943286419 O
atom 9.6689509094099417 4.1021581200000012 22.7351109503765834 O
