#===============================================================================
# Created using the Atomic Simulation Environment (ASE)

# Mon Mar 23 14:00:24 2026

#=======================================================
lattice_vector 15.4702201436246050 0.0000000000000000 0.0000000000000000 
lattice_vector 0.0000000000000000 10.9390864000000008 0.0000000000000000 
lattice_vector 0.0000000000000000 0.0000000000000000 51.2715536803184690 
atom 5.8013522467830860 8.2043143399999998 15.0000005391693456 Ce
atom 9.6689067558950086 8.2043140300000026 15.0000008538323986 Ce
atom 7.7351336785726277 10.9390847500000010 16.9337784813824968 Ce
atom 5.8013562048130591 6.8369294800000002 16.9337778290764476 O
atom 9.6689113573921048 9.5717002500000028 16.9337780942413687 O
atom 7.7351296851868856 9.5717001900000032 15.0000007742824266 O
atom 7.7351377921659239 6.8369294100000007 18.8675556015838168 O
atom 7.7351374527547652 9.5717001000000028 18.8675557005791106 O
atom 7.7351295437653258 6.8369293100000004 15.0000005762926740 O
atom 9.6689112937527000 6.8369293600000010 16.9337782993024000 O
atom 5.8013563603768556 9.5716999200000021 16.9337781260611351 O
atom 5.8013524235599423 2.7347710900000002 15.0000007018037209 Ce
atom 9.6689068478193239 2.7347718300000019 15.0000012851674374 Ce
atom 7.7351335159379024 5.4695447100000019 16.9337783187481037 Ce
atom 5.8013565654377395 1.3673854400000012 16.9337780482791800 O
atom 9.6689109189865263 4.1021579800000012 16.9337787164957838 O
atom 7.7351295366944388 4.1021582000000008 15.0000007530693757 O
atom 7.7351376648862953 1.3673855000000015 18.8675552056041482 O
atom 7.7351375163941123 4.1021579300000015 18.8675554389495375 O
atom 7.7351298761058418 1.3673853000000007 15.0000008944903858 O
atom 9.6689107139252393 1.3673857900000004 16.9337783982979460 O
atom 5.8013565654378558 4.1021576200000016 16.9337781614162672 O
atom 3.8675794381608473 10.9390852000000027 16.9337777424550993 Ce
atom 1.9338054698840743 8.2043142100000033 18.8675555114274651 Ce
atom 5.8013604456859902 8.2043137300000009 18.8675553593995673 Ce
atom 5.8013643612896360 9.5717004499999998 20.8013327200173919 O
atom 3.8675829860694857 9.5717002900000026 18.8675556121901806 O
atom 11.6026845266386864 6.8369293000000004 15.0000007848892292 O
atom 11.6026843074355899 9.5717002900000026 15.0000007919605185 O
atom 3.8675827597947916 6.8369291399999996 18.8675551030735278 O
atom 5.8013642340107729 6.8369292700000006 20.8013330735709161 O
atom 3.8675793674497134 5.4695439300000022 16.9337772899068355 Ce
atom 1.9338052365387854 2.7347708800000015 18.8675554619302304 Ce
atom 5.8013605093258285 2.7347708499999999 18.8675555786026052 Ce
atom 3.8675863359877258 5.4695446900000011 20.8013330010928570 Ce
atom 5.8013640643048321 4.1021581900000008 20.8013327624441047 O
atom 3.8675828234347573 4.1021578300000003 18.8675554495557911 O
atom 11.6026846185621562 1.3673861000000014 15.0000003818382677 O
atom 11.6026845549225932 4.1021581500000011 15.0000004313358062 O
atom 3.8675828163638433 1.3673852400000008 18.8675555980482201 O
atom 1.9338091238584176 4.1021577000000011 20.8013330771065270 O
atom 11.6026881876835262 10.9390861800000021 16.9337777919539221 Ce
atom 9.6689147002394407 8.2043144900000016 18.8675556457786087 Ce
atom 13.5364700649503433 8.2043144699999999 18.8675557412376911 Ce
atom 11.6026964643686021 10.9390850300000029 20.8013330293770693 Ce
atom 9.6689191178888709 6.8369296000000004 20.8013329851827180 O
atom 11.6026925063380801 9.5717004200000009 18.8675552020688144 O
atom 3.8675748366636507 6.8369295600000006 15.0000004030511782 O
atom 3.8675749427297093 9.5717002800000035 15.0000004384064063 O
atom 11.6026924992671905 6.8369297000000016 18.8675553788455126 O
atom 9.6689190259649465 9.5717003900000002 20.8013329356853376 O
atom 11.6026885553795918 5.4695438900000006 16.9337783293546984 Ce
atom 9.6689145517476884 2.7347711900000000 18.8675563033880671 Ce
atom 13.5364700508085800 2.7347707600000004 18.8675561089332327 Ce
atom 11.6026965633634056 5.4695448400000011 20.8013328879556099 Ce
atom 11.6026925487651340 4.1021576000000017 18.8675558384648703 O
atom 3.8675750134403279 1.3673853700000005 15.0000003818377952 O
atom 3.8675751407191599 4.1021578900000017 15.0000000000000000 O
atom 11.6026923507751345 1.3673855800000005 18.8675557394701237 O
atom 7.7351420259669279 10.9390859000000020 20.8013322904498708 Ce
atom 13.5364616539146390 8.2043145300000013 15.0000001714744915 Ce
atom 1.9337975891786348 8.2043145800000001 15.0000001184404219 Ce
atom 0.0000233522015659 10.9390851700000020 16.9337781702557706 Ce
atom 13.5364660362092017 6.8369295700000015 16.9337779704980491 O
atom 1.9338013562903491 9.5717004100000000 16.9337779669620758 O
atom 0.0000196063028620 9.5717004200000009 15.0000001308152626 O
atom 0.0000276284297758 6.8369295800000023 18.8675556369392439 O
atom 0.0000277415669306 9.5717001500000016 18.8675557076498066 O
atom 0.0000196345872915 6.8369297200000005 15.0000002863787270 O
atom 1.9338015613511295 6.8369293600000010 16.9337777901851716 O
atom 13.5364657604375775 9.5717004200000009 16.9337779917115299 O
atom 7.7351419906119414 5.4695442800000009 20.8013326369322336 Ce
atom 13.5364620993920752 2.7347719800000023 15.0000003341085968 Ce
atom 1.9337979427320957 2.7347713600000012 15.0000001891507395 Ce
atom 0.0000235926176969 5.4695446100000007 16.9337780005498999 Ce
atom 13.5364662341990147 1.3673858000000012 16.9337778856450285 O
atom 1.9338012643665003 4.1021579300000015 16.9337780023175100 O
atom 0.0000200305672335 4.1021579600000013 15.0000004277996783 O
atom 0.0000276284299441 1.3673852800000006 18.8675558066448801 O
atom 0.0000275789321882 4.1021577500000008 18.8675555308732825 O
atom 0.0000197477245631 1.3673857600000019 15.0000004702263734 O
atom 1.9338013421480262 1.3673852400000008 16.9337777831143299 O
atom 13.5364663614788103 4.1021577800000006 16.9337784513303262 O
atom 0.0000317066685145 10.9390849900000013 20.8013335278869960 Ce
atom 13.5364780870766044 8.2043143399999998 22.7351106109655703 Ce
atom 1.9338124525639253 8.2043140300000026 22.7351109256286286 Ce
atom 0.0000393752415484 10.9390847500000010 24.6688885531787285 Ce
atom 13.5364820451065810 6.8369294800000002 24.6688879008726722 O
atom 1.9338170540610118 9.5717002500000028 24.6688881660376040 O
atom 0.0000353818558029 9.5717001900000032 22.7351108460786548 O
atom 0.0000434888348373 6.8369294100000007 26.6026656733800451 O
atom 0.0000431494236823 9.5717001000000028 26.6026657723753388 O
atom 0.0000352404342427 6.8369293100000004 22.7351106480889023 O
atom 1.9338169904216200 6.8369293600000010 24.6688883710986318 O
atom 13.5364822006703740 9.5716999200000021 24.6688881978573669 O
atom 0.0000316925260336 5.4695443400000006 20.8013331884757520 Ce
atom 13.5364782638534678 2.7347710900000002 22.7351107735999491 Ce
atom 1.9338125444882379 2.7347718300000019 22.7351113569636709 Ce
atom 0.0000392126068164 5.4695447100000019 24.6688883905443319 Ce
atom 13.5364824057312614 1.3673854400000012 24.6688881200754082 O
atom 1.9338166156554442 4.1021579800000012 24.6688887882920120 O
atom 0.0000352333633526 4.1021582000000008 22.7351108248656004 O
atom 0.0000433615552154 1.3673855000000015 26.6026652774003765 O
atom 0.0000432130630330 4.1021579300000015 26.6026655107457692 O
atom 0.0000355727747549 1.3673853000000007 22.7351109662866122 O
atom 1.9338164105941622 1.3673857900000004 24.6688884700941742 O
atom 13.5364824057313786 4.1021576200000016 24.6688882332124990 O
atom 11.6027052784543692 10.9390852000000027 24.6688878142513275 Ce
atom 9.6689313101775962 8.2043142100000033 26.6026655832236969 Ce
atom 13.5364862859795121 8.2043137300000009 26.6026654311957991 Ce
atom 3.8675864986227877 10.9390852300000017 20.8013334889963701 Ce
atom 1.9338089682949742 6.8369296100000003 20.8013331336752216 O
atom 13.5364902015831579 9.5717004499999998 28.5364427918136201 O
atom 11.6027088263630045 9.5717002900000026 26.6026656839864124 O
atom 3.8675902233076016 6.8369293000000004 22.7351108566854556 O
atom 3.8675900041045019 9.5717002900000026 22.7351108637567485 O
atom 11.6027086000883166 6.8369291399999996 26.6026651748697560 O
atom 13.5364900743042949 6.8369292700000006 28.5364431453671408 O
atom 1.9338091592139022 9.5717000000000017 20.8013332255989134 O
atom 11.6027052077432327 5.4695439300000022 24.6688873617030637 Ce
atom 9.6689310768323082 2.7347708800000015 26.6026655337264586 Ce
atom 13.5364863496193504 2.7347708499999999 26.6026656503988370 Ce
atom 11.6027121762812513 5.4695446900000011 28.5364430728890817 Ce
atom 1.9338090460771320 1.3673857300000005 20.8013335367260090 O
atom 13.5364899045983531 4.1021581900000008 28.5364428342403293 O
atom 11.6027086637282828 4.1021578300000003 26.6026655213520229 O
atom 3.8675903152310727 1.3673861000000014 22.7351104536344977 O
atom 3.8675902515915124 4.1021581500000011 22.7351105031320380 O
atom 11.6027086566573647 1.3673852400000008 26.6026656698444519 O
atom 5.8013640784474978 1.3673855200000007 20.8013332857031052 O
atom 9.6689349641519353 4.1021577000000011 28.5364431489027517 O
atom 3.8675938843524329 10.9390861800000021 24.6688878637501503 Ce
atom 1.9338203969083514 8.2043144900000016 26.6026657175748369 Ce
atom 5.8013757616192603 8.2043144699999999 26.6026658130339193 Ce
atom 3.8676021610375226 10.9390850300000029 28.5364431011732940 Ce
atom 1.9338248145577881 6.8369296000000004 28.5364430569789462 O
atom 13.5364741644018185 9.5717003100000007 20.8013331725660073 O
atom 3.8675982030069971 9.5717004200000009 26.6026652738650355 O
atom 11.6027006769571770 6.8369295600000006 22.7351104748474064 O
atom 11.6027007830232343 9.5717002800000035 22.7351105102026345 O
atom 3.8675981959361070 6.8369297000000016 26.6026654506417408 O
atom 13.5364743199652366 6.8369294700000012 20.8013331018551710 O
atom 1.9338247226338603 9.5717003900000002 28.5364430074815729 O
atom 3.8675942520485087 5.4695438900000006 24.6688884011509266 Ce
atom 1.9338202484166018 2.7347711900000000 26.6026663751842953 Ce
atom 5.8013757474775005 2.7347707600000004 26.6026661807294609 Ce
atom 3.8676022600323270 5.4695448400000011 28.5364429597518416 Ce
atom 9.6689194219450680 1.3673854800000009 20.8013332609540598 O
atom 13.5364741007622715 4.1021580000000020 20.8013332362056822 O
atom 3.8675982454340483 4.1021576000000017 26.6026659102611021 O
atom 11.6027008537338538 1.3673853700000005 22.7351104536340252 O
atom 11.6027009810126849 4.1021578900000017 22.7351100717962318 O
atom 3.8675980474440483 1.3673855800000005 26.6026658112663519 O
atom 13.5364741926863399 1.3673851400000014 20.8013334129822809 O
atom 9.6689193724475029 4.1021581200000012 20.8013331690302223 O
atom 0.0000477226358413 10.9390859000000020 28.5364423622461025 Ce
atom 5.8013673505835524 8.2043145300000013 22.7351102432707215 Ce
atom 9.6689234294721533 8.2043145800000001 22.7351101902366537 Ce
atom 7.7351491924950881 10.9390851700000020 24.6688882420520059 Ce
atom 5.8013717328781196 6.8369295700000015 24.6688880422942773 O
atom 9.6689271965838675 9.5717004100000000 24.6688880387583076 O
atom 7.7351454465963876 9.5717004200000009 22.7351102026114908 O
atom 7.7351534687232943 6.8369295800000023 26.6026657087354792 O
atom 7.7351535818604491 9.5717001500000016 26.6026657794460348 O
atom 7.7351454748808166 6.8369297200000005 22.7351103581749570 O
atom 9.6689274016446554 6.8369293600000010 24.6688878619813998 O
atom 5.8013714571064945 9.5717004200000009 24.6688880635077616 O
atom 0.0000476872808617 5.4695442800000009 28.5364427087284653 Ce
atom 5.8013677960609931 2.7347719800000023 22.7351104059048268 Ce
atom 9.6689237830256136 2.7347713600000012 22.7351102609469677 Ce
atom 7.7351494329112187 5.4695446100000007 24.6688880723461281 Ce
atom 5.8013719308679308 1.3673858000000012 24.6688879574412603 O
atom 9.6689271046600229 4.1021579300000015 24.6688880741137382 O
atom 7.7351458708607552 4.1021579600000013 22.7351104995959048 O
atom 7.7351534687234658 1.3673852800000006 26.6026658784411048 O
atom 7.7351534192257105 4.1021577500000008 26.6026656026695107 O
atom 7.7351455880180886 1.3673857600000019 22.7351105420226034 O
atom 9.6689271824415481 1.3673852400000008 24.6688878549105581 O
atom 5.8013720581477282 4.1021577800000006 24.6688885231265616 O
atom 7.7351575469620366 10.9390849900000013 28.5364435996832242 Ce
atom 5.8013837837455249 8.2043143399999998 30.4702206827618056 Ce
atom 9.6689382928574474 8.2043140300000026 30.4702209974248639 Ce
atom 7.7351652155350701 10.9390847500000010 32.4039986249749532 Ce
atom 5.8013877417755007 6.8369294800000002 32.4039979726689040 O
atom 9.6689428943545401 9.5717002500000028 32.4039982378338323 O
atom 7.7351612221493244 9.5717001900000032 30.4702209178748902 O
atom 7.7351693291283592 6.8369294100000007 34.3377757451762733 O
atom 7.7351689897172040 9.5717001000000028 34.3377758441715741 O
atom 7.7351610807277718 6.8369293100000004 30.4702207198851305 O
atom 9.6689428307151353 6.8369293600000010 32.4039984428948600 O
atom 5.8013878973392954 9.5716999200000021 32.4039982696535986 O
atom 7.7351575328195556 5.4695443400000006 28.5364432602719802 Ce
atom 5.8013839605223883 2.7347710900000002 30.4702208453961774 Ce
atom 9.6689383847817663 2.7347718300000019 30.4702214287598956 Ce
atom 7.7351650529003386 5.4695447100000019 32.4039984623405672 Ce
atom 5.8013881024001783 1.3673854400000012 32.4039981918716364 O
atom 9.6689424559489723 4.1021579800000012 32.4039988600882438 O
atom 7.7351610736568812 4.1021582000000008 30.4702208966618393 O
atom 7.7351692018487306 1.3673855000000015 34.3377753491966047 O
atom 7.7351690533565485 4.1021579300000015 34.3377755825419939 O
atom 7.7351614130682833 1.3673853000000007 30.4702210380828475 O
atom 9.6689422508876710 1.3673857900000004 32.4039985418904024 O
atom 5.8013881024002956 4.1021576200000016 32.4039983050087272 O
atom 3.8676109751232932 10.9390852000000027 32.4039978860475557 Ce
atom 1.9338370068465098 8.2043142100000033 34.3377756550199251 Ce
atom 5.8013919826484326 8.2043137300000009 34.3377755029920309 Ce
atom 11.6027123389163052 10.9390852300000017 28.5364435607925984 Ce
atom 9.6689348085885030 6.8369296100000003 28.5364432054714534 O
atom 5.8013958982520712 9.5717004499999998 36.2715528636098483 O
atom 3.8676145230319214 9.5717002900000026 34.3377757557826442 O
atom 11.6027160636011200 6.8369293000000004 30.4702209284816874 O
atom 11.6027158443980269 9.5717002900000026 30.4702209355529767 O
atom 3.8676142967572340 6.8369291399999996 34.3377752466659842 O
atom 5.8013957709732127 6.8369292700000006 36.2715532171633726 O
atom 9.6689349995074245 9.5717000000000017 28.5364432973951381 O
atom 3.8676109044121523 5.4695439300000022 32.4039974334992991 Ce
atom 1.9338367735012278 2.7347708800000015 34.3377756055226868 Ce
atom 5.8013920462882709 2.7347708499999999 34.3377757221950617 Ce
atom 3.8676178729501713 5.4695446900000011 36.2715531446853134 Ce
atom 9.6689348863706606 1.3673857300000005 28.5364436085222408 O
atom 5.8013956012672745 4.1021581900000008 36.2715529060365611 O
atom 3.8676143603971962 4.1021578300000003 34.3377755931482511 O
atom 11.6027161555245950 1.3673861000000014 30.4702205254307259 O
atom 11.6027160918850338 4.1021581500000011 30.4702205749282662 O
atom 3.8676143533262786 1.3673852400000008 34.3377757416406695 O
atom 13.5364899187410206 1.3673855200000007 28.5364433574993370 O
atom 1.9338406608208529 4.1021577000000011 36.2715532206989764 O
atom 11.6027197246459615 10.9390861800000021 32.4039979355463856 Ce
atom 9.6689462372018866 8.2043144900000016 34.3377757893710793 Ce
atom 13.5365016019127822 8.2043144699999999 34.3377758848301440 Ce
atom 11.6027280013310445 10.9390850300000029 36.2715531729695257 Ce
atom 9.6689506548513098 6.8369296000000004 36.2715531287751816 O
atom 5.8013798610707346 9.5717003100000007 28.5364432443622391 O
atom 11.6027240433005190 9.5717004200000009 34.3377753456612709 O
atom 3.8676063736260966 6.8369295600000006 30.4702205466436347 O
atom 3.8676064796921481 9.5717002800000035 30.4702205819988627 O
atom 11.6027240362296293 6.8369297000000016 34.3377755224379655 O
atom 5.8013800166341509 6.8369294700000012 28.5364431736514028 O
atom 9.6689505629273818 9.5717003900000002 36.2715530792777940 O
atom 11.6027200923420377 5.4695438900000006 32.4039984729471584 Ce
atom 9.6689460887101308 2.7347711900000000 34.3377764469805271 Ce
atom 13.5365015877710224 2.7347707600000004 34.3377762525256855 Ce
atom 11.6027281003258480 5.4695448400000011 36.2715530315480663 Ce
atom 1.9338251186139843 1.3673854800000009 28.5364433327502844 O
atom 5.8013797974311920 4.1021580000000020 28.5364433080019140 O
atom 11.6027240857275711 4.1021576000000017 34.3377759820573374 O
atom 3.8676065504027668 1.3673853700000005 30.4702205254302534 O
atom 3.8676066776815987 4.1021578900000017 30.4702201435924600 O
atom 11.6027238877375769 1.3673855800000005 34.3377758830625908 O
atom 5.8013798893552506 1.3673851400000014 28.5364434847785162 O
atom 1.9338250691164207 4.1021581200000012 28.5364432408264577 O
atom 7.7351735629293774 10.9390859000000020 36.2715524340423343 Ce
atom 13.5364931908770778 8.2043145300000013 30.4702203150669497 Ce
atom 1.9338291261410772 8.2043145800000001 30.4702202620328819 Ce
atom 0.0000548891640049 10.9390851700000020 32.4039983138482341 Ce
atom 13.5364975731716353 6.8369295700000015 32.4039981140905056 O
atom 1.9338328932527882 9.5717004100000000 32.4039981105545394 O
atom 0.0000511432653009 9.5717004200000009 30.4702202744077226 O
atom 0.0000591653922113 6.8369295800000023 34.3377757805317074 O
atom 0.0000592785293660 9.5717001500000016 34.3377758512422702 O
atom 0.0000511715497339 6.8369297200000005 30.4702204299711923 O
atom 1.9338330983135685 6.8369293600000010 32.4039979337776316 O
atom 13.5364972974000199 9.5717004200000009 32.4039981353039934 O
atom 7.7351735275743838 5.4695442800000009 36.2715527805246865 Ce
atom 13.5364936363545141 2.7347719800000023 30.4702204777010586 Ce
atom 1.9338294796945346 2.7347713600000012 30.4702203327431960 Ce
atom 0.0000551295801358 5.4695446100000007 32.4039981441423564 Ce
atom 13.5364977711614536 1.3673858000000012 32.4039980292374921 O
atom 1.9338328013289359 4.1021579300000015 32.4039981459099664 O
atom 0.0000515675296724 4.1021579600000013 30.4702205713921366 O
atom 0.0000591653923899 1.3673852800000006 34.3377759502373365 O
atom 0.0000591158946271 4.1021577500000008 34.3377756744657390 O
atom 0.0000512846870054 1.3673857600000019 30.4702206138188316 O
atom 1.9338328791104582 1.3673852400000008 32.4039979267067864 O
atom 13.5364978984412527 4.1021577800000006 32.4039985949227898 O
atom 0.0000632436309466 10.9390849900000013 36.2715536714794524 Ce
atom 0.0000632294884725 5.4695443400000006 36.2715533320682084 Ce
atom 3.8676180355852265 10.9390852300000017 36.2715536325888266 Ce
atom 1.9338405052574232 6.8369296100000003 36.2715532772676852 O
atom 1.9338406961763410 9.5717000000000017 36.2715533691913663 O
atom 1.9338405830395711 1.3673857300000005 36.2715536803184690 O
atom 5.8013956154099402 1.3673855200000007 36.2715534292955653 O
atom 13.5365057013642573 9.5717003100000007 36.2715533161584602 O
atom 13.5365058569276719 6.8369294700000012 36.2715532454476346 O
atom 9.6689509589075122 1.3673854800000009 36.2715534045465091 O
atom 13.5365056377247139 4.1021580000000020 36.2715533797981351 O
atom 13.5365057296487787 1.3673851400000014 36.2715535565747444 O
atom 9.6689509094099417 4.1021581200000012 36.2715533126226859 O
