#===============================================================================
# Created using the Atomic Simulation Environment (ASE)

# Mon Mar 23 14:01:00 2026

#=======================================================
lattice_vector 9.0722883300002515 0.0000000000000000 0.0000000000000000 
lattice_vector 0.0000042800008374 9.0722918799992431 0.0000000000000000 
lattice_vector 0.0000000000000000 0.0000000000000000 47.5533577924999804 
atom 2.2680556137989738 2.2680900250039460 15.0000094199999943 Ir
atom 0.8679314140633925 3.6682089052696996 15.0000075315432930 O
atom 3.6682016435285174 0.8679455447330430 15.0000112784566717 O
atom 2.2680559673171570 2.2680912850038615 18.1915373199999948 Ir
atom 0.0000107705539841 0.0000015399974569 16.5957728424999615 Ir
atom 3.1359800502917343 3.1360358202752141 16.5957734090433178 O
atom 0.8679311875816982 3.6682106752697523 18.1915370715432907 O
atom 1.4001132808281809 1.4001615297368981 16.5957733709566888 O
atom 3.6682015770469865 0.8679480547330578 18.1915313084566677 O
atom 2.2680519737898690 6.8041956350049304 15.0000000000000000 Ir
atom 3.1360095338055487 7.6721627802683869 19.7872885190432868 O
atom 0.8679166440558128 8.2043209052733097 15.0000141915433112 O
atom 1.4001182443360254 5.9362631897358522 19.7872877109566865 O
atom 3.6681810735220592 5.4040623247380228 15.0000135084566963 O
atom 2.2680517273082521 6.8041976650049882 18.1915441999999992 Ir
atom 0.0000118605543792 4.5361473899973266 16.5957706924999613 Ir
atom 3.1360008702849074 7.6721510502704318 16.5957720590432984 O
atom 0.8679155275739361 8.2043219452735716 18.1915344615433128 O
atom 1.4001313608208030 5.9362744197327588 16.5957728709566723 O
atom 3.6681803070402657 5.4040637147382009 18.1915337584566963 O
atom 6.8042388338001443 2.2680944349947336 15.0000120249999505 Ir
atom 4.5361465040716453 0.0000001199994449 19.7872858074999698 Ir
atom 5.4041100040682899 3.6682290852615793 15.0000168565432546 O
atom 5.9362901043398439 1.4001346797291931 19.7872884959566520 O
atom 8.2043784135344104 0.8679699447253520 15.0000208334566345 O
atom 6.8042421773177226 2.2680931649939442 18.1915328149999453 Ir
atom 4.5361393305541382 9.0722899900013907 16.5957723174999856 Ir
atom 7.6721727002906865 3.1360308502637779 16.5957718040432596 O
atom 5.4041120775858467 3.6682277552610887 18.1915301565432515 O
atom 5.9362804108202667 1.4001274497314806 16.5957728359566623 O
atom 8.2043801770518279 0.8679680547249352 18.1915275834566330 O
atom 6.8042378937923713 6.8042056049950812 15.0000215249999531 Ir
atom 4.5361505940726472 4.5361485199986067 19.7872888774999680 Ir
atom 7.6721866537964578 7.6721237002606131 19.7872885840432495 O
atom 5.4040889040622515 8.2043476552666821 15.0000163565432789 O
atom 8.2043608235273418 5.4040841647296274 15.0000158734566575 O
atom 6.8042371573091591 6.8042010749952553 18.1915236749999529 Ir
atom 4.5361392605533757 4.5361425800012789 16.5957743974999801 Ir
atom 7.6721932802833859 7.6721440602590505 16.5957733540432422 O
atom 5.4040900575794319 8.2043447452664076 18.1915259265432780 O
atom 5.9363027608136010 5.9362433597263342 16.5957716459566385 O
atom 8.2043611170444297 5.4040808547295578 18.1915284334566536 O
atom 2.2680556508347189 2.2680900150039354 21.3830420999999937 Ir
atom 9.0722870140721756 9.0722901400005593 19.7872924324999815 Ir
atom 3.1359813438135991 3.1360527402749088 19.7872892490433188 O
atom 0.8679314510991373 3.6682088952696890 21.3830402115432889 O
atom 1.4000971443453418 1.4001585097407030 19.7872897809567050 O
atom 3.6682016805642621 0.8679455347330326 21.3830439584566712 O
atom 2.2680560043529021 2.2680912750038504 24.5745699999999943 Ir
atom 0.0000108075897289 0.0000015299974465 22.9788055224999610 Ir
atom 3.1359800873274790 3.1360358102752035 22.9788060890433172 O
atom 0.8679312246174431 3.6682106652697417 24.5745697515432937 O
atom 1.4001133178639256 1.4001615197368875 22.9788060509566883 O
atom 3.6682016140827316 0.8679480447330474 24.5745639884566707 O
atom 2.2680520108256137 6.8041956250049207 21.3830326799999995 Ir
atom 9.0722832840723022 4.5361465200013145 19.7872896524999824 Ir
atom 3.1360095708412929 7.6721627702683755 26.1703211990432862 O
atom 0.8679166810915575 8.2043208952733000 21.3830468715433071 O
atom 1.4001182813717703 5.9362631797358416 26.1703203909566859 O
atom 3.6681811105578044 5.4040623147380131 21.3830461884566958 O
atom 2.2680517643439972 6.8041976550049785 24.5745768800000022 Ir
atom 0.0000118975901240 4.5361473799973160 22.9788033724999607 Ir
atom 3.1360009073206530 7.6721510402704212 22.9788047390432979 O
atom 0.8679155646096808 8.2043219352735619 24.5745671415433087 O
atom 1.4001313978565477 5.9362744097327500 22.9788055509566718 O
atom 3.6681803440760103 5.4040637047381912 24.5745664384566993 O
atom 6.8042388708358885 2.2680944249947235 21.3830447049999499 Ir
atom 4.5361465411073887 0.0000001099994345 26.1703184874999693 Ir
atom 7.6721659038059409 3.1360197402653802 19.7872895440432721 O
atom 5.4041100411040341 3.6682290752615687 21.3830495365432540 O
atom 5.9362901413755900 1.4001346697291825 26.1703211759566550 O
atom 8.2043784505701538 0.8679699347253418 21.3830535134566375 O
atom 6.8042422143534669 2.2680931549939336 24.5745654949999448 Ir
atom 4.5361393675898825 9.0722899800013810 22.9788049974999851 Ir
atom 7.6721727373264317 3.1360308402637673 22.9788044840432626 O
atom 5.4041121146215918 3.6682277452610781 24.5745628365432509 O
atom 5.9362804478560118 1.4001274397314700 22.9788055159566653 O
atom 8.2043802140875712 0.8679680447249248 24.5745602634566325 O
atom 6.8042379308281165 6.8042055949950724 21.3830542049999508 Ir
atom 4.5361506311083915 4.5361485099985961 26.1703215574999710 Ir
atom 7.6721866908322021 7.6721236902606016 26.1703212640432490 O
atom 5.4040889410979958 8.2043476452666724 21.3830490365432766 O
atom 5.9363207343331306 5.9362503697220950 19.7872897959566174 O
atom 8.2043608605630851 5.4040841547296186 21.3830485534566535 O
atom 6.8042371943449043 6.8042010649952447 24.5745563549999524 Ir
atom 4.5361392975891199 4.5361425700012692 22.9788070774999795 Ir
atom 7.6721933173191301 7.6721440502590408 22.9788060340432452 O
atom 5.4040900946151753 8.2043447352663978 24.5745586065432775 O
atom 5.9363027978493452 5.9362433497263245 22.9788043259566379 O
atom 8.2043611540801749 5.4040808447295481 24.5745611134566531 O
atom 2.2680556878704632 2.2680900050039252 27.7660747799999932 Ir
atom 9.0722870511079226 9.0722901300005478 26.1703251124999809 Ir
atom 3.1359813808493437 3.1360527302748986 26.1703219290433147 O
atom 0.8679314881348821 3.6682088852696793 27.7660728915432919 O
atom 1.4000971813810863 1.4001584997406926 26.1703224609567080 O
atom 3.6682017176000068 0.8679455247330222 27.7660766384566706 O
atom 2.2680560413886468 2.2680912650038407 30.9576026799999937 Ir
atom 0.0000108446254737 0.0000015199974361 29.3618382024999605 Ir
atom 3.1359801243632237 3.1360358002751934 29.3618387690433202 O
atom 0.8679312616531877 3.6682106552697316 30.9576024315432896 O
atom 1.4001133548996703 1.4001615097368771 29.3618387309566913 O
atom 3.6682016511184763 0.8679480347330369 30.9575966684566701 O
atom 2.2680520478613584 6.8041956150049101 27.7660653600000025 Ir
atom 9.0722833211080491 4.5361465100013039 26.1703223324999819 Ir
atom 3.1360096078770376 7.6721627602683649 32.5533538790432857 O
atom 0.8679167181273022 8.2043208852732885 27.7660795515433101 O
atom 1.4001183184075148 5.9362631697358310 32.5533530709566890 O
atom 3.6681811475935491 5.4040623047380025 27.7660788684566953 O
atom 2.2680518013797415 6.8041976450049679 30.9576095599999981 Ir
atom 0.0000119346258688 4.5361473699973054 29.3618360524999638 Ir
atom 3.1360009443563972 7.6721510302704106 29.3618374190432974 O
atom 0.8679156016454257 8.2043219252735504 30.9575998215433117 O
atom 1.4001314348922924 5.9362743997327385 29.3618382309566712 O
atom 3.6681803811117550 5.4040636947381806 30.9575991184566988 O
atom 6.8042389078716345 2.2680944149947129 27.7660773849999494 Ir
atom 4.5361465781431347 0.0000000999994241 32.5533511674999687 Ir
atom 7.6721659408416869 3.1360197302653705 26.1703222240432716 O
atom 5.4041100781397793 3.6682290652615586 27.7660822165432535 O
atom 5.9362901784113351 1.4001346597291726 32.5533538559566580 O
atom 8.2043784876058989 0.8679699247253312 27.7660861934566299 O
atom 6.8042422513892120 2.2680931449939234 30.9575981749999478 Ir
atom 4.5361394046256276 9.0722899700013695 29.3618376774999845 Ir
atom 7.6721727743621777 3.1360308302637572 29.3618371640432656 O
atom 5.4041121516573369 3.6682277352610684 30.9575955165432539 O
atom 5.9362804848917579 1.4001274297314596 29.3618381959566648 O
atom 8.2043802511233164 0.8679680347249145 30.9575929434566319 O
atom 6.8042379678638616 6.8042055849950609 27.7660868849999538 Ir
atom 4.5361506681441375 4.5361484999985855 32.5533542374999740 Ir
atom 7.6721867278679472 7.6721236802605910 32.5533539440432520 O
atom 5.4040889781337409 8.2043476352666609 27.7660817165432832 O
atom 5.9363207713688757 5.9362503597220853 26.1703224759566240 O
atom 8.2043608975988302 5.4040841447296071 27.7660812334566565 O
atom 6.8042372313806503 6.8042010549952341 30.9575890349999554 Ir
atom 4.5361393346248651 4.5361425600012586 29.3618397574999825 Ir
atom 7.6721933543548770 7.6721440402590311 29.3618387140432411 O
atom 5.4040901316509204 8.2043447252663864 30.9575912865432805 O
atom 5.9363028348850904 5.9362433397263148 29.3618370059566445 O
atom 8.2043611911159200 5.4040808347295375 30.9575937934566561 O
atom 9.0722870881436641 9.0722901200005399 32.5533577924999804 Ir
atom 3.1359814178850884 3.1360527202748880 32.5533546090433106 O
atom 1.4000972184168317 1.4001584897406822 32.5533551409567039 O
atom 9.0722833581437925 4.5361465000012933 32.5533550124999778 Ir
atom 7.6721659778774312 3.1360197202653595 32.5533549040432746 O
atom 5.9363208084046200 5.9362503497220738 32.5533551559566234 O
