#===============================================================================
# Created using the Atomic Simulation Environment (ASE)

# Mon Mar 23 14:01:00 2026

#=======================================================
lattice_vector 11.0927688637512336 0.0000000000000000 0.0000000000000000 
lattice_vector 3.6729463381512715 10.4670459790894856 0.0000000000000000 
lattice_vector 0.0000000000000000 0.0000000000000000 38.7841617881456671 
atom 7.4198229606329393 5.2597332521549918 15.8657799821146348 Ir
atom 10.4013916729420526 7.3733309612316935 15.0000221007601411 O
atom 8.5649219487898005 2.1397696072170063 15.0000000000000000 O
atom 4.8550346350219815 7.3732988216240551 15.0000241297181454 O
atom 1.8734378384823156 5.2597356621070270 15.8657754831923619 Ir
atom 3.0185703755184279 2.1397407173039249 15.0000104367044251 O
atom 8.3565397867289271 5.9237761118910610 19.2593574009531174 Ir
atom 3.7468801310848883 2.6560775098293061 20.3905533400049421 Ir
atom 9.9846107337519214 7.0779069214576218 18.9939359847148523 O
atom 7.2114408061323090 7.5391488175478347 19.2593528065213739 O
atom 8.5649070054231036 6.0715050845966818 17.2623992683562442 O
atom 9.5016566383811689 4.3083749647270730 19.2593600938491818 O
atom 10.1930048235968336 7.2256002679941815 16.9969797145990711 Ir
atom 5.5833668165554444 3.9579048429413741 18.1281741625715576 Ir
atom 11.8210808180447557 8.3797202848717109 16.7315405830238113 O
atom 9.0479044249503318 8.8409729131864481 16.9969762478102417 O
atom 6.7284488433940002 4.7696752189060074 19.5247954586504484 O
atom 11.3381258603276045 5.6102035349946515 16.9969772426069596 O
atom 8.3565387256946799 1.9920515388081168 16.9969410472094502 Ir
atom 7.4198250142193691 9.1914319716758985 18.1281650544713422 Ir
atom 9.9846307046525418 3.1461735084974007 16.7315438756445332 O
atom 7.2114213895618766 3.6074264181111810 16.9969454874305903 O
atom 8.5649254573930129 10.0031598439808072 19.5247733578903073 O
atom 9.5016350273696979 0.3766601798974518 16.9969491257190377 O
atom 6.5200510629085935 0.6902141433629837 19.2593483581976734 Ir
atom 5.5833654406640756 0.0262108248824591 15.8657853909737732 Ir
atom 8.1481522885612954 1.8443379960251245 18.9939203050727592 O
atom 5.3749467851096195 2.3055981753765646 19.2593349073677551 O
atom 6.7284604134230985 0.8379470838306360 17.2623998917210848 O
atom 11.3381070588268695 9.5418781273256119 19.2593388806011987 O
atom 4.6466572120203109 7.2255955344250848 16.9969942466446469 Ir
atom 11.1297462795991482 3.9579074182312368 18.1281668499836748 Ir
atom 6.2747305841899603 8.3796944766371411 16.7315532031248466 O
atom 3.5015505779116260 8.8409804963567566 16.9969999718872415 O
atom 12.2748606692251592 4.7696430792983691 19.5247974876084562 O
atom 5.7917647893159980 5.6102107297170711 16.9970086192471861 O
atom 2.8101859559857787 5.9237637974170596 19.2593851075023714 Ir
atom 9.2932638726854986 2.6560799197813427 20.3905488410826727 Ir
atom 4.4382655486991665 7.0778748459364840 18.9939478271803530 O
atom 12.7578514568682468 7.5391521270119588 19.2593848599371178 O
atom 3.0185549162015781 6.0714671787955670 17.2624028568960703 O
atom 3.9553003200055725 4.3083846357224784 19.2593884302553526 O
atom 0.9737046426501552 0.6902115457443889 19.2593687823546418 Ir
atom 0.0369754898179592 0.0262126201575545 15.8657845467569771 Ir
atom 2.6018017730394809 1.8443022805478766 18.9939275458516974 O
atom 10.9213561385443523 2.3056127863593034 19.2593610548384753 O
atom 1.1821126038360550 0.8379130351660253 17.2624108524130122 O
atom 5.7917532614086218 9.5418860403654584 19.2593661216689434 O
atom 2.8101836051922140 1.9920414996882236 16.9969694110901131 Ir
atom 12.9662089526174071 9.1914280638622667 18.1281639358460644 Ir
atom 4.4382779837516493 3.1461454345446782 16.7315551199102117 O
atom 1.6650635134459009 3.6074405753860623 16.9969686940276645 O
atom 14.1113427478728823 10.0031309540677249 19.5247837945947360 O
atom 3.9552807380395256 0.3766665307862632 16.9969752519743302 O
atom 4.6835969571808747 3.3201203695653718 23.7841307588434283 Ir
atom 6.3116679042038593 4.4742511791319339 23.5187093426051668 O
atom 3.5384979765842575 4.9354930752221486 23.7841261644116848 O
atom 4.8919641758750467 3.4678493422709953 21.7871726262465586 O
atom 5.8287138088331121 1.7047192224013861 23.7841334517394962 O
atom 6.5200619940487821 4.6219445256684963 21.5217530724893855 Ir
atom 1.9104239870073827 1.3542491006156878 22.6529475204618684 Ir
atom 8.1481379884966980 5.7760645425460231 21.2563139409141222 O
atom 5.3749615954022696 6.2373171708607611 21.5217496057005526 O
atom 7.6651830307795485 3.0065477926689645 21.5217506004972705 O
atom 8.3565422342978977 9.8554417755719168 21.5217144050997611 Ir
atom 3.7468821846713167 6.5877762293502125 22.6529384123616531 Ir
atom 6.3116878751044894 0.5425177661717160 21.2563172335348476 O
atom 3.5384785600138247 1.0037706757854941 21.5217188453209012 O
atom 9.5016385359729210 8.2400504166612514 21.5217224836093486 O
atom 6.5200545715118183 8.5536043801267834 23.7841217160879843 Ir
atom 5.5833689492672915 7.8896010616462604 20.3905587488640876 Ir
atom 8.1481557971645096 9.7077282327889254 23.5186936629630630 O
atom 5.3749502937128346 10.1689884121403633 23.7841082652580731 O
atom 6.7284639220263136 8.7013373205944351 21.7871732496113921 O
atom 7.6651642292788136 6.9382223849999276 23.7841122384915060 O
atom 12.0664832462234877 4.6219397920993979 21.5217676045349577 Ir
atom 7.4568034500510914 1.3542516759055514 22.6529402078739857 Ir
atom 2.6017877546419044 5.7760387343114568 21.2563265610151575 O
atom 10.9213766121148002 6.2373247540310706 21.5217733297775560 O
atom 2.1188219597679465 3.0065549873913864 21.5217819771374899 O
atom 10.2300119901889506 3.3201080550913744 23.7841584653926823 Ir
atom 11.8580915829023432 4.4742191036107970 23.5187211850706639 O
atom 9.0849086273201998 4.9354963846862709 23.7841582178274287 O
atom 10.4383809504047491 3.4678114364698813 21.7871762147863812 O
atom 11.3751263542087493 1.7047288933967921 23.7841617881456635 O
atom 12.0664770150046081 8.5536017825081885 23.7841421402449491 Ir
atom 11.1297478621724117 7.8896028569213543 20.3905579046472880 Ir
atom 13.6945741453939345 9.7076925173116759 23.5187009037420118 O
atom 10.9213596471475611 10.1690030231231017 23.7841344127287861 O
atom 12.2748849761905081 8.7013032719298256 21.7871842103033266 O
atom 13.2115792956117986 6.9382302980397714 23.7841394795592542 O
atom 13.9029559775466609 9.8554317364520223 21.5217427689804239 Ir
atom 9.2932661230693476 6.5877723215365815 22.6529372937363789 Ir
atom 0.7653351542035933 0.5424896922189923 21.2563284778005261 O
atom 9.0848895476490785 1.0037848330603767 21.5217420519179718 O
atom 3.9552842466427456 8.2400567675500636 21.5217486098646411 O
