#===============================================================================
# Created using the Atomic Simulation Environment (ASE)

# Mon Mar 23 14:01:02 2026

#=======================================================
lattice_vector 12.8301526818574523 0.0000000000000000 0.0000000000000000 
lattice_vector -0.0000000332592932 6.3830326800000003 0.0000000000000000 
lattice_vector 0.0000000000000000 0.0000000000000000 48.4926400533335737 
atom 6.4150710043690067 6.3830292807868645 16.2274705028188748 Ir
atom 9.6226119037469484 4.7872890332869291 16.2274427577171245 Ir
atom 7.6425286443989693 4.7872748417436419 16.2274347901276101 O
atom 9.6226115253743618 0.0000013260064294 15.0000000000000000 O
atom 11.6026964429601929 4.7872755248302390 16.2274406348930569 O
atom 9.6226102940307729 1.5957448332869235 16.2274440092957448 Ir
atom 7.6425271195358482 1.5957545717436405 16.2274347264876901 O
atom 9.6226128593152964 3.1915161660063922 15.0000172251214501 O
atom 11.6026949180969812 1.5957552748302357 16.2274410662278825 O
atom 3.2075439560987213 0.0000005410063623 15.0000334214037263 O
atom 3.2075422141308660 3.1915162010063871 15.0000214642277179 O
atom 12.8301474998136253 3.1915146357868696 16.2274683426076898 Ir
atom 6.4150480476220926 4.7872796036802647 19.4350150460786288 Ir
atom 12.8301448350680669 6.3830292615737196 22.6425498701641317 Ir
atom 6.4150213321472718 6.3830324509607062 20.6624735227741532 O
atom 4.4349771767842485 4.7872814921369802 19.4350104301777193 O
atom 6.4150294845624263 6.3830319263997897 18.2075554521455132 O
atom 8.3951524565350848 4.7872777452235811 19.4350169961935393 O
atom 6.4150474066422181 1.5957517036802600 19.4350161774493237 Ir
atom 6.4150802911658360 3.1915161907868415 16.2274844045400144 Ir
atom 6.4150324150005629 3.1915156109607437 20.6624606534328947 O
atom 4.4349757650579980 1.5957519521369763 19.4350115120507887 O
atom 6.4150387925725267 3.1915156563997664 18.2075690073843290 O
atom 8.3951506346867699 1.5957577152235762 19.4350187144626503 O
atom 3.2075330525885541 4.7872890140737834 22.6425221250623778 Ir
atom 3.2075288140021940 6.3830320511802885 19.4350107026789161 Ir
atom 9.6226045962522182 0.0000005105673288 17.4549268741083026 O
atom 1.2274497932405755 4.7872748225304971 22.6425141574728670 O
atom 3.2075326742159738 0.0000013067932842 21.4150793673452569 O
atom 5.1876175918018035 4.7872755056170941 22.6425200022383137 O
atom 3.2075314428723849 1.5957448140737784 22.6425233766410017 Ir
atom 3.2075401867642794 3.1915183311802702 19.4350232821107838 Ir
atom 9.6226067645853455 3.1915169705673621 17.4549124632725281 O
atom 1.2274482683774561 1.5957545525304955 22.6425140938329506 O
atom 3.2075340081569070 3.1915161467932469 21.4150965924667105 O
atom 5.1876160669385838 1.5957552556170906 22.6425204335731394 O
atom 3.2075356299809856 4.7872770082867886 16.2275060968070335 Ir
atom 9.6226122486501691 0.0000032161802797 19.4350171126032834 Ir
atom 3.2075363148989222 6.3830321655673083 17.4549390681663255 O
atom 1.2274503341632754 4.7872721767434756 16.2275093580728296 O
atom 9.6226177867977807 0.0000005217932171 21.4151127887489849 O
atom 5.1876213429888187 4.7872681998300681 16.2275176211440844 O
atom 3.2075388922304753 1.5957562182867870 16.2275075534476301 Ir
atom 9.6226055710765035 3.1915167061802960 19.4350076020157658 Ir
atom 3.2075332980380011 3.1915172255672783 17.4549517395192524 O
atom 1.2274527408137368 1.5957588767434752 16.2275098742612549 O
atom 9.6226160448299272 3.1915161817932423 21.4151008315729747 O
atom 5.1876239264160935 1.5957614498300714 16.2275175221496610 O
atom 0.0000186126209309 4.7872674986802908 19.4350190164923617 Ir
atom 12.8301513136042953 0.0000001557868452 16.2274805472714831 Ir
atom 0.0000397661821289 0.0000004359608053 20.6624622267618641 O
atom 10.8500665107995360 4.7872726671369827 19.4350132550718335 O
atom 0.0000460327127998 6.3830319113998248 18.2075718605765466 O
atom 1.9800903956270406 4.7872731502235837 19.4350209241744949 O
atom 0.0000212950438568 1.5957653486803021 19.4350152829691041 Ir
atom 6.4150686486552306 3.1915146165737243 22.6425477099529466 Ir
atom 0.0000300551147741 3.1915156659607562 20.6624813186430529 O
atom 10.8500693841408165 1.5957630971369878 19.4350120034934051 O
atom 0.0000383135977151 3.1915173813998590 18.2075542041187077 O
atom 1.9800929436993773 1.5957605902235905 19.4350187816414461 O
atom 12.8301218783211510 4.7872795844671190 25.8500944134238857 Ir
atom 6.4150659839096758 6.3830292423605748 29.0576292375093956 Ir
atom 12.8300951628463338 6.3830324317475613 27.0775528901194136 O
atom 10.8500510074833088 4.7872814729238344 25.8500897975229762 O
atom 12.8301033152614892 6.3830319071866448 24.6226348194907700 O
atom 1.9800736053766970 4.7872777260104353 25.8500963635387961 O
atom 12.8301212373412810 1.5957516844671147 25.8500955447945842 Ir
atom 0.0000014400074452 3.1915161715736962 22.6425637718852713 Ir
atom 12.8301062456996213 3.1915155917475984 27.0775400207781551 O
atom 10.8500495957570582 1.5957519329238308 25.8500908793960456 O
atom 12.8301126232715887 3.1915156371866211 24.6226483747295859 O
atom 1.9800717835283757 1.5957576960104307 25.8500980818079036 O
atom 9.6226068832876184 4.7872889948606385 29.0576014924076347 Ir
atom 9.6226026447012547 6.3830320319671436 25.8500900700241765 Ir
atom 3.2075257450938284 0.0000004913541836 23.8700062414535594 O
atom 7.6425236239396428 4.7872748033173513 29.0575935248181274 O
atom 9.6226065049150318 0.0000012875801390 27.8301587346905173 O
atom 11.6026914225008646 4.7872754864039493 29.0575993695835741 O
atom 9.6226052735714429 1.5957447948606329 29.0576027439862621 Ir
atom 9.6226140174633432 3.1915183119671249 25.8501026494560442 Ir
atom 3.2075279134269512 3.1915169513542168 23.8699918306177885 O
atom 7.6425220990765208 1.5957545333173502 29.0575934611782039 O
atom 9.6226078388559682 3.1915161275801016 27.8301759598119673 O
atom 11.6026898976376458 1.5957552364039451 29.0575998009183962 O
atom 9.6226094606800530 4.7872769890736437 22.6425854641522939 Ir
atom 3.2075333974917766 0.0000031969671345 25.8500964799485402 Ir
atom 9.6226101455979833 6.3830321463541635 23.8700184355115823 O
atom 7.6425241648623370 4.7872721575303308 22.6425887254180864 O
atom 3.2075389356393913 0.0000005025800718 27.8301921560942453 O
atom 11.6026951736878772 4.7872681806169233 22.6425969884893412 O
atom 9.6226127229295351 1.5957561990736415 22.6425869207928869 Ir
atom 3.2075267199181137 3.1915166869671507 25.8500869693610262 Ir
atom 9.6226071287370658 3.1915172063541335 23.8700311068645092 O
atom 7.6425265715128035 1.5957588575303294 22.6425892416065118 O
atom 3.2075371936715360 3.1915161625800970 27.8301801989182316 O
atom 11.6026977571151519 1.5957614306169263 22.6425968894949214 O
atom 6.4150924433199892 4.7872674794671459 25.8500983838376150 Ir
atom 6.4150724624459006 0.0000001365737000 22.6425599146167364 Ir
atom 6.4151135968811905 0.0000004167476601 27.0775415941071209 O
atom 4.4349876596411466 4.7872726479238379 25.8500926224170904 O
atom 6.4151198634118591 6.3830318921866800 24.6226512279218035 O
atom 8.3951642263261057 4.7872731310104388 25.8501002915197517 O
atom 6.4150951257429147 1.5957653294671568 25.8500946503143645 Ir
atom 12.8301424793542971 3.1915145973605790 29.0576270772982035 Ir
atom 6.4151038858138358 3.1915156467476109 27.0775606859883133 O
atom 4.4349905329824271 1.5957630779238425 25.8500913708386655 O
atom 6.4151121442967760 3.1915173621867137 24.6226335714639681 O
atom 8.3951667743984402 1.5957605710104450 25.8500981489867065 O
atom 6.4150430271627661 4.7872795652539741 32.2651737807691461 Ir
atom 6.4150163116879453 6.3830324125344164 33.4926322574646704 O
atom 4.4349721563249158 4.7872814537106896 32.2651691648682331 O
atom 6.4150244641031007 6.3830318879735000 31.0377141868360269 O
atom 8.3951474360757459 4.7872777067972905 32.2651757308840530 O
atom 6.4150423861828969 1.5957516652539694 32.2651749121398410 Ir
atom 6.4150752707065068 3.1915161523605509 29.0576431392305281 Ir
atom 6.4150273945412337 3.1915155725344535 33.4926193881234155 O
atom 4.4349707445986679 1.5957519137106857 32.2651702467413060 O
atom 6.4150337721131976 3.1915156179734763 31.0377277420748428 O
atom 8.3951456142274434 1.5957576767972856 32.2651774491531569 O
atom 3.2075237935428591 6.3830320127539988 32.2651694373694369 Ir
atom 9.6225995757928899 0.0000004721410383 30.2850856087988163 O
atom 3.2075351663049525 3.1915182927539800 32.2651820168013046 Ir
atom 9.6226017441260154 3.1915169321410719 30.2850711979630489 O
atom 3.2075306095216587 4.7872769698604989 29.0576648314975543 Ir
atom 9.6226072281908337 0.0000031777539892 32.2651758472937971 Ir
atom 3.2075312944395953 6.3830321271410186 30.2850978028568392 O
atom 1.2274453137039403 4.7872721383171850 29.0576680927633433 O
atom 5.1876163225294922 4.7872681614037775 29.0576763558346016 O
atom 3.2075338717711457 1.5957561798604964 29.0576662881381438 Ir
atom 9.6226005506171681 3.1915166677540054 32.2651663367062866 Ir
atom 3.2075282775786720 3.1915171871409882 30.2851104742097696 O
atom 1.2274477203544101 1.5957588383171843 29.0576686089517686 O
atom 5.1876189059567634 1.5957614114037808 29.0576762568401783 O
atom 0.0000135921615985 4.7872674602540011 32.2651777511828755 Ir
atom 12.8301462931449617 0.0000001173605548 29.0576392819619933 Ir
atom 0.0000347457228022 0.0000003975345149 33.4926209614523742 O
atom 10.8500614903402006 4.7872726287106930 32.2651719897623508 O
atom 0.0000410122534674 6.3830318729735351 31.0377305952670568 O
atom 1.9800853751677137 4.7872731117972931 32.2651796588650086 O
atom 0.0000162745845301 1.5957653102540117 32.2651740176596249 Ir
atom 0.0000250346554474 3.1915156275344656 33.4926400533335737 O
atom 10.8500643636814864 1.5957630587106975 32.2651707381839259 O
atom 0.0000332931383856 3.1915173429735688 31.0377129388092250 O
atom 1.9800879232400450 1.5957605517972997 32.2651775163319599 O
