#===============================================================================
# Created using the Atomic Simulation Environment (ASE)

# Mon Mar 23 14:01:00 2026

#=======================================================
lattice_vector 9.0722883300002515 0.0000000000000000 0.0000000000000000 
lattice_vector 0.0000042800008374 9.0722918799992431 0.0000000000000000 
lattice_vector 0.0000000000000000 0.0000000000000000 36.3830393050000112 
atom 3.1360095708412929 7.6721627702683755 15.0000027115433170 O
atom 1.4001182813717703 5.9362631797358416 15.0000019034567167 O
atom 4.5361465411073887 0.0000001099994345 15.0000000000000000 Ir
atom 5.9362901413755900 1.4001346697291825 15.0000026884566857 O
atom 4.5361506311083915 4.5361485099985961 15.0000030700000018 Ir
atom 7.6721866908322021 7.6721236902606016 15.0000027765432797 O
atom 2.2680556878704632 2.2680900050039252 16.5957562925000239 Ir
atom 9.0722870511079226 9.0722901300005478 15.0000066250000117 Ir
atom 3.1359813808493437 3.1360527302748986 15.0000034415433454 O
atom 0.8679314881348821 3.6682088852696793 16.5957544040433227 O
atom 1.4000971813810863 1.4001584997406926 15.0000039734567387 O
atom 3.6682017176000068 0.8679455247330222 16.5957581509567014 O
atom 2.2680560413886468 2.2680912650038407 19.7872841925000245 Ir
atom 0.0000108446254737 0.0000015199974361 18.1915197149999912 Ir
atom 3.1359801243632237 3.1360358002751934 18.1915202815433510 O
atom 0.8679312616531877 3.6682106552697316 19.7872839440433204 O
atom 1.4001133548996703 1.4001615097368771 18.1915202434567220 O
atom 3.6682016511184763 0.8679480347330369 19.7872781809567009 O
atom 2.2680520478613584 6.8041956150049101 16.5957468725000332 Ir
atom 9.0722833211080491 4.5361465100013039 15.0000038450000126 Ir
atom 3.1360096078770376 7.6721627602683649 21.3830353915433165 O
atom 0.8679167181273022 8.2043208852732885 16.5957610640433408 O
atom 1.4001183184075148 5.9362631697358310 21.3830345834567197 O
atom 3.6681811475935491 5.4040623047380025 16.5957603809567260 O
atom 2.2680518013797415 6.8041976450049679 19.7872910725000288 Ir
atom 0.0000119346258688 4.5361473699973054 18.1915175649999945 Ir
atom 3.1360009443563972 7.6721510302704106 18.1915189315433281 O
atom 0.8679156016454257 8.2043219252735504 19.7872813340433424 O
atom 1.4001314348922924 5.9362743997327385 18.1915197434567020 O
atom 3.6681803811117550 5.4040636947381806 19.7872806309567295 O
atom 6.8042389078716345 2.2680944149947129 16.5957588974999801 Ir
atom 4.5361465781431347 0.0000000999994241 21.3830326799999995 Ir
atom 7.6721659408416869 3.1360197302653705 15.0000037365433023 O
atom 5.4041100781397793 3.6682290652615586 16.5957637290432842 O
atom 5.9362901784113351 1.4001346597291726 21.3830353684566887 O
atom 8.2043784876058989 0.8679699247253312 16.5957677059566606 O
atom 6.8042422513892120 2.2680931449939234 19.7872796874999786 Ir
atom 4.5361394046256276 9.0722899700013695 18.1915191900000153 Ir
atom 7.6721727743621777 3.1360308302637572 18.1915186765432964 O
atom 5.4041121516573369 3.6682277352610684 19.7872770290432847 O
atom 5.9362804848917579 1.4001274297314596 18.1915197084566955 O
atom 8.2043802511233164 0.8679680347249145 19.7872744559566627 O
atom 6.8042379678638616 6.8042055849950609 16.5957683974999846 Ir
atom 4.5361506681441375 4.5361484999985855 21.3830357500000048 Ir
atom 7.6721867278679472 7.6721236802605910 21.3830354565432827 O
atom 5.4040889781337409 8.2043476352666609 16.5957632290433139 O
atom 5.9363207713688757 5.9362503597220853 15.0000039884566547 O
atom 8.2043608975988302 5.4040841447296071 16.5957627459566872 O
atom 6.8042372313806503 6.8042010549952341 19.7872705474999862 Ir
atom 4.5361393346248651 4.5361425600012586 18.1915212700000133 Ir
atom 7.6721933543548770 7.6721440402590311 18.1915202265432718 O
atom 5.4040901316509204 8.2043447252663864 19.7872727990433113 O
atom 5.9363028348850904 5.9362433397263148 18.1915185184566752 O
atom 8.2043611911159200 5.4040808347295375 19.7872753059566868 O
atom 9.0722870881436641 9.0722901200005399 21.3830393050000112 Ir
atom 3.1359814178850884 3.1360527202748880 21.3830361215433413 O
atom 1.4000972184168317 1.4001584897406822 21.3830366534567347 O
atom 9.0722833581437925 4.5361465000012933 21.3830365250000085 Ir
atom 7.6721659778774312 3.1360197202653595 21.3830364165433053 O
atom 5.9363208084046200 5.9362503497220738 21.3830366684566542 O
