#===============================================================================
# Created using the Atomic Simulation Environment (ASE)

# Mon Mar 23 14:01:00 2026

#=======================================================
lattice_vector 11.0927688637512336 0.0000000000000000 0.0000000000000000 
lattice_vector 3.6729463381512715 10.4670459790894856 0.0000000000000000 
lattice_vector 0.0000000000000000 0.0000000000000000 36.5217625197894193 
atom 8.3565397867289271 5.9237761118910610 16.9969581325968733 Ir
atom 3.7468801310848883 2.6560775098293061 18.1281540716486980 Ir
atom 9.9846107337519214 7.0779069214576218 16.7315367163586082 O
atom 7.2114408061323090 7.5391488175478347 16.9969535381651298 O
atom 8.5649070054231036 6.0715050845966818 15.0000000000000000 O
atom 9.5016566383811689 4.3083749647270730 16.9969608254929376 O
atom 5.5833668165554444 3.9579048429413741 15.8657748942153134 Ir
atom 6.7284488433940002 4.7696752189060074 17.2623961902942042 O
atom 7.4198250142193691 9.1914319716758985 15.8657657861150980 Ir
atom 8.5649254573930129 10.0031598439808072 17.2623740895340632 O
atom 6.5200510629085935 0.6902141433629837 16.9969490898414293 Ir
atom 8.1481522885612954 1.8443379960251245 16.7315210367165150 O
atom 5.3749467851096195 2.3055981753765646 16.9969356390115109 O
atom 6.7284604134230985 0.8379470838306360 15.0000006233648406 O
atom 11.3381070588268695 9.5418781273256119 16.9969396122449545 O
atom 11.1297462795991482 3.9579074182312368 15.8657675816274306 Ir
atom 12.2748606692251592 4.7696430792983691 17.2623982192522121 O
atom 2.8101859559857787 5.9237637974170596 16.9969858391461273 Ir
atom 9.2932638726854986 2.6560799197813427 18.1281495727264286 Ir
atom 4.4382655486991665 7.0778748459364840 16.7315485588241089 O
atom 12.7578514568682468 7.5391521270119588 16.9969855915808736 O
atom 3.0185549162015781 6.0714671787955670 15.0000035885398262 O
atom 3.9553003200055725 4.3083846357224784 16.9969891618991085 O
atom 0.9737046426501552 0.6902115457443889 16.9969695139983976 Ir
atom 2.6018017730394809 1.8443022805478766 16.7315282774954532 O
atom 10.9213561385443523 2.3056127863593034 16.9969617864822311 O
atom 1.1821126038360550 0.8379130351660253 15.0000115840567680 O
atom 5.7917532614086218 9.5418860403654584 16.9969668533126992 O
atom 12.9662089526174071 9.1914280638622667 15.8657646674898203 Ir
atom 14.1113427478728823 10.0031309540677249 17.2623845262384918 O
atom 4.6835969571808747 3.3201203695653718 21.5217314904871841 Ir
atom 6.3116679042038593 4.4742511791319339 21.2563100742489226 O
atom 3.5384979765842575 4.9354930752221486 21.5217268960554406 O
atom 4.8919641758750467 3.4678493422709953 19.5247733578903144 O
atom 5.8287138088331121 1.7047192224013861 21.5217341833832521 O
atom 6.5200619940487821 4.6219445256684963 19.2593538041331414 Ir
atom 1.9104239870073827 1.3542491006156878 20.3905482521056243 Ir
atom 8.1481379884966980 5.7760645425460231 18.9939146725578780 O
atom 5.3749615954022696 6.2373171708607611 19.2593503373443085 O
atom 7.6651830307795485 3.0065477926689645 19.2593513321410263 O
atom 8.3565422342978977 9.8554417755719168 19.2593151367435169 Ir
atom 3.7468821846713167 6.5877762293502125 20.3905391440054089 Ir
atom 6.3116878751044894 0.5425177661717160 18.9939179651786034 O
atom 3.5384785600138247 1.0037706757854941 19.2593195769646570 O
atom 9.5016385359729210 8.2400504166612514 19.2593232152531044 O
atom 6.5200545715118183 8.5536043801267834 21.5217224477317401 Ir
atom 5.5833689492672915 7.8896010616462604 18.1281594805078434 Ir
atom 8.1481557971645096 9.7077282327889254 21.2562943946068188 O
atom 5.3749502937128346 10.1689884121403633 21.5217089969018289 O
atom 6.7284639220263136 8.7013373205944351 19.5247739812551480 O
atom 7.6651642292788136 6.9382223849999276 21.5217129701352619 O
atom 12.0664832462234877 4.6219397920993979 19.2593683361787136 Ir
atom 7.4568034500510914 1.3542516759055514 20.3905409395177415 Ir
atom 2.6017877546419044 5.7760387343114568 18.9939272926589133 O
atom 10.9213766121148002 6.2373247540310706 19.2593740614213118 O
atom 2.1188219597679465 3.0065549873913864 19.2593827087812457 O
atom 10.2300119901889506 3.3201080550913744 21.5217591970364381 Ir
atom 11.8580915829023432 4.4742191036107970 21.2563219167144197 O
atom 9.0849086273201998 4.9354963846862709 21.5217589494711845 O
atom 10.4383809504047491 3.4678114364698813 19.5247769464301371 O
atom 11.3751263542087493 1.7047288933967921 21.5217625197894193 O
atom 12.0664770150046081 8.5536017825081885 21.5217428718887049 Ir
atom 11.1297478621724117 7.8896028569213543 18.1281586362910438 Ir
atom 13.6945741453939345 9.7076925173116759 21.2563016353857677 O
atom 10.9213596471475611 10.1690030231231017 21.5217351443725420 O
atom 12.2748849761905081 8.7013032719298256 19.5247849419470825 O
atom 13.2115792956117986 6.9382302980397714 21.5217402112030101 O
atom 13.9029559775466609 9.8554317364520223 19.2593435006241798 Ir
atom 9.2932661230693476 6.5877723215365815 20.3905380253801347 Ir
atom 0.7653351542035933 0.5424896922189923 18.9939292094442820 O
atom 9.0848895476490785 1.0037848330603767 19.2593427835617277 O
atom 3.9552842466427456 8.2400567675500636 19.2593493415083969 O
