#===============================================================================
# Created using the Atomic Simulation Environment (ASE)

# Mon Mar 23 14:01:01 2026

#=======================================================
lattice_vector 9.0722918800002521 0.0000000000000000 0.0000000000000000 
lattice_vector -0.0000000099999929 6.3830326800000003 0.0000000000000000 
lattice_vector 0.0000000000000000 0.0000000000000000 49.8804865705358438 
atom 0.0000068399969870 0.0000034852787695 18.1360029652664814 Ir
atom 4.5361550999967397 0.0000007052787620 18.1360013752659448 Ir
atom 2.2681019350036649 1.5957557446190476 15.8679580227612291 Ir
atom 3.1360276597328793 0.0000005886982685 16.7358846555322529 O
atom 1.4001417702693302 6.3830322105397244 15.0000096749982923 O
atom 0.8679781052729939 1.5957645611996512 17.2680982630267188 O
atom 2.2681006650044520 4.7872765346190631 15.8679613477615078 Ir
atom 3.1360387597344905 3.1915155286983006 16.7358914705296442 O
atom 1.4001345402670442 3.1915165505396783 15.0000000000000000 O
atom 0.8679762152734090 4.7872713111996585 17.2681000080272149 O
atom 6.8042131050030630 1.5957652446190331 15.8679549427693871 Ir
atom 7.6721316097374022 6.3830323086983558 16.7359032655421665 O
atom 5.9362574702761703 0.0000008305398584 15.0000381650054209 O
atom 5.4040923252684676 1.5957596011995583 17.2680785330342275 O
atom 6.8042085750028907 4.7872673946190298 15.8679541877705184 Ir
atom 7.6721519697389686 3.1915170786983875 16.7359099105373552 O
atom 5.9362504502719382 3.1915153605397739 15.0000202100070865 O
atom 5.4040890152685348 4.7872721611995592 17.2680788080350247 O
atom 2.2680996649940326 1.5957531659385631 20.4040631327618982 Ir
atom 0.0000111199961506 0.0000035379181675 27.2082912952657168 Ir
atom 3.1360627997229318 0.0000003200177777 21.2719884255240999 O
atom 3.6682178847283309 1.5957512693580316 19.0039382724976953 O
atom 1.4001677502573939 0.0000008418591941 19.5361050449922864 O
atom 0.8679558452648842 1.5957550325191974 21.8042098230321422 O
atom 2.2681009249941151 4.7872810659385658 20.4040634677615493 Ir
atom 0.0000101100008563 3.1915165752788468 18.1360193502657232 Ir
atom 3.1360458697226345 3.1915171600177721 21.2719871505280871 O
atom 3.6682196547282766 4.7872808093580295 19.0039380274972096 O
atom 1.4001707602612086 3.1915171118592696 19.5361211999915767 O
atom 0.8679583552648676 4.7872750625191953 21.8042097380315347 O
atom 6.8042052749927953 1.5957437459385355 20.4040573527714599 Ir
atom 4.5361593799959010 0.0000007579181601 27.2082897052651873 Ir
atom 7.6721728297292096 6.3830322700179005 21.2720144755325684 O
atom 8.2043298847244710 1.5957579293579518 19.0039213625056682 O
atom 5.9362724202619992 6.3830314518592832 19.5361240050020299 O
atom 5.4040726252596532 1.5957572625190903 21.8041871130390099 O
atom 6.8042073049927358 4.7872879459385347 20.4040570877708483 Ir
atom 4.5361559600007348 3.1915144252788417 18.1360183002657536 Ir
atom 7.6721610997271688 3.1915158100178593 21.2720058305353383 O
atom 8.2043309247242053 4.7872781993579467 19.0039202275054038 O
atom 5.9362836502650937 3.1915166118593450 19.5361371399993757 O
atom 5.4040740152594715 4.7872775125190881 21.8041863280386679 O
atom 2.2681062150028279 1.5957557972584457 24.9402463527604752 Ir
atom 0.0000108299984479 6.3830295665985064 22.6721550652656880 Ir
atom 3.1360319397320420 0.0000006413376666 25.8081729855314990 O
atom 3.6682402047360325 1.5957606206778925 23.5401168624925106 O
atom 1.4001460502684926 6.3830322631791230 24.0722980049975348 O
atom 0.8679823852721565 1.5957646138390496 26.3403865930259613 O
atom 2.2681049450036146 4.7872765872584617 24.9402496777607467 Ir
atom 0.0000088199957486 3.1915160765984525 22.6721436302661559 Ir
atom 3.1360430397336527 3.1915155813376983 25.8081798005288832 O
atom 3.6682388747365202 4.7872739206779009 23.5401189174928405 O
atom 1.4001388202662066 3.1915166031790769 24.0722883299992390 O
atom 0.8679804952725717 4.7872713638390572 26.3403883380264574 O
atom 6.8042173850022252 1.5957652972584315 24.9402432727686261 Ir
atom 4.5361592299990345 6.3830326365985144 22.6721570152650962 Ir
atom 7.6721358897365644 6.3830323613377535 25.8081915955414090 O
atom 8.2043587747306752 1.5957601206777829 23.5400936224989650 O
atom 5.9362617502753317 0.0000008831792564 24.0723264950046669 O
atom 5.4040966052676289 1.5957596538389562 26.3403668630334664 O
atom 6.8042128550020538 4.7872674472584285 24.9402425177697609 Ir
atom 4.5361532899963590 3.1915181565984612 22.6721457002664941 Ir
atom 7.6721562497381290 3.1915171313377853 25.8081982405365977 O
atom 8.2043558647309496 4.7872696906777890 23.5400947574996806 O
atom 5.9362547302710995 3.1915154131791721 24.0723085400063255 O
atom 5.4040932952676970 4.7872722138389578 26.3403671380342672 O
atom 2.2681039449931952 1.5957532185779610 29.4763514627611372 Ir
atom 3.1360670797220944 0.0000003726571758 30.3442767555233459 O
atom 3.6682221647274935 1.5957513219974298 28.0762266024969378 O
atom 1.4001720302565570 0.0000008944985922 28.6083933749915289 O
atom 0.8679601252640470 1.5957550851585953 30.8764981530313847 O
atom 2.2681052049932777 4.7872811185779636 29.4763517977607918 Ir
atom 0.0000143900000189 3.1915166279182445 27.2083076802649657 Ir
atom 3.1360501497217967 3.1915172126571698 30.3442754805273225 O
atom 3.6682239347274388 4.7872808619974272 28.0762263574964521 O
atom 1.4001750402603714 3.1915171644986682 28.6084095299908157 O
atom 0.8679626352640304 4.7872751151585939 30.8764980680307772 O
atom 6.8042095549919592 1.5957437985779337 29.4763456827707060 Ir
atom 7.6721771097283726 6.3830323226572983 30.3443028055318038 O
atom 8.2043341647236350 1.5957579819973498 28.0762096925049107 O
atom 5.9362767002611623 6.3830315044986810 28.6084123350012689 O
atom 5.4040769052588162 1.5957573151584885 30.8764754430382524 O
atom 6.8042115849918998 4.7872879985779333 29.4763454177700908 Ir
atom 4.5361602399998988 3.1915144779182394 27.2083066302649925 Ir
atom 7.6721653797263327 3.1915158626572571 30.3442941605345808 O
atom 8.2043352047233675 4.7872782519973445 28.0762085575046498 O
atom 5.9362879302642559 3.1915166644987436 28.6084254699986147 O
atom 5.4040782952586337 4.7872775651584858 30.8764746580379068 O
atom 2.2681104950019901 1.5957558498978437 34.0125346827596999 Ir
atom 0.0000151099976105 6.3830296192379041 31.7444433952649305 Ir
atom 3.1360362197312046 0.0000006939770647 34.8804613155307450 O
atom 3.6682444847351952 1.5957606733172907 32.6124051924917566 O
atom 1.4001503302676555 6.3830323158185207 33.1445863349967667 O
atom 2.2681092250027768 4.7872766398978595 34.0125380077599928 Ir
atom 0.0000130999949102 3.1915161292378502 31.7444319602653948 Ir
atom 3.1360473197328154 3.1915156339770965 34.8804681305281363 O
atom 3.6682431547356824 4.7872739733172995 32.6124072474920936 O
atom 1.4001431002653693 3.1915166558184747 33.1445766599984708 O
atom 6.8042216650013883 1.5957653498978293 34.0125316027678721 Ir
atom 4.5361635199981896 0.0000000092379127 31.7444453452643458 Ir
atom 7.6721401697357274 6.3830324139771513 34.8804799255406479 O
atom 8.2043630547298374 1.5957601733171807 32.6123819524982181 O
atom 5.9362660302744947 0.0000009358186545 33.1446148250038917 O
atom 6.8042171350012159 4.7872674998978262 34.0125308477689927 Ir
atom 4.5361575699955221 3.1915182092378589 31.7444340302657366 Ir
atom 7.6721605297372930 3.1915171839771830 34.8804865705358438 O
atom 8.2043601447301135 4.7872697433171867 32.6123830874989338 O
atom 5.9362590102702626 3.1915154658185698 33.1445968700055644 O
