#===============================================================================
# Created using the Atomic Simulation Environment (ASE)

# Mon Mar 23 14:01:00 2026

#=======================================================
lattice_vector 11.0927688637512336 0.0000000000000000 0.0000000000000000 
lattice_vector 3.6729463381512715 10.4670459790894856 0.0000000000000000 
lattice_vector 0.0000000000000000 0.0000000000000000 41.3119940988265242 
atom 12.0294826162769812 8.5274318542167453 17.2624163537436672 Ir
atom 7.4198229606329393 5.2597332521549918 18.3936122927954955 Ir
atom 13.6575535632999756 9.6815626637833070 16.9969949375054057 O
atom 10.8843836356803649 10.1428045598735199 17.2624117593119202 O
atom 12.2378498349711577 8.6751608269223688 15.2654582211467940 O
atom 13.1745994679292231 6.9120307070527600 17.2624190466397316 O
atom 13.8659476531448895 9.8292560103198667 15.0000386673896209 Ir
atom 9.2563096461034924 6.5615605852670607 16.1312331153621074 Ir
atom 9.0479009163471140 0.9775826764226465 15.0000352006007880 O
atom 10.4013916729420526 7.3733309612316935 17.5278544114410018 O
atom 3.9182998261244251 8.2138592773203385 15.0000361953975059 O
atom 12.0294815552427341 4.5957072811338033 15.0000000000000000 Ir
atom 7.4198215056161532 1.3280417349121001 16.1312240072618920 Ir
atom 10.8843642191099281 6.2110821604368658 15.0000044402211401 O
atom 8.5649219487898005 2.1397696072170063 17.5278323106808607 O
atom 2.0818089931665242 2.9803159222231379 15.0000080785095840 O
atom 10.1929938924566557 3.2938698856886695 17.2624073109882197 Ir
atom 11.8210951181093513 4.4479937383508101 16.9969792578633054 O
atom 9.0478896146576737 4.9092539177022498 17.2623938601583049 O
atom 10.4014032429711509 3.4416028261563221 15.2654588445116310 O
atom 11.3381035502236589 1.6784878905618135 17.2623978333917449 O
atom 8.3196000415683660 9.8292512767507692 15.0000531994351967 Ir
atom 3.7099202453959692 6.5615631605569247 16.1312258027742246 Ir
atom 3.5015470693084034 0.9775902595929559 15.0000589246777913 O
atom 4.8550346350219815 7.3732988216240551 17.5278564403990060 O
atom 9.4647076188640575 8.2138664720427581 15.0000675720377323 O
atom 6.4831287855338298 8.5274195397427448 17.2624440602929212 Ir
atom 1.8734378384823156 5.2597356621070270 18.3936077938732225 Ir
atom 8.1112083782472197 9.6815305882621701 16.9970067799708993 O
atom 5.3380254226650736 10.1428078693376431 17.2624438127276676 O
atom 6.6914977457496319 8.6751229211212522 15.2654618096866201 O
atom 7.6282431495536267 6.9120403780481636 17.2624473830459024 O
atom 4.6466474721982074 3.2938672880700754 17.2624277351451916 Ir
atom 6.2747446025875355 4.4479580228735625 16.9969864986422508 O
atom 3.5015301043411644 4.9092685286849882 17.2624200076290251 O
atom 4.8550554333841092 3.4415687774917121 15.2654698052035620 O
atom 5.7917497528054076 1.6784958036016595 17.2624250744594931 O
atom 6.4831264347402602 4.5956972420139097 15.0000283638806629 Ir
atom 1.8734365802629558 1.3280378270984674 16.1312228886366142 Ir
atom 5.3380063429939550 6.2110963177117480 15.0000276468182143 O
atom 3.0185703755184279 2.1397407173039249 17.5278427473852858 O
atom 7.6282235675875842 2.9803222731119496 15.0000342047648800 O
atom 8.3565397867289271 5.9237761118910610 21.7871897116339781 Ir
atom 3.7468801310848883 2.6560775098293061 22.9183856506858028 Ir
atom 9.9846107337519214 7.0779069214576218 21.5217682953957130 O
atom 7.2114408061323090 7.5391488175478347 21.7871851172022346 O
atom 8.5649070054231036 6.0715050845966818 19.7902315790371048 O
atom 9.5016566383811689 4.3083749647270730 21.7871924045300425 O
atom 10.1930048235968336 7.2256002679941815 19.5248120252799318 Ir
atom 5.5833668165554444 3.9579048429413741 20.6560064732524182 Ir
atom 11.8210808180447557 8.3797202848717109 19.2593728937046720 O
atom 9.0479044249503318 8.8409729131864481 19.5248085584911024 O
atom 6.7284488433940002 4.7696752189060074 22.0526277693313091 O
atom 11.3381258603276045 5.6102035349946515 19.5248095532878203 O
atom 8.3565387256946799 1.9920515388081168 19.5247733578903109 Ir
atom 7.4198250142193691 9.1914319716758985 20.6559973651522029 Ir
atom 9.9846307046525418 3.1461735084974007 19.2593761863253938 O
atom 7.2114213895618766 3.6074264181111810 19.5247777981114510 O
atom 8.5649254573930129 10.0031598439808072 22.0526056685711680 O
atom 9.5016350273696979 0.3766601798974518 19.5247814363998984 O
atom 6.5200510629085935 0.6902141433629837 21.7871806688785341 Ir
atom 5.5833654406640756 0.0262108248824591 18.3936177016546338 Ir
atom 8.1481522885612954 1.8443379960251245 21.5217526157536199 O
atom 5.3749467851096195 2.3055981753765646 21.7871672180486158 O
atom 6.7284604134230985 0.8379470838306360 19.7902322024019455 O
atom 11.3381070588268695 9.5418781273256119 21.7871711912820594 O
atom 4.6466572120203109 7.2255955344250848 19.5248265573255075 Ir
atom 11.1297462795991482 3.9579074182312368 20.6559991606645355 Ir
atom 6.2747305841899603 8.3796944766371411 19.2593855138057073 O
atom 3.5015505779116260 8.8409804963567566 19.5248322825681022 O
atom 12.2748606692251592 4.7696430792983691 22.0526297982893169 O
atom 5.7917647893159980 5.6102107297170711 19.5248409299280468 O
atom 2.8101859559857787 5.9237637974170596 21.7872174181832321 Ir
atom 9.2932638726854986 2.6560799197813427 22.9183811517635334 Ir
atom 4.4382655486991665 7.0778748459364840 21.5217801378612137 O
atom 12.7578514568682468 7.5391521270119588 21.7872171706179785 O
atom 3.0185549162015781 6.0714671787955670 19.7902351675769310 O
atom 3.9553003200055725 4.3083846357224784 21.7872207409362133 O
atom 0.9737046426501552 0.6902115457443889 21.7872010930355025 Ir
atom 0.0369754898179592 0.0262126201575545 18.3936168574378378 Ir
atom 2.6018017730394809 1.8443022805478766 21.5217598565325581 O
atom 10.9213561385443523 2.3056127863593034 21.7871933655193359 O
atom 1.1821126038360550 0.8379130351660253 19.7902431630938729 O
atom 5.7917532614086218 9.5418860403654584 21.7871984323498040 O
atom 2.8101836051922140 1.9920414996882236 19.5248017217709737 Ir
atom 12.9662089526174071 9.1914280638622667 20.6559962465269251 Ir
atom 4.4382779837516493 3.1461454345446782 19.2593874305910724 O
atom 1.6650635134459009 3.6074405753860623 19.5248010047085252 O
atom 14.1113427478728823 10.0031309540677249 22.0526161052755967 O
atom 3.9552807380395256 0.3766665307862632 19.5248075626551909 O
atom 4.6835969571808747 3.3201203695653718 26.3119630695242890 Ir
atom 6.3116679042038593 4.4742511791319339 26.0465416532860274 O
atom 3.5384979765842575 4.9354930752221486 26.3119584750925455 O
atom 4.8919641758750467 3.4678493422709953 24.3150049369274193 O
atom 5.8287138088331121 1.7047192224013861 26.3119657624203569 O
atom 6.5200619940487821 4.6219445256684963 24.0495853831702462 Ir
atom 1.9104239870073827 1.3542491006156878 25.1807798311427291 Ir
atom 8.1481379884966980 5.7760645425460231 23.7841462515949829 O
atom 5.3749615954022696 6.2373171708607611 24.0495819163814133 O
atom 7.6651830307795485 3.0065477926689645 24.0495829111781312 O
atom 8.3565422342978977 9.8554417755719168 24.0495467157806218 Ir
atom 3.7468821846713167 6.5877762293502125 25.1807707230425137 Ir
atom 6.3116878751044894 0.5425177661717160 23.7841495442157083 O
atom 3.5384785600138247 1.0037706757854941 24.0495511560017619 O
atom 9.5016385359729210 8.2400504166612514 24.0495547942902093 O
atom 6.5200545715118183 8.5536043801267834 26.3119540267688450 Ir
atom 5.5833689492672915 7.8896010616462604 22.9183910595449483 Ir
atom 8.1481557971645096 9.7077282327889254 26.0465259736439236 O
atom 5.3749502937128346 10.1689884121403633 26.3119405759389338 O
atom 6.7284639220263136 8.7013373205944351 24.3150055602922528 O
atom 7.6651642292788136 6.9382223849999276 26.3119445491723667 O
atom 12.0664832462234877 4.6219397920993979 24.0495999152158184 Ir
atom 7.4568034500510914 1.3542516759055514 25.1807725185548463 Ir
atom 2.6017877546419044 5.7760387343114568 23.7841588716960182 O
atom 10.9213766121148002 6.2373247540310706 24.0496056404584166 O
atom 2.1188219597679465 3.0065549873913864 24.0496142878183505 O
atom 10.2300119901889506 3.3201080550913744 26.3119907760735430 Ir
atom 11.8580915829023432 4.4742191036107970 26.0465534957515246 O
atom 9.0849086273201998 4.9354963846862709 26.3119905285082893 O
atom 10.4383809504047491 3.4678114364698813 24.3150085254672419 O
atom 11.3751263542087493 1.7047288933967921 26.3119940988265242 O
atom 12.0664770150046081 8.5536017825081885 26.3119744509258098 Ir
atom 11.1297478621724117 7.8896028569213543 22.9183902153281487 Ir
atom 13.6945741453939345 9.7076925173116759 26.0465332144228725 O
atom 10.9213596471475611 10.1690030231231017 26.3119667234096468 O
atom 12.2748849761905081 8.7013032719298256 24.3150165209841873 O
atom 13.2115792956117986 6.9382302980397714 26.3119717902401149 O
atom 13.9029559775466609 9.8554317364520223 24.0495750796612846 Ir
atom 9.2932661230693476 6.5877723215365815 25.1807696044172395 Ir
atom 0.7653351542035933 0.5424896922189923 23.7841607884813868 O
atom 9.0848895476490785 1.0037848330603767 24.0495743625988325 O
atom 3.9552842466427456 8.2400567675500636 24.0495809205455018 O
