#===============================================================================
# Created using the Atomic Simulation Environment (ASE)

# Mon Mar 23 14:01:00 2026

#=======================================================
lattice_vector 11.0927688637512336 0.0000000000000000 0.0000000000000000 
lattice_vector 3.6729463381512715 10.4670459790894856 0.0000000000000000 
lattice_vector 0.0000000000000000 0.0000000000000000 30.0000535228875904 
atom 4.6835969571808747 3.3201203695653718 15.0000224935853552 Ir
atom 3.5384979765842575 4.9354930752221486 15.0000178991536117 O
atom 5.8287138088331121 1.7047192224013861 15.0000251864814231 O
atom 6.5200545715118183 8.5536043801267834 15.0000134508299112 Ir
atom 5.3749502937128346 10.1689884121403633 15.0000000000000000 O
atom 7.6651642292788136 6.9382223849999276 15.0000039732334329 O
atom 10.2300119901889506 3.3201080550913744 15.0000502001346092 Ir
atom 9.0849086273201998 4.9354963846862709 15.0000499525693556 O
atom 11.3751263542087493 1.7047288933967921 15.0000535228875904 O
atom 12.0664770150046081 8.5536017825081885 15.0000338749868760 Ir
atom 10.9213596471475611 10.1690030231231017 15.0000261474707131 O
atom 13.2115792956117986 6.9382302980397714 15.0000312143011811 O
