#===============================================================================
# Created using the Atomic Simulation Environment (ASE)

# Mon Mar 23 14:01:00 2026

#=======================================================
lattice_vector 11.0927688637512336 0.0000000000000000 0.0000000000000000 
lattice_vector 3.6729463381512715 10.4670459790894856 0.0000000000000000 
lattice_vector 0.0000000000000000 0.0000000000000000 34.5248268807779084 
atom 8.3565397867289271 5.9237761118910610 15.0000224935853623 Ir
atom 3.7468801310848883 2.6560775098293061 16.1312184326371870 Ir
atom 7.2114408061323090 7.5391488175478347 15.0000178991536188 O
atom 9.5016566383811689 4.3083749647270730 15.0000251864814267 O
atom 6.7284488433940002 4.7696752189060074 15.2654605512826933 O
atom 8.5649254573930129 10.0031598439808072 15.2654384505225522 O
atom 6.5200510629085935 0.6902141433629837 15.0000134508299183 Ir
atom 5.3749467851096195 2.3055981753765646 15.0000000000000000 O
atom 11.3381070588268695 9.5418781273256119 15.0000039732334436 O
atom 12.2748606692251592 4.7696430792983691 15.2654625802407011 O
atom 2.8101859559857787 5.9237637974170596 15.0000502001346163 Ir
atom 9.2932638726854986 2.6560799197813427 16.1312139337149176 Ir
atom 12.7578514568682468 7.5391521270119588 15.0000499525693627 O
atom 3.9553003200055725 4.3083846357224784 15.0000535228875975 O
atom 0.9737046426501552 0.6902115457443889 15.0000338749868867 Ir
atom 10.9213561385443523 2.3056127863593034 15.0000261474707202 O
atom 5.7917532614086218 9.5418860403654584 15.0000312143011882 O
atom 14.1113427478728823 10.0031309540677249 15.2654488872269809 O
atom 4.6835969571808747 3.3201203695653718 19.5247958514756732 Ir
atom 6.3116679042038593 4.4742511791319339 19.2593744352374117 O
atom 3.5384979765842575 4.9354930752221486 19.5247912570439297 O
atom 4.8919641758750467 3.4678493422709953 17.5278377188788035 O
atom 5.8287138088331121 1.7047192224013861 19.5247985443717411 O
atom 6.5200619940487821 4.6219445256684963 17.2624181651216304 Ir
atom 1.9104239870073827 1.3542491006156878 18.3936126130941133 Ir
atom 8.1481379884966980 5.7760645425460231 16.9969790335463671 O
atom 5.3749615954022696 6.2373171708607611 17.2624146983327975 O
atom 7.6651830307795485 3.0065477926689645 17.2624156931295154 O
atom 8.3565422342978977 9.8554417755719168 17.2623794977320060 Ir
atom 3.7468821846713167 6.5877762293502125 18.3936035049938980 Ir
atom 6.3116878751044894 0.5425177661717160 16.9969823261670925 O
atom 3.5384785600138247 1.0037706757854941 17.2623839379531461 O
atom 9.5016385359729210 8.2400504166612514 17.2623875762415935 O
atom 6.5200545715118183 8.5536043801267834 19.5247868087202292 Ir
atom 5.5833689492672915 7.8896010616462604 16.1312238414963325 Ir
atom 8.1481557971645096 9.7077282327889254 19.2593587555953079 O
atom 5.3749502937128346 10.1689884121403633 19.5247733578903180 O
atom 6.7284639220263136 8.7013373205944351 17.5278383422436370 O
atom 7.6651642292788136 6.9382223849999276 19.5247773311237509 O
atom 12.0664832462234877 4.6219397920993979 17.2624326971672026 Ir
atom 7.4568034500510914 1.3542516759055514 18.3936053005062305 Ir
atom 2.6017877546419044 5.7760387343114568 16.9969916536474024 O
atom 10.9213766121148002 6.2373247540310706 17.2624384224098009 O
atom 2.1188219597679465 3.0065549873913864 17.2624470697697348 O
atom 10.2300119901889506 3.3201080550913744 19.5248235580249272 Ir
atom 11.8580915829023432 4.4742191036107970 19.2593862777029088 O
atom 9.0849086273201998 4.9354963846862709 19.5248233104596736 O
atom 10.4383809504047491 3.4678114364698813 17.5278413074186261 O
atom 11.3751263542087493 1.7047288933967921 19.5248268807779084 O
atom 12.0664770150046081 8.5536017825081885 19.5248072328771940 Ir
atom 11.1297478621724117 7.8896028569213543 16.1312229972795329 Ir
atom 13.6945741453939345 9.7076925173116759 19.2593659963742567 O
atom 10.9213596471475611 10.1690030231231017 19.5247995053610310 O
atom 12.2748849761905081 8.7013032719298256 17.5278493029355715 O
atom 13.2115792956117986 6.9382302980397714 19.5248045721914991 O
atom 13.9029559775466609 9.8554317364520223 17.2624078616126688 Ir
atom 9.2932661230693476 6.5877723215365815 18.3936023863686238 Ir
atom 0.7653351542035933 0.5424896922189923 16.9969935704327710 O
atom 9.0848895476490785 1.0037848330603767 17.2624071445502167 O
atom 3.9552842466427456 8.2400567675500636 17.2624137024968860 O
