#===============================================================================
# Created using the Atomic Simulation Environment (ASE)

# Mon Mar 23 14:01:00 2026

#=======================================================
lattice_vector 11.0927688637512336 0.0000000000000000 0.0000000000000000 
lattice_vector 3.6729463381512715 10.4670459790894856 0.0000000000000000 
lattice_vector 0.0000000000000000 0.0000000000000000 36.7872207409362133 
atom 8.3565397867289271 5.9237761118910610 17.2624163537436672 Ir
atom 3.7468801310848883 2.6560775098293061 18.3936122927954919 Ir
atom 9.9846107337519214 7.0779069214576218 16.9969949375054021 O
atom 7.2114408061323090 7.5391488175478347 17.2624117593119237 O
atom 8.5649070054231036 6.0715050845966818 15.2654582211467940 O
atom 9.5016566383811689 4.3083749647270730 17.2624190466397316 O
atom 10.1930048235968336 7.2256002679941815 15.0000386673896209 Ir
atom 5.5833668165554444 3.9579048429413741 16.1312331153621074 Ir
atom 9.0479044249503318 8.8409729131864481 15.0000352006007915 O
atom 6.7284488433940002 4.7696752189060074 17.5278544114409982 O
atom 11.3381258603276045 5.6102035349946515 15.0000361953975094 O
atom 8.3565387256946799 1.9920515388081168 15.0000000000000000 Ir
atom 7.4198250142193691 9.1914319716758985 16.1312240072618920 Ir
atom 7.2114213895618766 3.6074264181111810 15.0000044402211401 O
atom 8.5649254573930129 10.0031598439808072 17.5278323106808571 O
atom 9.5016350273696979 0.3766601798974518 15.0000080785095875 O
atom 6.5200510629085935 0.6902141433629837 17.2624073109882232 Ir
atom 8.1481522885612954 1.8443379960251245 16.9969792578633090 O
atom 5.3749467851096195 2.3055981753765646 17.2623938601583049 O
atom 6.7284604134230985 0.8379470838306360 15.2654588445116346 O
atom 11.3381070588268695 9.5418781273256119 17.2623978333917485 O
atom 4.6466572120203109 7.2255955344250848 15.0000531994351967 Ir
atom 11.1297462795991482 3.9579074182312368 16.1312258027742246 Ir
atom 3.5015505779116260 8.8409804963567566 15.0000589246777913 O
atom 12.2748606692251592 4.7696430792983691 17.5278564403990060 O
atom 5.7917647893159980 5.6102107297170711 15.0000675720377359 O
atom 2.8101859559857787 5.9237637974170596 17.2624440602929212 Ir
atom 9.2932638726854986 2.6560799197813427 18.3936077938732225 Ir
atom 4.4382655486991665 7.0778748459364840 16.9970067799709028 O
atom 12.7578514568682468 7.5391521270119588 17.2624438127276676 O
atom 3.0185549162015781 6.0714671787955670 15.2654618096866201 O
atom 3.9553003200055725 4.3083846357224784 17.2624473830459024 O
atom 0.9737046426501552 0.6902115457443889 17.2624277351451916 Ir
atom 2.6018017730394809 1.8443022805478766 16.9969864986422472 O
atom 10.9213561385443523 2.3056127863593034 17.2624200076290251 O
atom 1.1821126038360550 0.8379130351660253 15.2654698052035620 O
atom 5.7917532614086218 9.5418860403654584 17.2624250744594931 O
atom 2.8101836051922140 1.9920414996882236 15.0000283638806629 Ir
atom 12.9662089526174071 9.1914280638622667 16.1312228886366142 Ir
atom 1.6650635134459009 3.6074405753860623 15.0000276468182143 O
atom 14.1113427478728823 10.0031309540677249 17.5278427473852858 O
atom 3.9552807380395256 0.3766665307862632 15.0000342047648800 O
atom 4.6835969571808747 3.3201203695653718 21.7871897116339781 Ir
atom 6.3116679042038593 4.4742511791319339 21.5217682953957166 O
atom 3.5384979765842575 4.9354930752221486 21.7871851172022346 O
atom 4.8919641758750467 3.4678493422709953 19.7902315790371084 O
atom 5.8287138088331121 1.7047192224013861 21.7871924045300460 O
atom 6.5200619940487821 4.6219445256684963 19.5248120252799353 Ir
atom 1.9104239870073827 1.3542491006156878 20.6560064732524182 Ir
atom 8.1481379884966980 5.7760645425460231 19.2593728937046720 O
atom 5.3749615954022696 6.2373171708607611 19.5248085584911024 O
atom 7.6651830307795485 3.0065477926689645 19.5248095532878203 O
atom 8.3565422342978977 9.8554417755719168 19.5247733578903109 Ir
atom 3.7468821846713167 6.5877762293502125 20.6559973651522029 Ir
atom 6.3116878751044894 0.5425177661717160 19.2593761863253974 O
atom 3.5384785600138247 1.0037706757854941 19.5247777981114510 O
atom 9.5016385359729210 8.2400504166612514 19.5247814363998984 O
atom 6.5200545715118183 8.5536043801267834 21.7871806688785341 Ir
atom 5.5833689492672915 7.8896010616462604 18.3936177016546374 Ir
atom 8.1481557971645096 9.7077282327889254 21.5217526157536128 O
atom 5.3749502937128346 10.1689884121403633 21.7871672180486229 O
atom 6.7284639220263136 8.7013373205944351 19.7902322024019419 O
atom 7.6651642292788136 6.9382223849999276 21.7871711912820558 O
atom 12.0664832462234877 4.6219397920993979 19.5248265573255075 Ir
atom 7.4568034500510914 1.3542516759055514 20.6559991606645355 Ir
atom 2.6017877546419044 5.7760387343114568 19.2593855138057073 O
atom 10.9213766121148002 6.2373247540310706 19.5248322825681058 O
atom 2.1188219597679465 3.0065549873913864 19.5248409299280397 O
atom 10.2300119901889506 3.3201080550913744 21.7872174181832321 Ir
atom 11.8580915829023432 4.4742191036107970 21.5217801378612137 O
atom 9.0849086273201998 4.9354963846862709 21.7872171706179785 O
atom 10.4383809504047491 3.4678114364698813 19.7902351675769310 O
atom 11.3751263542087493 1.7047288933967921 21.7872207409362133 O
atom 12.0664770150046081 8.5536017825081885 21.7872010930354989 Ir
atom 11.1297478621724117 7.8896028569213543 18.3936168574378378 Ir
atom 13.6945741453939345 9.7076925173116759 21.5217598565325616 O
atom 10.9213596471475611 10.1690030231231017 21.7871933655193359 O
atom 12.2748849761905081 8.7013032719298256 19.7902431630938764 O
atom 13.2115792956117986 6.9382302980397714 21.7871984323498040 O
atom 13.9029559775466609 9.8554317364520223 19.5248017217709737 Ir
atom 9.2932661230693476 6.5877723215365815 20.6559962465269287 Ir
atom 0.7653351542035933 0.5424896922189923 19.2593874305910759 O
atom 9.0848895476490785 1.0037848330603767 19.5248010047085216 O
atom 3.9552842466427456 8.2400567675500636 19.5248075626551909 O
