#===============================================================================
# Created using the Atomic Simulation Environment (ASE)

# Mon Mar 23 14:01:02 2026

#=======================================================
lattice_vector 12.8301526818574523 0.0000000000000000 0.0000000000000000 
lattice_vector -0.0000000332592932 6.3830326800000003 0.0000000000000000 
lattice_vector 0.0000000000000000 0.0000000000000000 32.4549271145243523 
atom 6.4150430271627661 4.7872795652539741 16.2274608419599211 Ir
atom 6.4150163116879453 6.3830324125344164 17.4549193186554454 O
atom 4.4349721563249158 4.7872814537106896 16.2274562260590081 O
atom 6.4150244641031007 6.3830318879735000 15.0000012480268019 O
atom 8.3951474360757459 4.7872777067972905 16.2274627920748280 O
atom 6.4150423861828969 1.5957516652539694 16.2274619733306160 Ir
atom 6.4150273945412337 3.1915155725344535 17.4549064493141906 O
atom 4.4349707445986679 1.5957519137106857 16.2274573079320810 O
atom 6.4150337721131976 3.1915156179734763 15.0000148032656178 O
atom 8.3951456142274434 1.5957576767972856 16.2274645103439319 O
atom 3.2075237935428591 6.3830320127539988 16.2274564985602119 Ir
atom 3.2075351663049525 3.1915182927539800 16.2274690779920796 Ir
atom 9.6226072281908337 0.0000031777539892 16.2274629084845721 Ir
atom 9.6226005506171681 3.1915166677540054 16.2274533978970616 Ir
atom 0.0000135921615985 4.7872674602540011 16.2274648123736505 Ir
atom 0.0000347457228022 0.0000003975345149 17.4549080226431492 O
atom 10.8500614903402006 4.7872726287106930 16.2274590509531258 O
atom 0.0000410122534674 6.3830318729735351 15.0000176564578318 O
atom 1.9800853751677137 4.7872731117972931 16.2274667200557836 O
atom 0.0000162745845301 1.5957653102540117 16.2274610788503999 Ir
atom 0.0000250346554474 3.1915156275344656 17.4549271145243488 O
atom 10.8500643636814864 1.5957630587106975 16.2274577993747009 O
atom 0.0000332931383856 3.1915173429735688 15.0000000000000000 O
atom 1.9800879232400450 1.5957605517972997 16.2274645775227349 O
