#===============================================================================
# Created using the Atomic Simulation Environment (ASE)

# Mon Mar 23 14:01:00 2026

#=======================================================
lattice_vector 9.0722883300002515 0.0000000000000000 0.0000000000000000 
lattice_vector 0.0000042800008374 9.0722918799992431 0.0000000000000000 
lattice_vector 0.0000000000000000 0.0000000000000000 34.7872924324999815 
atom 2.2680556878704632 2.2680900050039252 15.0000094199999907 Ir
atom 0.8679314881348821 3.6682088852696793 15.0000075315432895 O
atom 3.6682017176000068 0.8679455247330222 15.0000112784566682 O
atom 2.2680560413886468 2.2680912650038407 18.1915373199999912 Ir
atom 0.0000108446254737 0.0000015199974361 16.5957728424999580 Ir
atom 3.1359801243632237 3.1360358002751934 16.5957734090433178 O
atom 0.8679312616531877 3.6682106552697316 18.1915370715432871 O
atom 1.4001133548996703 1.4001615097368771 16.5957733709566888 O
atom 3.6682016511184763 0.8679480347330369 18.1915313084566677 O
atom 2.2680520478613584 6.8041956150049101 15.0000000000000000 Ir
atom 3.1360096078770376 7.6721627602683649 19.7872885190432832 O
atom 0.8679167181273022 8.2043208852732885 15.0000141915433076 O
atom 1.4001183184075148 5.9362631697358310 19.7872877109566865 O
atom 3.6681811475935491 5.4040623047380025 15.0000135084566928 O
atom 2.2680518013797415 6.8041976450049679 18.1915441999999956 Ir
atom 0.0000119346258688 4.5361473699973054 16.5957706924999613 Ir
atom 3.1360009443563972 7.6721510302704106 16.5957720590432949 O
atom 0.8679156016454257 8.2043219252735504 18.1915344615433092 O
atom 1.4001314348922924 5.9362743997327385 16.5957728709566688 O
atom 3.6681803811117550 5.4040636947381806 18.1915337584566963 O
atom 6.8042389078716345 2.2680944149947129 15.0000120249999469 Ir
atom 4.5361465781431347 0.0000000999994241 19.7872858074999662 Ir
atom 5.4041100781397793 3.6682290652615586 15.0000168565432510 O
atom 5.9362901784113351 1.4001346597291726 19.7872884959566555 O
atom 8.2043784876058989 0.8679699247253312 15.0000208334566274 O
atom 6.8042422513892120 2.2680931449939234 18.1915328149999453 Ir
atom 4.5361394046256276 9.0722899700013695 16.5957723174999821 Ir
atom 7.6721727743621777 3.1360308302637572 16.5957718040432631 O
atom 5.4041121516573369 3.6682277352610684 18.1915301565432515 O
atom 5.9362804848917579 1.4001274297314596 16.5957728359566623 O
atom 8.2043802511233164 0.8679680347249145 18.1915275834566295 O
atom 6.8042379678638616 6.8042055849950609 15.0000215249999513 Ir
atom 4.5361506681441375 4.5361484999985855 19.7872888774999716 Ir
atom 7.6721867278679472 7.6721236802605910 19.7872885840432495 O
atom 5.4040889781337409 8.2043476352666609 15.0000163565432807 O
atom 8.2043608975988302 5.4040841447296071 15.0000158734566540 O
atom 6.8042372313806503 6.8042010549952341 18.1915236749999529 Ir
atom 4.5361393346248651 4.5361425600012586 16.5957743974999801 Ir
atom 7.6721933543548770 7.6721440402590311 16.5957733540432386 O
atom 5.4040901316509204 8.2043447252663864 18.1915259265432780 O
atom 5.9363028348850904 5.9362433397263148 16.5957716459566420 O
atom 8.2043611911159200 5.4040808347295375 18.1915284334566536 O
atom 9.0722870881436641 9.0722901200005399 19.7872924324999779 Ir
atom 3.1359814178850884 3.1360527202748880 19.7872892490433081 O
atom 1.4000972184168317 1.4001584897406822 19.7872897809567014 O
atom 9.0722833581437925 4.5361465000012933 19.7872896524999753 Ir
atom 7.6721659778774312 3.1360197202653595 19.7872895440432721 O
atom 5.9363208084046200 5.9362503497220738 19.7872897959566210 O
