#===============================================================================
# Created using the Atomic Simulation Environment (ASE)

# Mon Mar 23 14:01:01 2026

#=======================================================
lattice_vector 9.0722918800002521 0.0000000000000000 0.0000000000000000 
lattice_vector -0.0000000099999929 6.3830326800000003 0.0000000000000000 
lattice_vector 0.0000000000000000 0.0000000000000000 58.9527749005350898 
atom 0.0000025599978254 0.0000034326393714 18.1360029652664849 Ir
atom 4.5361508199975757 0.0000006526393639 18.1360013752659519 Ir
atom 2.2680976550045018 1.5957556919796496 15.8679580227612309 Ir
atom 3.1360233797337163 0.0000005360588705 16.7358846555322636 O
atom 1.4001374902701673 6.3830321579003266 15.0000096749982958 O
atom 0.8679738252738313 1.5957645085602532 17.2680982630267295 O
atom 2.2680963850052893 4.7872764819796654 15.8679613477615096 Ir
atom 3.1360344797353279 3.1915154760589024 16.7358914705296513 O
atom 1.4001302602678816 3.1915164979002806 15.0000000000000000 O
atom 0.8679719352742464 4.7872712585602608 17.2681000080272185 O
atom 6.8042088250038999 1.5957651919796350 15.8679549427693871 Ir
atom 7.6721273297382400 6.3830322560589581 16.7359032655421700 O
atom 5.9362531902770064 0.0000007779004603 15.0000381650054262 O
atom 5.4040880452693036 1.5957595485601606 17.2680785330342346 O
atom 6.8042042950037285 4.7872673419796321 15.8679541877705219 Ir
atom 7.6721476897398047 3.1915170260589889 16.7359099105373623 O
atom 5.9362461702727742 3.1915153079003757 15.0000202100070901 O
atom 5.4040847352693717 4.7872721085601615 17.2680788080350318 O
atom 2.2680953849948704 1.5957531132991647 20.4040631327619053 Ir
atom 0.0000068399969870 0.0000034852787695 27.2082912952657274 Ir
atom 3.1360585197237696 0.0000002673783796 21.2719884255240999 O
atom 3.6682136047291678 1.5957512167186334 19.0039382724977024 O
atom 1.4001634702582315 0.0000007892197961 19.5361050449922899 O
atom 0.8679515652657217 1.5957549798797992 21.8042098230321493 O
atom 2.2680966449949524 4.7872810132991681 20.4040634677615529 Ir
atom 0.0000058300016936 3.1915165226394482 18.1360193502657268 Ir
atom 3.1360415897234715 3.1915171073783735 21.2719871505280906 O
atom 3.6682153747291140 4.7872807567186317 19.0039380274972203 O
atom 1.4001664802620462 3.1915170592198718 19.5361211999915838 O
atom 0.8679540752657051 4.7872750098797976 21.8042097380315383 O
atom 6.8042009949936348 1.5957436932991373 20.4040573527714599 Ir
atom 4.5361550999967397 0.0000007052787620 27.2082897052651909 Ir
atom 7.6721685497300482 6.3830322173785019 21.2720144755325720 O
atom 8.2043256047253070 1.5957578767185534 19.0039213625056753 O
atom 5.9362681402628370 6.3830313992198846 19.5361240050020371 O
atom 5.4040683452604910 1.5957572098796922 21.8041871130390135 O
atom 6.8042030249935745 4.7872878932991370 20.4040570877708518 Ir
atom 4.5361516800015735 3.1915143726394435 18.1360183002657607 Ir
atom 7.6721568197280083 3.1915157573784612 21.2720058305353419 O
atom 8.2043266447250414 4.7872781467185481 19.0039202275054109 O
atom 5.9362793702659307 3.1915165592199464 19.5361371399993793 O
atom 5.4040697352603093 4.7872774598796894 21.8041863280386679 O
atom 2.2681019350036649 1.5957557446190476 24.9402463527604752 Ir
atom 0.0000065499992853 6.3830295139591087 22.6721550652656987 Ir
atom 3.1360276597328793 0.0000005886982685 25.8081729855314990 O
atom 3.6682359247368694 1.5957605680384941 23.5401168624925177 O
atom 1.4001417702693302 6.3830322105397244 24.0722980049975384 O
atom 0.8679781052729939 1.5957645611996512 26.3403865930259649 O
atom 2.2681006650044520 4.7872765346190631 24.9402496777607539 Ir
atom 0.0000045399965830 3.1915160239590543 22.6721436302661559 Ir
atom 3.1360387597344905 3.1915155286983006 25.8081798005288903 O
atom 3.6682345947373576 4.7872738680385032 23.5401189174928440 O
atom 1.4001345402670442 3.1915165505396783 24.0722883299992461 O
atom 0.8679762152734090 4.7872713111996585 26.3403883380264610 O
atom 6.8042131050030630 1.5957652446190331 24.9402432727686332 Ir
atom 4.5361549499998723 6.3830325839591167 22.6721570152651033 Ir
atom 7.6721316097374022 6.3830323086983558 25.8081915955414125 O
atom 8.2043544947315112 1.5957600680383845 23.5400936224989756 O
atom 5.9362574702761703 0.0000008305398584 24.0723264950046669 O
atom 5.4040923252684676 1.5957596011995583 26.3403668630334735 O
atom 6.8042085750028907 4.7872673946190298 24.9402425177697644 Ir
atom 4.5361490099971986 3.1915181039590634 22.6721457002664977 Ir
atom 7.6721519697389686 3.1915170786983875 25.8081982405366013 O
atom 8.2043515847317856 4.7872696380383903 23.5400947574996948 O
atom 5.9362504502719382 3.1915153605397739 24.0723085400063326 O
atom 5.4040890152685348 4.7872721611995592 26.3403671380342708 O
atom 2.2680996649940326 1.5957531659385631 29.4763514627611443 Ir
atom 0.0000111199961506 0.0000035379181675 36.2805796252649628 Ir
atom 3.1360627997229318 0.0000003200177777 30.3442767555233459 O
atom 3.6682178847283309 1.5957512693580316 28.0762266024969414 O
atom 1.4001677502573939 0.0000008418591941 28.6083933749915325 O
atom 0.8679558452648842 1.5957550325191974 30.8764981530313882 O
atom 2.2681009249941151 4.7872810659385658 29.4763517977607954 Ir
atom 0.0000101100008563 3.1915165752788468 27.2083076802649693 Ir
atom 3.1360458697226345 3.1915171600177721 30.3442754805273331 O
atom 3.6682196547282766 4.7872808093580295 28.0762263574964557 O
atom 1.4001707602612086 3.1915171118592696 28.6084095299908228 O
atom 0.8679583552648676 4.7872750625191953 30.8764980680307808 O
atom 6.8042052749927953 1.5957437459385355 29.4763456827707060 Ir
atom 4.5361593799959010 0.0000007579181601 36.2805780352644334 Ir
atom 7.6721728297292096 6.3830322700179005 30.3443028055318145 O
atom 8.2043298847244710 1.5957579293579518 28.0762096925049143 O
atom 5.9362724202619992 6.3830314518592832 28.6084123350012760 O
atom 5.4040726252596532 1.5957572625190903 30.8764754430382560 O
atom 6.8042073049927358 4.7872879459385347 29.4763454177700943 Ir
atom 4.5361559600007348 3.1915144252788417 27.2083066302649996 Ir
atom 7.6721610997271688 3.1915158100178593 30.3442941605345844 O
atom 8.2043309247242053 4.7872781993579467 28.0762085575046498 O
atom 5.9362836502650937 3.1915166118593450 28.6084254699986218 O
atom 5.4040740152594715 4.7872775125190881 30.8764746580379139 O
atom 2.2681062150028279 1.5957557972584457 34.0125346827597212 Ir
atom 0.0000108299984479 6.3830295665985064 31.7444433952649341 Ir
atom 3.1360319397320420 0.0000006413376666 34.8804613155307450 O
atom 3.6682402047360325 1.5957606206778925 32.6124051924917566 O
atom 1.4001460502684926 6.3830322631791230 33.1445863349967809 O
atom 0.8679823852721565 1.5957646138390496 35.4126749230252074 O
atom 2.2681049450036146 4.7872765872584617 34.0125380077599928 Ir
atom 0.0000088199957486 3.1915160765984525 31.7444319602654019 Ir
atom 3.1360430397336527 3.1915155813376983 34.8804681305281292 O
atom 3.6682388747365202 4.7872739206779009 32.6124072474920865 O
atom 1.4001388202662066 3.1915166031790769 33.1445766599984850 O
atom 0.8679804952725717 4.7872713638390572 35.4126766680257035 O
atom 6.8042173850022252 1.5957652972584315 34.0125316027678721 Ir
atom 4.5361592299990345 6.3830326365985144 31.7444453452643423 Ir
atom 7.6721358897365644 6.3830323613377535 34.8804799255406550 O
atom 8.2043587747306752 1.5957601206777829 32.6123819524982110 O
atom 5.9362617502753317 0.0000008831792564 33.1446148250039130 O
atom 5.4040966052676289 1.5957596538389562 35.4126551930327125 O
atom 6.8042128550020538 4.7872674472584285 34.0125308477690069 Ir
atom 4.5361532899963590 3.1915181565984612 31.7444340302657402 Ir
atom 7.6721562497381290 3.1915171313377853 34.8804865705358438 O
atom 8.2043558647309496 4.7872696906777890 32.6123830874989267 O
atom 5.9362547302710995 3.1915154131791721 33.1445968700055715 O
atom 5.4040932952676970 4.7872722138389578 35.4126554680335133 O
atom 2.2681039449931952 1.5957532185779610 38.5486397927603832 Ir
atom 3.1360670797220944 0.0000003726571758 39.4165650855225920 O
atom 3.6682221647274935 1.5957513219974298 37.1485149324961839 O
atom 1.4001720302565570 0.0000008944985922 37.6806817049907750 O
atom 0.8679601252640470 1.5957550851585953 39.9487864830306307 O
atom 2.2681052049932777 4.7872811185779636 38.5486401277600379 Ir
atom 0.0000143900000189 3.1915166279182445 36.2805960102642118 Ir
atom 3.1360501497217967 3.1915172126571698 39.4165638105265685 O
atom 3.6682239347274388 4.7872808619974272 37.1485146874956982 O
atom 1.4001750402603714 3.1915171644986682 37.6806978599900617 O
atom 0.8679626352640304 4.7872751151585939 39.9487863980300233 O
atom 6.8042095549919592 1.5957437985779337 38.5486340127699521 Ir
atom 7.6721771097283726 6.3830323226572983 39.4165911355310499 O
atom 8.2043341647236350 1.5957579819973498 37.1484980225041568 O
atom 5.9362767002611623 6.3830315044986810 37.6807006650005150 O
atom 5.4040769052588162 1.5957573151584885 39.9487637730374985 O
atom 6.8042115849918998 4.7872879985779333 38.5486337477693368 Ir
atom 4.5361602399998988 3.1915144779182394 36.2805949602642386 Ir
atom 7.6721653797263327 3.1915158626572571 39.4165824905338269 O
atom 8.2043352047233675 4.7872782519973445 37.1484968875038959 O
atom 5.9362879302642559 3.1915166644987436 37.6807137999978607 O
atom 5.4040782952586337 4.7872775651584858 39.9487629880371529 O
atom 2.2681104950019901 1.5957558498978437 43.0848230127589460 Ir
atom 0.0000151099976105 6.3830296192379041 40.8167317252641766 Ir
atom 3.1360362197312046 0.0000006939770647 43.9527496455299911 O
atom 3.6682444847351952 1.5957606733172907 41.6846935224910027 O
atom 1.4001503302676555 6.3830323158185207 42.2168746649960127 O
atom 2.2681092250027768 4.7872766398978595 43.0848263377592389 Ir
atom 0.0000130999949102 3.1915161292378502 40.8167202902646409 Ir
atom 3.1360473197328154 3.1915156339770965 43.9527564605273824 O
atom 3.6682431547356824 4.7872739733172995 41.6846955774913397 O
atom 1.4001431002653693 3.1915166558184747 42.2168649899977169 O
atom 6.8042216650013883 1.5957653498978293 43.0848199327671182 Ir
atom 4.5361635199981896 0.0000000092379127 40.8167336752635919 Ir
atom 7.6721401697357274 6.3830324139771513 43.9527682555398940 O
atom 8.2043630547298374 1.5957601733171807 41.6846702824974642 O
atom 5.9362660302744947 0.0000009358186545 42.2169031550031377 O
atom 6.8042171350012159 4.7872674998978262 43.0848191777682388 Ir
atom 4.5361575699955221 3.1915182092378589 40.8167223602649827 Ir
atom 7.6721605297372930 3.1915171839771830 43.9527749005350898 O
atom 8.2043601447301135 4.7872697433171867 41.6846714174981798 O
atom 5.9362590102702626 3.1915154658185698 42.2168852000048105 O
