#===============================================================================
# Created using the Atomic Simulation Environment (ASE)

# Mon Mar 23 14:01:01 2026

#=======================================================
lattice_vector 9.0722918800002521 0.0000000000000000 0.0000000000000000 
lattice_vector -0.0000000099999929 6.3830326800000003 0.0000000000000000 
lattice_vector 0.0000000000000000 0.0000000000000000 45.3443815255435538 
atom 2.2680996649940326 1.5957531659385631 15.8679580877696118 Ir
atom 0.0000111199961506 0.0000035379181675 22.6721862502734304 Ir
atom 3.1360627997229318 0.0000003200177777 16.7358833805318135 O
atom 1.4001677502573939 0.0000008418591941 15.0000000000000000 O
atom 0.8679558452648842 1.5957550325191974 17.2681047780398558 O
atom 2.2681009249941151 4.7872810659385658 15.8679584227692629 Ir
atom 3.1360458697226345 3.1915171600177721 16.7358821055358007 O
atom 1.4001707602612086 3.1915171118592696 15.0000161549992903 O
atom 0.8679583552648676 4.7872750625191953 17.2681046930392483 O
atom 6.8042052749927953 1.5957437459385355 15.8679523077791735 Ir
atom 4.5361593799959010 0.0000007579181601 22.6721846602729009 Ir
atom 7.6721728297292096 6.3830322700179005 16.7359094305402820 O
atom 5.9362724202619992 6.3830314518592832 15.0000189600097436 O
atom 5.4040726252596532 1.5957572625190903 17.2680820680467235 O
atom 6.8042073049927358 4.7872879459385347 15.8679520427785619 Ir
atom 7.6721610997271688 3.1915158100178593 16.7359007855430519 O
atom 5.9362836502650937 3.1915166118593450 15.0000320950070893 O
atom 5.4040740152594715 4.7872775125190881 17.2680812830463815 O
atom 2.2681062150028279 1.5957557972584457 20.4041413077681888 Ir
atom 0.0000108299984479 6.3830295665985064 18.1360500202734016 Ir
atom 3.1360319397320420 0.0000006413376666 21.2720679405392126 O
atom 3.6682402047360325 1.5957606206778925 19.0040118175002242 O
atom 1.4001460502684926 6.3830322631791230 19.5361929600052484 O
atom 0.8679823852721565 1.5957646138390496 21.8042815480336749 O
atom 2.2681049450036146 4.7872765872584617 20.4041446327684604 Ir
atom 0.0000088199957486 3.1915160765984525 18.1360385852738695 Ir
atom 3.1360430397336527 3.1915155813376983 21.2720747555365968 O
atom 3.6682388747365202 4.7872739206779009 19.0040138725005541 O
atom 1.4001388202662066 3.1915166031790769 19.5361832850069526 O
atom 0.8679804952725717 4.7872713638390572 21.8042832930341710 O
atom 6.8042173850022252 1.5957652972584315 20.4041382277763397 Ir
atom 4.5361592299990345 6.3830326365985144 18.1360519702728098 Ir
atom 7.6721358897365644 6.3830323613377535 21.2720865505491226 O
atom 8.2043587747306752 1.5957601206777829 19.0039885775066786 O
atom 5.9362617502753317 0.0000008831792564 19.5362214500123805 O
atom 5.4040966052676289 1.5957596538389562 21.8042618180411800 O
atom 6.8042128550020538 4.7872674472584285 20.4041374727774745 Ir
atom 4.5361532899963590 3.1915181565984612 18.1360406552742077 Ir
atom 7.6721562497381290 3.1915171313377853 21.2720931955443113 O
atom 8.2043558647309496 4.7872696906777890 19.0039897125073942 O
atom 5.9362547302710995 3.1915154131791721 19.5362034950140391 O
atom 5.4040932952676970 4.7872722138389578 21.8042620930419808 O
atom 2.2681039449931952 1.5957532185779610 24.9402464177688508 Ir
atom 3.1360670797220944 0.0000003726571758 25.8081717105310595 O
atom 3.6682221647274935 1.5957513219974298 23.5401215575046514 O
atom 1.4001720302565570 0.0000008944985922 24.0722883299992425 O
atom 0.8679601252640470 1.5957550851585953 26.3403931080390983 O
atom 2.2681052049932777 4.7872811185779636 24.9402467527685054 Ir
atom 0.0000143900000189 3.1915166279182445 22.6722026352726793 Ir
atom 3.1360501497217967 3.1915172126571698 25.8081704355350361 O
atom 3.6682239347274388 4.7872808619974272 23.5401213125041657 O
atom 1.4001750402603714 3.1915171644986682 24.0723044849985293 O
atom 0.8679626352640304 4.7872751151585939 26.3403930230384908 O
atom 6.8042095549919592 1.5957437985779337 24.9402406377784196 Ir
atom 7.6721771097283726 6.3830323226572983 25.8081977605395174 O
atom 8.2043341647236350 1.5957579819973498 23.5401046475126243 O
atom 5.9362767002611623 6.3830315044986810 24.0723072900089825 O
atom 5.4040769052588162 1.5957573151584885 26.3403703980459660 O
atom 6.8042115849918998 4.7872879985779333 24.9402403727778044 Ir
atom 4.5361602399998988 3.1915144779182394 22.6722015852727061 Ir
atom 7.6721653797263327 3.1915158626572571 25.8081891155422944 O
atom 8.2043352047233675 4.7872782519973445 23.5401035125123634 O
atom 5.9362879302642559 3.1915166644987436 24.0723204250063283 O
atom 5.4040782952586337 4.7872775651584858 26.3403696130456204 O
atom 2.2681104950019901 1.5957558498978437 29.4764296377674135 Ir
atom 0.0000151099976105 6.3830296192379041 27.2083383502726441 Ir
atom 3.1360362197312046 0.0000006939770647 30.3443562705384586 O
atom 3.6682444847351952 1.5957606733172907 28.0763001474994702 O
atom 1.4001503302676555 6.3830323158185207 28.6084812900044803 O
atom 2.2681092250027768 4.7872766398978595 29.4764329627677064 Ir
atom 0.0000130999949102 3.1915161292378502 27.2083269152731084 Ir
atom 3.1360473197328154 3.1915156339770965 30.3443630855358499 O
atom 3.6682431547356824 4.7872739733172995 28.0763022024998072 O
atom 1.4001431002653693 3.1915166558184747 28.6084716150061844 O
atom 6.8042216650013883 1.5957653498978293 29.4764265577755857 Ir
atom 4.5361635199981896 0.0000000092379127 27.2083403002720594 Ir
atom 7.6721401697357274 6.3830324139771513 30.3443748805483615 O
atom 8.2043630547298374 1.5957601733171807 28.0762769075059317 O
atom 5.9362660302744947 0.0000009358186545 28.6085097800116053 O
atom 6.8042171350012159 4.7872674998978262 29.4764258027767063 Ir
atom 4.5361575699955221 3.1915182092378589 27.2083289852734502 Ir
atom 7.6721605297372930 3.1915171839771830 30.3443815255435574 O
atom 8.2043601447301135 4.7872697433171867 28.0762780425066474 O
atom 5.9362590102702626 3.1915154658185698 28.6084918250132780 O
