#===============================================================================
# Created using the Atomic Simulation Environment (ASE)

# Mon Mar 23 14:01:01 2026

#=======================================================
lattice_vector 9.0722918800002521 0.0000000000000000 0.0000000000000000 
lattice_vector -0.0000000099999929 6.3830326800000003 0.0000000000000000 
lattice_vector 0.0000000000000000 0.0000000000000000 52.1485885724964220 
atom 0.0000068399969870 0.0000034852787695 20.4041049672270596 Ir
atom 0.8679515652657217 1.5957549798797992 15.0000234949934814 O
atom 0.8679540752657051 4.7872750098797976 15.0000234099928704 O
atom 4.5361550999967397 0.0000007052787620 20.4041033772265230 Ir
atom 5.4040683452604910 1.5957572098796922 15.0000007850003456 O
atom 5.4040697352603093 4.7872774598796894 15.0000000000000000 O
atom 2.2681019350036649 1.5957557446190476 18.1360600247218073 Ir
atom 0.0000065499992853 6.3830295139591087 15.8679687372270308 Ir
atom 3.1360276597328793 0.0000005886982685 19.0039866574928311 O
atom 3.6682359247368694 1.5957605680384941 16.7359305344538498 O
atom 1.4001417702693302 6.3830322105397244 17.2681116769588705 O
atom 0.8679781052729939 1.5957645611996512 19.5362002649872970 O
atom 2.2681006650044520 4.7872765346190631 18.1360633497220860 Ir
atom 0.0000045399965830 3.1915160239590543 15.8679573022274880 Ir
atom 3.1360387597344905 3.1915155286983006 19.0039934724902224 O
atom 3.6682345947373576 4.7872738680385032 16.7359325894541762 O
atom 1.4001345402670442 3.1915165505396783 17.2681020019605782 O
atom 0.8679762152734090 4.7872713111996585 19.5362020099877931 O
atom 6.8042131050030630 1.5957652446190331 18.1360569447299653 Ir
atom 4.5361549499998723 6.3830325839591167 15.8679706872264354 Ir
atom 7.6721316097374022 6.3830323086983558 19.0040052675027447 O
atom 8.2043544947315112 1.5957600680383845 16.7359072944603078 O
atom 5.9362574702761703 0.0000008305398584 17.2681401669659991 O
atom 5.4040923252684676 1.5957596011995583 19.5361805349948057 O
atom 6.8042085750028907 4.7872673946190298 18.1360561897310966 Ir
atom 4.5361490099971986 3.1915181039590634 15.8679593722278298 Ir
atom 7.6721519697389686 3.1915170786983875 19.0040119124979334 O
atom 8.2043515847317856 4.7872696380383903 16.7359084294610270 O
atom 5.9362504502719382 3.1915153605397739 17.2681222119676647 O
atom 5.4040890152685348 4.7872721611995592 19.5361808099956029 O
atom 2.2680996649940326 1.5957531659385631 22.6721651347224764 Ir
atom 0.0000111199961506 0.0000035379181675 29.4763932972262950 Ir
atom 3.1360627997229318 0.0000003200177777 23.5400904274846781 O
atom 3.6682178847283309 1.5957512693580316 21.2720402744582735 O
atom 1.4001677502573939 0.0000008418591941 21.8042070469528646 O
atom 0.8679558452648842 1.5957550325191974 24.0723118249927204 O
atom 2.2681009249941151 4.7872810659385658 22.6721654697221275 Ir
atom 0.0000101100008563 3.1915165752788468 20.4041213522263014 Ir
atom 3.1360458697226345 3.1915171600177721 23.5400891524886653 O
atom 3.6682196547282766 4.7872808093580295 21.2720400294577878 O
atom 1.4001707602612086 3.1915171118592696 21.8042232019521549 O
atom 0.8679583552648676 4.7872750625191953 24.0723117399921129 O
atom 6.8042052749927953 1.5957437459385355 22.6721593547320381 Ir
atom 4.5361593799959010 0.0000007579181601 29.4763917072257655 Ir
atom 7.6721728297292096 6.3830322700179005 23.5401164774931466 O
atom 8.2043298847244710 1.5957579293579518 21.2720233644662464 O
atom 5.9362724202619992 6.3830314518592832 21.8042260069626082 O
atom 5.4040726252596532 1.5957572625190903 24.0722891149995881 O
atom 6.8042073049927358 4.7872879459385347 22.6721590897314265 Ir
atom 4.5361559600007348 3.1915144252788417 20.4041203022263318 Ir
atom 7.6721610997271688 3.1915158100178593 23.5401078324959165 O
atom 8.2043309247242053 4.7872781993579467 21.2720222294659820 O
atom 5.9362836502650937 3.1915166118593450 21.8042391419599539 O
atom 5.4040740152594715 4.7872775125190881 24.0722883299992461 O
atom 2.2681062150028279 1.5957557972584457 27.2083483547210534 Ir
atom 0.0000108299984479 6.3830295665985064 24.9402570672262662 Ir
atom 3.1360319397320420 0.0000006413376666 28.0762749874920772 O
atom 3.6682402047360325 1.5957606206778925 25.8082188644530888 O
atom 1.4001460502684926 6.3830322631791230 26.3404000069581130 O
atom 0.8679823852721565 1.5957646138390496 28.6084885949865395 O
atom 2.2681049450036146 4.7872765872584617 27.2083516797213250 Ir
atom 0.0000088199957486 3.1915160765984525 24.9402456322267341 Ir
atom 3.1360430397336527 3.1915155813376983 28.0762818024894614 O
atom 3.6682388747365202 4.7872739206779009 25.8082209194534187 O
atom 1.4001388202662066 3.1915166031790769 26.3403903319598172 O
atom 0.8679804952725717 4.7872713638390572 28.6084903399870356 O
atom 6.8042173850022252 1.5957652972584315 27.2083452747292043 Ir
atom 4.5361592299990345 6.3830326365985144 24.9402590172256744 Ir
atom 7.6721358897365644 6.3830323613377535 28.0762935975019872 O
atom 8.2043587747306752 1.5957601206777829 25.8081956244595432 O
atom 5.9362617502753317 0.0000008831792564 26.3404284969652451 O
atom 5.4040966052676289 1.5957596538389562 28.6084688649940446 O
atom 6.8042128550020538 4.7872674472584285 27.2083445197303391 Ir
atom 4.5361532899963590 3.1915181565984612 24.9402477022270723 Ir
atom 7.6721562497381290 3.1915171313377853 28.0763002424971759 O
atom 8.2043558647309496 4.7872696906777890 25.8081967594602588 O
atom 5.9362547302710995 3.1915154131791721 26.3404105419669037 O
atom 5.4040932952676970 4.7872722138389578 28.6084691399948454 O
atom 2.2681039449931952 1.5957532185779610 31.7444534647217154 Ir
atom 3.1360670797220944 0.0000003726571758 32.6123787574839241 O
atom 3.6682221647274935 1.5957513219974298 30.3443286044575160 O
atom 1.4001720302565570 0.0000008944985922 30.8764953769521071 O
atom 0.8679601252640470 1.5957550851585953 33.1446001549919629 O
atom 2.2681052049932777 4.7872811185779636 31.7444537997213700 Ir
atom 0.0000143900000189 3.1915166279182445 29.4764096822255439 Ir
atom 3.1360501497217967 3.1915172126571698 32.6123774824879007 O
atom 3.6682239347274388 4.7872808619974272 30.3443283594570303 O
atom 1.4001750402603714 3.1915171644986682 30.8765115319513939 O
atom 0.8679626352640304 4.7872751151585939 33.1446000699913554 O
atom 6.8042095549919592 1.5957437985779337 31.7444476847312842 Ir
atom 7.6721771097283726 6.3830323226572983 32.6124048074923820 O
atom 8.2043341647236350 1.5957579819973498 30.3443116944654889 O
atom 5.9362767002611623 6.3830315044986810 30.8765143369618471 O
atom 5.4040769052588162 1.5957573151584885 33.1445774449988306 O
atom 6.8042115849918998 4.7872879985779333 31.7444474197306690 Ir
atom 4.5361602399998988 3.1915144779182394 29.4764086322255707 Ir
atom 7.6721653797263327 3.1915158626572571 32.6123961624951590 O
atom 8.2043352047233675 4.7872782519973445 30.3443105594652280 O
atom 5.9362879302642559 3.1915166644987436 30.8765274719591929 O
atom 5.4040782952586337 4.7872775651584858 33.1445766599984850 O
atom 2.2681104950019901 1.5957558498978437 36.2806366847202781 Ir
atom 0.0000151099976105 6.3830296192379041 34.0125453972255087 Ir
atom 3.1360362197312046 0.0000006939770647 37.1485633174913232 O
atom 3.6682444847351952 1.5957606733172907 34.8805071944523348 O
atom 1.4001503302676555 6.3830323158185207 35.4126883369573449 O
atom 2.2681092250027768 4.7872766398978595 36.2806400097205710 Ir
atom 0.0000130999949102 3.1915161292378502 34.0125339622259730 Ir
atom 3.1360473197328154 3.1915156339770965 37.1485701324887145 O
atom 3.6682431547356824 4.7872739733172995 34.8805092494526718 O
atom 1.4001431002653693 3.1915166558184747 35.4126786619590490 O
atom 6.8042216650013883 1.5957653498978293 36.2806336047284503 Ir
atom 4.5361635199981896 0.0000000092379127 34.0125473472249240 Ir
atom 7.6721401697357274 6.3830324139771513 37.1485819275012261 O
atom 8.2043630547298374 1.5957601733171807 34.8804839544587963 O
atom 5.9362660302744947 0.0000009358186545 35.4127168269644699 O
atom 6.8042171350012159 4.7872674998978262 36.2806328497295709 Ir
atom 4.5361575699955221 3.1915182092378589 34.0125360322263148 Ir
atom 7.6721605297372930 3.1915171839771830 37.1485885724964220 O
atom 8.2043601447301135 4.7872697433171867 34.8804850894595120 O
atom 5.9362590102702626 3.1915154658185698 35.4126988719661426 O
