#===============================================================================
# Created using the Atomic Simulation Environment (ASE)

# Mon Mar 23 14:01:01 2026

#=======================================================
lattice_vector 9.0722918800002521 0.0000000000000000 0.0000000000000000 
lattice_vector -0.0000000099999929 6.3830326800000003 0.0000000000000000 
lattice_vector 0.0000000000000000 0.0000000000000000 56.6846963675008553 
atom 0.0000025599978254 0.0000034326393714 15.8679244322322504 Ir
atom 4.5361508199975757 0.0000006526393639 15.8679228422317173 Ir
atom 0.8679738252738313 1.5957645085602532 15.0000197299924949 O
atom 0.8679719352742464 4.7872712585602608 15.0000214749929839 O
atom 5.4040880452693036 1.5957595485601606 15.0000000000000000 O
atom 5.4040847352693717 4.7872721085601615 15.0000002750007972 O
atom 2.2680953849948704 1.5957531132991647 18.1359845997276707 Ir
atom 0.0000068399969870 0.0000034852787695 24.9402127622314929 Ir
atom 3.1360585197237696 0.0000002673783796 19.0039098924898653 O
atom 3.6682136047291678 1.5957512167186334 16.7358597394634678 O
atom 1.4001634702582315 0.0000007892197961 17.2680265119580554 O
atom 0.8679515652657217 1.5957549798797992 19.5361312899979147 O
atom 2.2680966449949524 4.7872810132991681 18.1359849347273183 Ir
atom 0.0000058300016936 3.1915165226394482 15.8679408172314922 Ir
atom 3.1360415897234715 3.1915171073783735 19.0039086174938561 O
atom 3.6682153747291140 4.7872807567186317 16.7358594944629857 O
atom 1.4001664802620462 3.1915170592198718 17.2680426669573492 O
atom 0.8679540752657051 4.7872750098797976 19.5361312049973037 O
atom 6.8042009949936348 1.5957436932991373 18.1359788197372254 Ir
atom 4.5361550999967397 0.0000007052787620 24.9402111722309563 Ir
atom 7.6721685497300482 6.3830322173785019 19.0039359424983374 O
atom 8.2043256047253070 1.5957578767185534 16.7358428294714408 O
atom 5.9362681402628370 6.3830313992198846 17.2680454719678025 O
atom 5.4040683452604910 1.5957572098796922 19.5361085800047789 O
atom 6.8042030249935745 4.7872878932991370 18.1359785547366172 Ir
atom 4.5361516800015735 3.1915143726394435 15.8679397672315261 Ir
atom 7.6721568197280083 3.1915157573784612 19.0039272975011073 O
atom 8.2043266447250414 4.7872781467185481 16.7358416944711763 O
atom 5.9362793702659307 3.1915165592199464 17.2680586069651447 O
atom 5.4040697352603093 4.7872774598796894 19.5361077950044333 O
atom 2.2681019350036649 1.5957557446190476 22.6721678197262406 Ir
atom 0.0000065499992853 6.3830295139591087 20.4040765322314641 Ir
atom 3.1360276597328793 0.0000005886982685 23.5400944524972644 O
atom 3.6682359247368694 1.5957605680384941 21.2720383294582831 O
atom 1.4001417702693302 6.3830322105397244 21.8042194719633038 O
atom 0.8679781052729939 1.5957645611996512 24.0723080599917303 O
atom 2.2681006650044520 4.7872765346190631 22.6721711447265193 Ir
atom 0.0000045399965830 3.1915160239590543 20.4040650972319213 Ir
atom 3.1360387597344905 3.1915155286983006 23.5401012674946557 O
atom 3.6682345947373576 4.7872738680385032 21.2720403844586095 O
atom 1.4001345402670442 3.1915165505396783 21.8042097969650115 O
atom 0.8679762152734090 4.7872713111996585 24.0723098049922264 O
atom 6.8042131050030630 1.5957652446190331 22.6721647397343986 Ir
atom 4.5361549499998723 6.3830325839591167 20.4040784822308687 Ir
atom 7.6721316097374022 6.3830323086983558 23.5401130625071779 O
atom 8.2043544947315112 1.5957600680383845 21.2720150894647411 O
atom 5.9362574702761703 0.0000008305398584 21.8042479619704324 O
atom 5.4040923252684676 1.5957596011995583 24.0722883299992390 O
atom 6.8042085750028907 4.7872673946190298 22.6721639847355299 Ir
atom 4.5361490099971986 3.1915181039590634 20.4040671672322631 Ir
atom 7.6721519697389686 3.1915170786983875 23.5401197075023667 O
atom 8.2043515847317856 4.7872696380383903 21.2720162244654603 O
atom 5.9362504502719382 3.1915153605397739 21.8042300069720980 O
atom 5.4040890152685348 4.7872721611995592 24.0722886050000362 O
atom 2.2680996649940326 1.5957531659385631 27.2082729297269097 Ir
atom 0.0000111199961506 0.0000035379181675 34.0125010922307283 Ir
atom 3.1360627997229318 0.0000003200177777 28.0761982224891113 O
atom 3.6682178847283309 1.5957512693580316 25.8081480694627068 O
atom 1.4001677502573939 0.0000008418591941 26.3403148419572979 O
atom 0.8679558452648842 1.5957550325191974 28.6084196199971537 O
atom 2.2681009249941151 4.7872810659385658 27.2082732647265608 Ir
atom 0.0000101100008563 3.1915165752788468 24.9402291472307347 Ir
atom 3.1360458697226345 3.1915171600177721 28.0761969474930986 O
atom 3.6682196547282766 4.7872808093580295 25.8081478244622211 O
atom 1.4001707602612086 3.1915171118592696 26.3403309969565882 O
atom 0.8679583552648676 4.7872750625191953 28.6084195349965462 O
atom 6.8042052749927953 1.5957437459385355 27.2082671497364714 Ir
atom 4.5361593799959010 0.0000007579181601 34.0124995022301988 Ir
atom 7.6721728297292096 6.3830322700179005 28.0762242724975799 O
atom 8.2043298847244710 1.5957579293579518 25.8081311594706797 O
atom 5.9362724202619992 6.3830314518592832 26.3403338019670414 O
atom 5.4040726252596532 1.5957572625190903 28.6083969100040214 O
atom 6.8042073049927358 4.7872879459385347 27.2082668847358597 Ir
atom 4.5361559600007348 3.1915144252788417 24.9402280972307651 Ir
atom 7.6721610997271688 3.1915158100178593 28.0762156275003498 O
atom 8.2043309247242053 4.7872781993579467 25.8081300244704153 O
atom 5.9362836502650937 3.1915166118593450 26.3403469369643872 O
atom 5.4040740152594715 4.7872775125190881 28.6083961250036793 O
atom 2.2681062150028279 1.5957557972584457 31.7444561497254867 Ir
atom 0.0000108299984479 6.3830295665985064 29.4763648622306995 Ir
atom 3.1360319397320420 0.0000006413376666 32.6123827824965105 O
atom 3.6682402047360325 1.5957606206778925 30.3443266594575221 O
atom 1.4001460502684926 6.3830322631791230 30.8765078019625463 O
atom 0.8679823852721565 1.5957646138390496 33.1445963899909728 O
atom 2.2681049450036146 4.7872765872584617 31.7444594747257582 Ir
atom 0.0000088199957486 3.1915160765984525 29.4763534272311674 Ir
atom 3.1360430397336527 3.1915155813376983 32.6123895974938947 O
atom 3.6682388747365202 4.7872739206779009 30.3443287144578520 O
atom 1.4001388202662066 3.1915166031790769 30.8764981269642504 O
atom 0.8679804952725717 4.7872713638390572 33.1445981349914689 O
atom 6.8042173850022252 1.5957652972584315 31.7444530697336376 Ir
atom 4.5361592299990345 6.3830326365985144 29.4763668122301077 Ir
atom 7.6721358897365644 6.3830323613377535 32.6124013925064204 O
atom 8.2043587747306752 1.5957601206777829 30.3443034194639765 O
atom 5.9362617502753317 0.0000008831792564 30.8765362919696784 O
atom 5.4040966052676289 1.5957596538389562 33.1445766599984779 O
atom 6.8042128550020538 4.7872674472584285 31.7444523147347724 Ir
atom 4.5361532899963590 3.1915181565984612 29.4763554972315056 Ir
atom 7.6721562497381290 3.1915171313377853 32.6124080375016092 O
atom 8.2043558647309496 4.7872696906777890 30.3443045544646921 O
atom 5.9362547302710995 3.1915154131791721 30.8765183369713370 O
atom 5.4040932952676970 4.7872722138389578 33.1445769349992787 O
atom 2.2681039449931952 1.5957532185779610 36.2805612597261486 Ir
atom 3.1360670797220944 0.0000003726571758 37.1484865524883574 O
atom 3.6682221647274935 1.5957513219974298 34.8804363994619493 O
atom 1.4001720302565570 0.0000008944985922 35.4126031719565404 O
atom 0.8679601252640470 1.5957550851585953 37.6807079499963962 O
atom 2.2681052049932777 4.7872811185779636 36.2805615947258033 Ir
atom 0.0000143900000189 3.1915166279182445 34.0125174772299772 Ir
atom 3.1360501497217967 3.1915172126571698 37.1484852774923340 O
atom 3.6682239347274388 4.7872808619974272 34.8804361544614636 O
atom 1.4001750402603714 3.1915171644986682 35.4126193269558271 O
atom 0.8679626352640304 4.7872751151585939 37.6807078649957887 O
atom 6.8042095549919592 1.5957437985779337 36.2805554797357175 Ir
atom 7.6721771097283726 6.3830323226572983 37.1485126024968153 O
atom 8.2043341647236350 1.5957579819973498 34.8804194894699222 O
atom 5.9362767002611623 6.3830315044986810 35.4126221319662804 O
atom 5.4040769052588162 1.5957573151584885 37.6806852400032639 O
atom 6.8042115849918998 4.7872879985779333 36.2805552147351023 Ir
atom 4.5361602399998988 3.1915144779182394 34.0125164272300040 Ir
atom 7.6721653797263327 3.1915158626572571 37.1485039574995923 O
atom 8.2043352047233675 4.7872782519973445 34.8804183544696613 O
atom 5.9362879302642559 3.1915166644987436 35.4126352669636262 O
atom 5.4040782952586337 4.7872775651584858 37.6806844550029183 O
atom 2.2681104950019901 1.5957558498978437 40.8167444797247114 Ir
atom 0.0000151099976105 6.3830296192379041 38.5486531922299420 Ir
atom 3.1360362197312046 0.0000006939770647 41.6846711124957565 O
atom 3.6682444847351952 1.5957606733172907 39.4166149894567681 O
atom 1.4001503302676555 6.3830323158185207 39.9487961319617781 O
atom 2.2681092250027768 4.7872766398978595 40.8167478047250043 Ir
atom 0.0000130999949102 3.1915161292378502 38.5486417572304063 Ir
atom 3.1360473197328154 3.1915156339770965 41.6846779274931478 O
atom 3.6682431547356824 4.7872739733172995 39.4166170444571051 O
atom 1.4001431002653693 3.1915166558184747 39.9487864569634823 O
atom 6.8042216650013883 1.5957653498978293 40.8167413997328836 Ir
atom 4.5361635199981896 0.0000000092379127 38.5486551422293573 Ir
atom 7.6721401697357274 6.3830324139771513 41.6846897225056594 O
atom 8.2043630547298374 1.5957601733171807 39.4165917494632296 O
atom 5.9362660302744947 0.0000009358186545 39.9488246219689032 O
atom 6.8042171350012159 4.7872674998978262 40.8167406447340042 Ir
atom 4.5361575699955221 3.1915182092378589 38.5486438272307481 Ir
atom 7.6721605297372930 3.1915171839771830 41.6846963675008553 O
atom 8.2043601447301135 4.7872697433171867 39.4165928844639453 O
atom 5.9362590102702626 3.1915154658185698 39.9488066669705759 O
