#===============================================================================
# Created using the Atomic Simulation Environment (ASE)

# Mon Mar 23 14:01:00 2026

#=======================================================
lattice_vector 11.0927688637512336 0.0000000000000000 0.0000000000000000 
lattice_vector 3.6729463381512715 10.4670459790894856 0.0000000000000000 
lattice_vector 0.0000000000000000 0.0000000000000000 31.9969891618991049 
atom 4.6835969571808747 3.3201203695653718 16.9969581325968697 Ir
atom 6.3116679042038593 4.4742511791319339 16.7315367163586082 O
atom 3.5384979765842575 4.9354930752221486 16.9969535381651262 O
atom 4.8919641758750467 3.4678493422709953 15.0000000000000000 O
atom 5.8287138088331121 1.7047192224013861 16.9969608254929376 O
atom 1.9104239870073827 1.3542491006156878 15.8657748942153098 Ir
atom 3.7468821846713167 6.5877762293502125 15.8657657861150945 Ir
atom 6.5200545715118183 8.5536043801267834 16.9969490898414257 Ir
atom 8.1481557971645096 9.7077282327889254 16.7315210367165044 O
atom 5.3749502937128346 10.1689884121403633 16.9969356390115145 O
atom 6.7284639220263136 8.7013373205944351 15.0000006233648335 O
atom 7.6651642292788136 6.9382223849999276 16.9969396122449474 O
atom 7.4568034500510914 1.3542516759055514 15.8657675816274271 Ir
atom 10.2300119901889506 3.3201080550913744 16.9969858391461237 Ir
atom 11.8580915829023432 4.4742191036107970 16.7315485588241053 O
atom 9.0849086273201998 4.9354963846862709 16.9969855915808701 O
atom 10.4383809504047491 3.4678114364698813 15.0000035885398226 O
atom 11.3751263542087493 1.7047288933967921 16.9969891618991049 O
atom 12.0664770150046081 8.5536017825081885 16.9969695139983905 Ir
atom 13.6945741453939345 9.7076925173116759 16.7315282774954532 O
atom 10.9213596471475611 10.1690030231231017 16.9969617864822276 O
atom 12.2748849761905081 8.7013032719298256 15.0000115840567680 O
atom 13.2115792956117986 6.9382302980397714 16.9969668533126956 O
atom 9.2932661230693476 6.5877723215365815 15.8657646674898203 Ir
