#===============================================================================
# Created using the Atomic Simulation Environment (ASE)

# Mon Mar 23 14:01:00 2026

#=======================================================
lattice_vector 9.0722883300002515 0.0000000000000000 0.0000000000000000 
lattice_vector 0.0000042800008374 9.0722918799992431 0.0000000000000000 
lattice_vector 0.0000000000000000 0.0000000000000000 41.1703251124999809 
atom 2.2680556508347189 2.2680900150039354 15.0000094199999943 Ir
atom 0.8679314510991373 3.6682088952696890 15.0000075315432895 O
atom 3.6682016805642621 0.8679455347330326 15.0000112784566717 O
atom 2.2680560043529021 2.2680912750038504 18.1915373199999948 Ir
atom 0.0000108075897289 0.0000015299974465 16.5957728424999615 Ir
atom 3.1359800873274790 3.1360358102752035 16.5957734090433178 O
atom 0.8679312246174431 3.6682106652697417 18.1915370715432942 O
atom 1.4001133178639256 1.4001615197368875 16.5957733709566888 O
atom 3.6682016140827316 0.8679480447330474 18.1915313084566712 O
atom 2.2680520108256137 6.8041956250049207 15.0000000000000000 Ir
atom 3.1360095708412929 7.6721627702683755 19.7872885190432868 O
atom 0.8679166810915575 8.2043208952733000 15.0000141915433076 O
atom 1.4001182813717703 5.9362631797358416 19.7872877109566865 O
atom 3.6681811105578044 5.4040623147380131 15.0000135084566963 O
atom 2.2680517643439972 6.8041976550049785 18.1915442000000027 Ir
atom 0.0000118975901240 4.5361473799973160 16.5957706924999613 Ir
atom 3.1360009073206530 7.6721510402704212 16.5957720590432984 O
atom 0.8679155646096808 8.2043219352735619 18.1915344615433092 O
atom 1.4001313978565477 5.9362744097327500 16.5957728709566723 O
atom 3.6681803440760103 5.4040637047381912 18.1915337584566998 O
atom 6.8042388708358885 2.2680944249947235 15.0000120249999505 Ir
atom 4.5361465411073887 0.0000001099994345 19.7872858074999698 Ir
atom 5.4041100411040341 3.6682290752615687 15.0000168565432546 O
atom 5.9362901413755900 1.4001346697291825 19.7872884959566555 O
atom 8.2043784505701538 0.8679699347253418 15.0000208334566381 O
atom 6.8042422143534669 2.2680931549939336 18.1915328149999453 Ir
atom 4.5361393675898825 9.0722899800013810 16.5957723174999856 Ir
atom 7.6721727373264317 3.1360308402637673 16.5957718040432631 O
atom 5.4041121146215918 3.6682277452610781 18.1915301565432515 O
atom 5.9362804478560118 1.4001274397314700 16.5957728359566659 O
atom 8.2043802140875712 0.8679680447249248 18.1915275834566330 O
atom 6.8042379308281165 6.8042055949950724 15.0000215249999513 Ir
atom 4.5361506311083915 4.5361485099985961 19.7872888774999716 Ir
atom 7.6721866908322021 7.6721236902606016 19.7872885840432495 O
atom 5.4040889410979958 8.2043476452666724 15.0000163565432771 O
atom 8.2043608605630851 5.4040841547296186 15.0000158734566540 O
atom 6.8042371943449043 6.8042010649952447 18.1915236749999529 Ir
atom 4.5361392975891199 4.5361425700012692 16.5957743974999801 Ir
atom 7.6721933173191301 7.6721440502590408 16.5957733540432457 O
atom 5.4040900946151753 8.2043447352663978 18.1915259265432780 O
atom 5.9363027978493452 5.9362433497263245 16.5957716459566385 O
atom 8.2043611540801749 5.4040808447295481 18.1915284334566536 O
atom 2.2680556878704632 2.2680900050039252 21.3830420999999937 Ir
atom 9.0722870511079226 9.0722901300005478 19.7872924324999815 Ir
atom 3.1359813808493437 3.1360527302748986 19.7872892490433152 O
atom 0.8679314881348821 3.6682088852696793 21.3830402115432925 O
atom 1.4000971813810863 1.4001584997406926 19.7872897809567085 O
atom 3.6682017176000068 0.8679455247330222 21.3830439584566712 O
atom 2.2680560413886468 2.2680912650038407 24.5745699999999943 Ir
atom 0.0000108446254737 0.0000015199974361 22.9788055224999610 Ir
atom 3.1359801243632237 3.1360358002751934 22.9788060890433208 O
atom 0.8679312616531877 3.6682106552697316 24.5745697515432902 O
atom 1.4001133548996703 1.4001615097368771 22.9788060509566918 O
atom 3.6682016511184763 0.8679480347330369 24.5745639884566707 O
atom 2.2680520478613584 6.8041956150049101 21.3830326800000030 Ir
atom 9.0722833211080491 4.5361465100013039 19.7872896524999824 Ir
atom 3.1360096078770376 7.6721627602683649 26.1703211990432862 O
atom 0.8679167181273022 8.2043208852732885 21.3830468715433106 O
atom 1.4001183184075148 5.9362631697358310 26.1703203909566895 O
atom 3.6681811475935491 5.4040623047380025 21.3830461884566958 O
atom 2.2680518013797415 6.8041976450049679 24.5745768799999986 Ir
atom 0.0000119346258688 4.5361473699973054 22.9788033724999643 Ir
atom 3.1360009443563972 7.6721510302704106 22.9788047390432979 O
atom 0.8679156016454257 8.2043219252735504 24.5745671415433122 O
atom 1.4001314348922924 5.9362743997327385 22.9788055509566718 O
atom 3.6681803811117550 5.4040636947381806 24.5745664384566993 O
atom 6.8042389078716345 2.2680944149947129 21.3830447049999499 Ir
atom 4.5361465781431347 0.0000000999994241 26.1703184874999693 Ir
atom 7.6721659408416869 3.1360197302653705 19.7872895440432721 O
atom 5.4041100781397793 3.6682290652615586 21.3830495365432540 O
atom 5.9362901784113351 1.4001346597291726 26.1703211759566585 O
atom 8.2043784876058989 0.8679699247253312 21.3830535134566304 O
atom 6.8042422513892120 2.2680931449939234 24.5745654949999484 Ir
atom 4.5361394046256276 9.0722899700013695 22.9788049974999851 Ir
atom 7.6721727743621777 3.1360308302637572 22.9788044840432661 O
atom 5.4041121516573369 3.6682277352610684 24.5745628365432545 O
atom 5.9362804848917579 1.4001274297314596 22.9788055159566653 O
atom 8.2043802511233164 0.8679680347249145 24.5745602634566325 O
atom 6.8042379678638616 6.8042055849950609 21.3830542049999544 Ir
atom 4.5361506681441375 4.5361484999985855 26.1703215574999746 Ir
atom 7.6721867278679472 7.6721236802605910 26.1703212640432525 O
atom 5.4040889781337409 8.2043476352666609 21.3830490365432837 O
atom 5.9363207713688757 5.9362503597220853 19.7872897959566245 O
atom 8.2043608975988302 5.4040841447296071 21.3830485534566570 O
atom 6.8042372313806503 6.8042010549952341 24.5745563549999559 Ir
atom 4.5361393346248651 4.5361425600012586 22.9788070774999831 Ir
atom 7.6721933543548770 7.6721440402590311 22.9788060340432416 O
atom 5.4040901316509204 8.2043447252663864 24.5745586065432811 O
atom 5.9363028348850904 5.9362433397263148 22.9788043259566450 O
atom 8.2043611911159200 5.4040808347295375 24.5745611134566566 O
atom 9.0722870881436641 9.0722901200005399 26.1703251124999809 Ir
atom 3.1359814178850884 3.1360527202748880 26.1703219290433111 O
atom 1.4000972184168317 1.4001584897406822 26.1703224609567044 O
atom 9.0722833581437925 4.5361465000012933 26.1703223324999783 Ir
atom 7.6721659778774312 3.1360197202653595 26.1703222240432751 O
atom 5.9363208084046200 5.9362503497220738 26.1703224759566240 O
