#===============================================================================
# Created using the Atomic Simulation Environment (ASE)

# Mon Mar 23 14:01:01 2026

#=======================================================
lattice_vector 9.0722918800002521 0.0000000000000000 0.0000000000000000 
lattice_vector -0.0000000099999929 6.3830326800000003 0.0000000000000000 
lattice_vector 0.0000000000000000 0.0000000000000000 34.0040119124979370 
atom 0.8679601252640470 1.5957550851585953 15.0000234949934779 O
atom 0.8679626352640304 4.7872751151585939 15.0000234099928704 O
atom 5.4040769052588162 1.5957573151584885 15.0000007850003456 O
atom 5.4040782952586337 4.7872775651584858 15.0000000000000000 O
atom 2.2681104950019901 1.5957558498978437 18.1360600247217931 Ir
atom 0.0000151099976105 6.3830296192379041 15.8679687372270237 Ir
atom 3.1360362197312046 0.0000006939770647 19.0039866574928382 O
atom 3.6682444847351952 1.5957606733172907 16.7359305344538498 O
atom 1.4001503302676555 6.3830323158185207 17.2681116769588598 O
atom 2.2681092250027768 4.7872766398978595 18.1360633497220860 Ir
atom 0.0000130999949102 3.1915161292378502 15.8679573022274880 Ir
atom 3.1360473197328154 3.1915156339770965 19.0039934724902295 O
atom 3.6682431547356824 4.7872739733172995 16.7359325894541868 O
atom 1.4001431002653693 3.1915166558184747 17.2681020019605640 O
atom 6.8042216650013883 1.5957653498978293 18.1360569447299653 Ir
atom 4.5361635199981896 0.0000000092379127 15.8679706872264390 Ir
atom 7.6721401697357274 6.3830324139771513 19.0040052675027411 O
atom 8.2043630547298374 1.5957601733171807 16.7359072944603113 O
atom 5.9362660302744947 0.0000009358186545 17.2681401669659849 O
atom 6.8042171350012159 4.7872674998978262 18.1360561897310859 Ir
atom 4.5361575699955221 3.1915182092378589 15.8679593722278298 Ir
atom 7.6721605297372930 3.1915171839771830 19.0040119124979370 O
atom 8.2043601447301135 4.7872697433171867 16.7359084294610270 O
atom 5.9362590102702626 3.1915154658185698 17.2681222119676576 O
