#===============================================================================
# Created using the Atomic Simulation Environment (ASE)

# Mon Mar 23 14:01:01 2026

#=======================================================
lattice_vector 11.0927688637512336 0.0000000000000000 0.0000000000000000 
lattice_vector 0.0000035086032155 9.0722918799995735 0.0000000000000000 
lattice_vector 0.0000000000000000 0.0000000000000000 31.6113789617224938 
atom 1.0106506190295990 2.2680949741376986 15.8056721067183545 Ir
atom 2.6387215660525838 3.1360574792291867 15.0000000000000000 O
atom 10.9583205021842236 3.6682136367257945 15.0000067240224695 O
atom 2.1557674706818388 0.8679507115478408 16.6113500263628531 O
atom 9.3302465126073475 0.0000064916366982 15.8056926869760943 Ir
atom 10.4753285394459095 1.4001666990500188 16.6113437165981814 O
atom 1.0106530665985729 6.8042005841358533 15.8056610765756211 Ir
atom 2.6387450455564330 7.6721675192267176 15.0000143927351814 O
atom 10.9583045942170028 8.2043256367284272 15.0000024405480872 O
atom 2.1557493682735909 5.4040674915499531 16.6113387823329219 O
atom 9.3302486453192000 4.5361523416360932 15.8056903243915770 Ir
atom 10.4753436180782220 5.9362795890484126 16.6113524799148600 O
atom 3.7838571118998199 0.0000050766366266 15.8056850643889852 Ir
atom 4.9289715015258286 1.4001398540471237 16.6113615047085190 O
atom 6.5570656520376822 2.2680981191358613 15.8057022631128454 Ir
atom 8.1851452447510766 3.1360355842251444 15.0000262619847540 O
atom 5.4119622891689234 3.6682324917242597 15.0000328556708347 O
atom 7.7021800160574836 0.8679732265450707 16.6113697635097211 O
atom 3.7838586944730861 4.5361534766369411 15.8056886972813366 Ir
atom 4.9289958084911820 5.9362555440449087 16.6113789617224903 O
atom 6.5570668098473313 6.8042060291341899 15.8056906678859619 Ir
atom 8.1851611884067736 7.6721487942237951 15.0000381404634453 O
atom 5.4119467181010270 8.2043494817250480 15.0000154939275632 O
atom 7.7021639426946571 5.4040860265467527 16.6113582597274672 O
