#===============================================================================
# Created using the Atomic Simulation Environment (ASE)

# Mon Mar 23 14:01:01 2026

#=======================================================
lattice_vector 9.0722918800002521 0.0000000000000000 0.0000000000000000 
lattice_vector -0.0000000099999929 6.3830326800000003 0.0000000000000000 
lattice_vector 0.0000000000000000 0.0000000000000000 54.4166698555427999 
atom 2.2680953849948704 1.5957531132991647 15.8679580877696154 Ir
atom 0.0000068399969870 0.0000034852787695 22.6721862502734375 Ir
atom 3.1360585197237696 0.0000002673783796 16.7358833805318099 O
atom 1.4001634702582315 0.0000007892197961 15.0000000000000000 O
atom 0.8679515652657217 1.5957549798797992 17.2681047780398593 O
atom 2.2680966449949524 4.7872810132991681 15.8679584227692629 Ir
atom 3.1360415897234715 3.1915171073783735 16.7358821055358007 O
atom 1.4001664802620462 3.1915170592198718 15.0000161549992939 O
atom 0.8679540752657051 4.7872750098797976 17.2681046930392483 O
atom 6.8042009949936348 1.5957436932991373 15.8679523077791700 Ir
atom 4.5361550999967397 0.0000007052787620 22.6721846602729009 Ir
atom 7.6721685497300482 6.3830322173785019 16.7359094305402820 O
atom 5.9362681402628370 6.3830313992198846 15.0000189600097471 O
atom 5.4040683452604910 1.5957572098796922 17.2680820680467235 O
atom 6.8042030249935745 4.7872878932991370 15.8679520427785619 Ir
atom 7.6721568197280083 3.1915157573784612 16.7359007855430519 O
atom 5.9362793702659307 3.1915165592199464 15.0000320950070893 O
atom 5.4040697352603093 4.7872774598796894 17.2680812830463779 O
atom 2.2681019350036649 1.5957557446190476 20.4041413077681852 Ir
atom 0.0000065499992853 6.3830295139591087 18.1360500202734087 Ir
atom 3.1360276597328793 0.0000005886982685 21.2720679405392090 O
atom 3.6682359247368694 1.5957605680384941 19.0040118175002277 O
atom 1.4001417702693302 6.3830322105397244 19.5361929600052484 O
atom 0.8679781052729939 1.5957645611996512 21.8042815480336749 O
atom 2.2681006650044520 4.7872765346190631 20.4041446327684639 Ir
atom 0.0000045399965830 3.1915160239590543 18.1360385852738659 Ir
atom 3.1360387597344905 3.1915155286983006 21.2720747555366003 O
atom 3.6682345947373576 4.7872738680385032 19.0040138725005541 O
atom 1.4001345402670442 3.1915165505396783 19.5361832850069561 O
atom 0.8679762152734090 4.7872713111996585 21.8042832930341710 O
atom 6.8042131050030630 1.5957652446190331 20.4041382277763432 Ir
atom 4.5361549499998723 6.3830325839591167 18.1360519702728133 Ir
atom 7.6721316097374022 6.3830323086983558 21.2720865505491226 O
atom 8.2043544947315112 1.5957600680383845 19.0039885775066857 O
atom 5.9362574702761703 0.0000008305398584 19.5362214500123770 O
atom 5.4040923252684676 1.5957596011995583 21.8042618180411836 O
atom 6.8042085750028907 4.7872673946190298 20.4041374727774745 Ir
atom 4.5361490099971986 3.1915181039590634 18.1360406552742077 Ir
atom 7.6721519697389686 3.1915170786983875 21.2720931955443113 O
atom 8.2043515847317856 4.7872696380383903 19.0039897125074049 O
atom 5.9362504502719382 3.1915153605397739 19.5362034950140426 O
atom 5.4040890152685348 4.7872721611995592 21.8042620930419808 O
atom 2.2680996649940326 1.5957531659385631 24.9402464177688543 Ir
atom 0.0000111199961506 0.0000035379181675 31.7444745802726729 Ir
atom 3.1360627997229318 0.0000003200177777 25.8081717105310560 O
atom 3.6682178847283309 1.5957512693580316 23.5401215575046514 O
atom 1.4001677502573939 0.0000008418591941 24.0722883299992425 O
atom 0.8679558452648842 1.5957550325191974 26.3403931080390983 O
atom 2.2681009249941151 4.7872810659385658 24.9402467527685054 Ir
atom 0.0000101100008563 3.1915165752788468 22.6722026352726793 Ir
atom 3.1360458697226345 3.1915171600177721 25.8081704355350432 O
atom 3.6682196547282766 4.7872808093580295 23.5401213125041657 O
atom 1.4001707602612086 3.1915171118592696 24.0723044849985328 O
atom 0.8679583552648676 4.7872750625191953 26.3403930230384908 O
atom 6.8042052749927953 1.5957437459385355 24.9402406377784160 Ir
atom 4.5361593799959010 0.0000007579181601 31.7444729902721434 Ir
atom 7.6721728297292096 6.3830322700179005 25.8081977605395245 O
atom 8.2043298847244710 1.5957579293579518 23.5401046475126243 O
atom 5.9362724202619992 6.3830314518592832 24.0723072900089861 O
atom 5.4040726252596532 1.5957572625190903 26.3403703980459660 O
atom 6.8042073049927358 4.7872879459385347 24.9402403727778044 Ir
atom 4.5361559600007348 3.1915144252788417 22.6722015852727097 Ir
atom 7.6721610997271688 3.1915158100178593 25.8081891155422944 O
atom 8.2043309247242053 4.7872781993579467 23.5401035125123599 O
atom 5.9362836502650937 3.1915166118593450 24.0723204250063318 O
atom 5.4040740152594715 4.7872775125190881 26.3403696130456240 O
atom 2.2681062150028279 1.5957557972584457 29.4764296377674313 Ir
atom 0.0000108299984479 6.3830295665985064 27.2083383502726441 Ir
atom 3.1360319397320420 0.0000006413376666 30.3443562705384551 O
atom 3.6682402047360325 1.5957606206778925 28.0763001474994667 O
atom 1.4001460502684926 6.3830322631791230 28.6084812900044909 O
atom 0.8679823852721565 1.5957646138390496 30.8765698780329174 O
atom 2.2681049450036146 4.7872765872584617 29.4764329627677029 Ir
atom 0.0000088199957486 3.1915160765984525 27.2083269152731120 Ir
atom 3.1360430397336527 3.1915155813376983 30.3443630855358393 O
atom 3.6682388747365202 4.7872739206779009 28.0763022024997966 O
atom 1.4001388202662066 3.1915166031790769 28.6084716150061951 O
atom 0.8679804952725717 4.7872713638390572 30.8765716230334135 O
atom 6.8042173850022252 1.5957652972584315 29.4764265577755822 Ir
atom 4.5361592299990345 6.3830326365985144 27.2083403002720523 Ir
atom 7.6721358897365644 6.3830323613377535 30.3443748805483651 O
atom 8.2043587747306752 1.5957601206777829 28.0762769075059211 O
atom 5.9362617502753317 0.0000008831792564 28.6085097800116230 O
atom 5.4040966052676289 1.5957596538389562 30.8765501480404225 O
atom 6.8042128550020538 4.7872674472584285 29.4764258027767170 Ir
atom 4.5361532899963590 3.1915181565984612 27.2083289852734502 Ir
atom 7.6721562497381290 3.1915171313377853 30.3443815255435538 O
atom 8.2043558647309496 4.7872696906777890 28.0762780425066367 O
atom 5.9362547302710995 3.1915154131791721 28.6084918250132816 O
atom 5.4040932952676970 4.7872722138389578 30.8765504230412233 O
atom 2.2681039449931952 1.5957532185779610 34.0125347477680933 Ir
atom 3.1360670797220944 0.0000003726571758 34.8804600405303020 O
atom 3.6682221647274935 1.5957513219974298 32.6124098875038939 O
atom 1.4001720302565570 0.0000008944985922 33.1445766599984850 O
atom 0.8679601252640470 1.5957550851585953 35.4126814380383408 O
atom 2.2681052049932777 4.7872811185779636 34.0125350827677480 Ir
atom 0.0000143900000189 3.1915166279182445 31.7444909652719218 Ir
atom 3.1360501497217967 3.1915172126571698 34.8804587655342786 O
atom 3.6682239347274388 4.7872808619974272 32.6124096425034082 O
atom 1.4001750402603714 3.1915171644986682 33.1445928149977718 O
atom 0.8679626352640304 4.7872751151585939 35.4126813530377333 O
atom 6.8042095549919592 1.5957437985779337 34.0125289677776621 Ir
atom 7.6721771097283726 6.3830323226572983 34.8804860905387599 O
atom 8.2043341647236350 1.5957579819973498 32.6123929775118668 O
atom 5.9362767002611623 6.3830315044986810 33.1445956200082250 O
atom 5.4040769052588162 1.5957573151584885 35.4126587280452085 O
atom 6.8042115849918998 4.7872879985779333 34.0125287027770469 Ir
atom 4.5361602399998988 3.1915144779182394 31.7444899152719486 Ir
atom 7.6721653797263327 3.1915158626572571 34.8804774455415370 O
atom 8.2043352047233675 4.7872782519973445 32.6123918425116059 O
atom 5.9362879302642559 3.1915166644987436 33.1446087550055708 O
atom 5.4040782952586337 4.7872775651584858 35.4126579430448629 O
atom 2.2681104950019901 1.5957558498978437 38.5487179677666560 Ir
atom 0.0000151099976105 6.3830296192379041 36.2806266802718866 Ir
atom 3.1360362197312046 0.0000006939770647 39.4166446005377011 O
atom 3.6682444847351952 1.5957606733172907 37.1485884774987127 O
atom 1.4001503302676555 6.3830323158185207 37.6807696200037228 O
atom 2.2681092250027768 4.7872766398978595 38.5487212927669489 Ir
atom 0.0000130999949102 3.1915161292378502 36.2806152452723509 Ir
atom 3.1360473197328154 3.1915156339770965 39.4166514155350924 O
atom 3.6682431547356824 4.7872739733172995 37.1485905324990497 O
atom 1.4001431002653693 3.1915166558184747 37.6807599450054269 O
atom 6.8042216650013883 1.5957653498978293 38.5487148877748282 Ir
atom 4.5361635199981896 0.0000000092379127 36.2806286302713019 Ir
atom 7.6721401697357274 6.3830324139771513 39.4166632105476040 O
atom 8.2043630547298374 1.5957601733171807 37.1485652375051743 O
atom 5.9362660302744947 0.0000009358186545 37.6807981100108478 O
atom 6.8042171350012159 4.7872674998978262 38.5487141327759488 Ir
atom 4.5361575699955221 3.1915182092378589 36.2806173152726927 Ir
atom 7.6721605297372930 3.1915171839771830 39.4166698555427999 O
atom 8.2043601447301135 4.7872697433171867 37.1485663725058899 O
atom 5.9362590102702626 3.1915154658185698 37.6807801550125205 O
