#===============================================================================
# Created using the Atomic Simulation Environment (ASE)

# Mon Mar 23 14:01:00 2026

#=======================================================
lattice_vector 11.0927688637512336 0.0000000000000000 0.0000000000000000 
lattice_vector 3.6729463381512715 10.4670459790894856 0.0000000000000000 
lattice_vector 0.0000000000000000 0.0000000000000000 41.0465358776797302 
atom 12.0294826162769812 8.5274318542167453 16.9969581325968733 Ir
atom 7.4198229606329393 5.2597332521549918 18.1281540716487015 Ir
atom 13.6575535632999756 9.6815626637833070 16.7315367163586117 O
atom 10.8843836356803649 10.1428045598735199 16.9969535381651262 O
atom 12.2378498349711577 8.6751608269223688 15.0000000000000000 O
atom 13.1745994679292231 6.9120307070527600 16.9969608254929376 O
atom 9.2563096461034924 6.5615605852670607 15.8657748942153134 Ir
atom 10.4013916729420526 7.3733309612316935 17.2623961902942078 O
atom 7.4198215056161532 1.3280417349121001 15.8657657861150980 Ir
atom 8.5649219487898005 2.1397696072170063 17.2623740895340667 O
atom 10.1929938924566557 3.2938698856886695 16.9969490898414257 Ir
atom 11.8210951181093513 4.4479937383508101 16.7315210367165115 O
atom 9.0478896146576737 4.9092539177022498 16.9969356390115109 O
atom 10.4014032429711509 3.4416028261563221 15.0000006233648371 O
atom 11.3381035502236589 1.6784878905618135 16.9969396122449510 O
atom 3.7099202453959692 6.5615631605569247 15.8657675816274306 Ir
atom 4.8550346350219815 7.3732988216240551 17.2623982192522121 O
atom 6.4831287855338298 8.5274195397427448 16.9969858391461273 Ir
atom 1.8734378384823156 5.2597356621070270 18.1281495727264286 Ir
atom 8.1112083782472197 9.6815305882621701 16.7315485588241053 O
atom 5.3380254226650736 10.1428078693376431 16.9969855915808736 O
atom 6.6914977457496319 8.6751229211212522 15.0000035885398262 O
atom 7.6282431495536267 6.9120403780481636 16.9969891618991085 O
atom 4.6466474721982074 3.2938672880700754 16.9969695139983976 Ir
atom 6.2747446025875355 4.4479580228735625 16.7315282774954568 O
atom 3.5015301043411644 4.9092685286849882 16.9969617864822311 O
atom 4.8550554333841092 3.4415687774917121 15.0000115840567680 O
atom 5.7917497528054076 1.6784958036016595 16.9969668533126992 O
atom 1.8734365802629558 1.3280378270984674 15.8657646674898203 Ir
atom 3.0185703755184279 2.1397407173039249 17.2623845262384918 O
atom 8.3565397867289271 5.9237761118910610 21.5217314904871841 Ir
atom 3.7468801310848883 2.6560775098293061 22.6529274295390088 Ir
atom 9.9846107337519214 7.0779069214576218 21.2563100742489191 O
atom 7.2114408061323090 7.5391488175478347 21.5217268960554406 O
atom 8.5649070054231036 6.0715050845966818 19.5247733578903109 O
atom 9.5016566383811689 4.3083749647270730 21.5217341833832485 O
atom 10.1930048235968336 7.2256002679941815 19.2593538041331378 Ir
atom 5.5833668165554444 3.9579048429413741 20.3905482521056243 Ir
atom 11.8210808180447557 8.3797202848717109 18.9939146725578780 O
atom 9.0479044249503318 8.8409729131864481 19.2593503373443085 O
atom 6.7284488433940002 4.7696752189060074 21.7871695481845151 O
atom 11.3381258603276045 5.6102035349946515 19.2593513321410263 O
atom 8.3565387256946799 1.9920515388081168 19.2593151367435169 Ir
atom 7.4198250142193691 9.1914319716758985 20.3905391440054089 Ir
atom 9.9846307046525418 3.1461735084974007 18.9939179651785999 O
atom 7.2114213895618766 3.6074264181111810 19.2593195769646570 O
atom 8.5649254573930129 10.0031598439808072 21.7871474474243740 O
atom 9.5016350273696979 0.3766601798974518 19.2593232152531044 O
atom 6.5200510629085935 0.6902141433629837 21.5217224477317401 Ir
atom 5.5833654406640756 0.0262108248824591 18.1281594805078399 Ir
atom 8.1481522885612954 1.8443379960251245 21.2562943946068259 O
atom 5.3749467851096195 2.3055981753765646 21.5217089969018218 O
atom 6.7284604134230985 0.8379470838306360 19.5247739812551515 O
atom 11.3381070588268695 9.5418781273256119 21.5217129701352654 O
atom 4.6466572120203109 7.2255955344250848 19.2593683361787136 Ir
atom 11.1297462795991482 3.9579074182312368 20.3905409395177415 Ir
atom 6.2747305841899603 8.3796944766371411 18.9939272926589133 O
atom 3.5015505779116260 8.8409804963567566 19.2593740614213083 O
atom 12.2748606692251592 4.7696430792983691 21.7871715771425229 O
atom 5.7917647893159980 5.6102107297170711 19.2593827087812528 O
atom 2.8101859559857787 5.9237637974170596 21.5217591970364381 Ir
atom 9.2932638726854986 2.6560799197813427 22.6529229306167394 Ir
atom 4.4382655486991665 7.0778748459364840 21.2563219167144197 O
atom 12.7578514568682468 7.5391521270119588 21.5217589494711845 O
atom 3.0185549162015781 6.0714671787955670 19.5247769464301371 O
atom 3.9553003200055725 4.3083846357224784 21.5217625197894193 O
atom 0.9737046426501552 0.6902115457443889 21.5217428718887085 Ir
atom 0.0369754898179592 0.0262126201575545 18.1281586362910438 Ir
atom 2.6018017730394809 1.8443022805478766 21.2563016353857641 O
atom 10.9213561385443523 2.3056127863593034 21.5217351443725420 O
atom 1.1821126038360550 0.8379130351660253 19.5247849419470789 O
atom 5.7917532614086218 9.5418860403654584 21.5217402112030101 O
atom 2.8101836051922140 1.9920414996882236 19.2593435006241798 Ir
atom 12.9662089526174071 9.1914280638622667 20.3905380253801312 Ir
atom 4.4382779837516493 3.1461454345446782 18.9939292094442784 O
atom 1.6650635134459009 3.6074405753860623 19.2593427835617312 O
atom 14.1113427478728823 10.0031309540677249 21.7871578841288027 O
atom 3.9552807380395256 0.3766665307862632 19.2593493415083969 O
atom 4.6835969571808747 3.3201203695653718 26.0465048483774950 Ir
atom 6.3116679042038593 4.4742511791319339 25.7810834321392335 O
atom 3.5384979765842575 4.9354930752221486 26.0465002539457515 O
atom 4.8919641758750467 3.4678493422709953 24.0495467157806253 O
atom 5.8287138088331121 1.7047192224013861 26.0465075412735629 O
atom 6.5200619940487821 4.6219445256684963 23.7841271620234522 Ir
atom 1.9104239870073827 1.3542491006156878 24.9153216099959351 Ir
atom 8.1481379884966980 5.7760645425460231 23.5186880304481889 O
atom 5.3749615954022696 6.2373171708607611 23.7841236952346193 O
atom 7.6651830307795485 3.0065477926689645 23.7841246900313372 O
atom 8.3565422342978977 9.8554417755719168 23.7840884946338278 Ir
atom 3.7468821846713167 6.5877762293502125 24.9153125018957198 Ir
atom 6.3116878751044894 0.5425177661717160 23.5186913230689143 O
atom 3.5384785600138247 1.0037706757854941 23.7840929348549679 O
atom 9.5016385359729210 8.2400504166612514 23.7840965731434153 O
atom 6.5200545715118183 8.5536043801267834 26.0464958056220510 Ir
atom 5.5833689492672915 7.8896010616462604 22.6529328383981543 Ir
atom 8.1481557971645096 9.7077282327889254 25.7810677524971297 O
atom 5.3749502937128346 10.1689884121403633 26.0464823547921398 O
atom 6.7284639220263136 8.7013373205944351 24.0495473391454588 O
atom 7.6651642292788136 6.9382223849999276 26.0464863280255727 O
atom 12.0664832462234877 4.6219397920993979 23.7841416940690245 Ir
atom 7.4568034500510914 1.3542516759055514 24.9153142974080524 Ir
atom 2.6017877546419044 5.7760387343114568 23.5187006505492242 O
atom 10.9213766121148002 6.2373247540310706 23.7841474193116227 O
atom 2.1188219597679465 3.0065549873913864 23.7841560666715566 O
atom 10.2300119901889506 3.3201080550913744 26.0465325549267490 Ir
atom 11.8580915829023432 4.4742191036107970 25.7810952746047306 O
atom 9.0849086273201998 4.9354963846862709 26.0465323073614954 O
atom 10.4383809504047491 3.4678114364698813 24.0495503043204479 O
atom 11.3751263542087493 1.7047288933967921 26.0465358776797302 O
atom 12.0664770150046081 8.5536017825081885 26.0465162297790158 Ir
atom 11.1297478621724117 7.8896028569213543 22.6529319941813547 Ir
atom 13.6945741453939345 9.7076925173116759 25.7810749932760785 O
atom 10.9213596471475611 10.1690030231231017 26.0465085022628529 O
atom 12.2748849761905081 8.7013032719298256 24.0495582998373933 O
atom 13.2115792956117986 6.9382302980397714 26.0465135690933209 O
atom 13.9029559775466609 9.8554317364520223 23.7841168585144906 Ir
atom 9.2932661230693476 6.5877723215365815 24.9153113832704456 Ir
atom 0.7653351542035933 0.5424896922189923 23.5187025673345929 O
atom 9.0848895476490785 1.0037848330603767 23.7841161414520386 O
atom 3.9552842466427456 8.2400567675500636 23.7841226993987078 O
