#===============================================================================
# Created using the Atomic Simulation Environment (ASE)

# Mon Mar 23 14:01:01 2026

#=======================================================
lattice_vector 9.0722918800002521 0.0000000000000000 0.0000000000000000 
lattice_vector -0.0000000099999929 6.3830326800000003 0.0000000000000000 
lattice_vector 0.0000000000000000 0.0000000000000000 47.6124080375016163 
atom 0.0000068399969870 0.0000034852787695 15.8679244322322539 Ir
atom 4.5361550999967397 0.0000007052787620 15.8679228422317173 Ir
atom 0.8679781052729939 1.5957645611996512 15.0000197299924913 O
atom 0.8679762152734090 4.7872713111996585 15.0000214749929874 O
atom 5.4040923252684676 1.5957596011995583 15.0000000000000000 O
atom 5.4040890152685348 4.7872721611995592 15.0000002750007972 O
atom 2.2680996649940326 1.5957531659385631 18.1359845997276707 Ir
atom 0.0000111199961506 0.0000035379181675 24.9402127622314893 Ir
atom 3.1360627997229318 0.0000003200177777 19.0039098924898724 O
atom 3.6682178847283309 1.5957512693580316 16.7358597394634678 O
atom 1.4001677502573939 0.0000008418591941 17.2680265119580589 O
atom 0.8679558452648842 1.5957550325191974 19.5361312899979147 O
atom 2.2681009249941151 4.7872810659385658 18.1359849347273219 Ir
atom 0.0000101100008563 3.1915165752788468 15.8679408172314957 Ir
atom 3.1360458697226345 3.1915171600177721 19.0039086174938596 O
atom 3.6682196547282766 4.7872808093580295 16.7358594944629822 O
atom 1.4001707602612086 3.1915171118592696 17.2680426669573492 O
atom 0.8679583552648676 4.7872750625191953 19.5361312049973073 O
atom 6.8042052749927953 1.5957437459385355 18.1359788197372325 Ir
atom 4.5361593799959010 0.0000007579181601 24.9402111722309598 Ir
atom 7.6721728297292096 6.3830322700179005 19.0039359424983409 O
atom 8.2043298847244710 1.5957579293579518 16.7358428294714408 O
atom 5.9362724202619992 6.3830314518592832 17.2680454719678025 O
atom 5.4040726252596532 1.5957572625190903 19.5361085800047825 O
atom 6.8042073049927358 4.7872879459385347 18.1359785547366208 Ir
atom 4.5361559600007348 3.1915144252788417 15.8679397672315261 Ir
atom 7.6721610997271688 3.1915158100178593 19.0039272975011109 O
atom 8.2043309247242053 4.7872781993579467 16.7358416944711763 O
atom 5.9362836502650937 3.1915166118593450 17.2680586069651483 O
atom 5.4040740152594715 4.7872775125190881 19.5361077950044404 O
atom 2.2681062150028279 1.5957557972584457 22.6721678197262477 Ir
atom 0.0000108299984479 6.3830295665985064 20.4040765322314606 Ir
atom 3.1360319397320420 0.0000006413376666 23.5400944524972715 O
atom 3.6682402047360325 1.5957606206778925 21.2720383294582831 O
atom 1.4001460502684926 6.3830322631791230 21.8042194719633073 O
atom 0.8679823852721565 1.5957646138390496 24.0723080599917338 O
atom 2.2681049450036146 4.7872765872584617 22.6721711447265193 Ir
atom 0.0000088199957486 3.1915160765984525 20.4040650972319284 Ir
atom 3.1360430397336527 3.1915155813376983 23.5401012674946557 O
atom 3.6682388747365202 4.7872739206779009 21.2720403844586130 O
atom 1.4001388202662066 3.1915166031790769 21.8042097969650115 O
atom 0.8679804952725717 4.7872713638390572 24.0723098049922299 O
atom 6.8042173850022252 1.5957652972584315 22.6721647397343986 Ir
atom 4.5361592299990345 6.3830326365985144 20.4040784822308687 Ir
atom 7.6721358897365644 6.3830323613377535 23.5401130625071815 O
atom 8.2043587747306752 1.5957601206777829 21.2720150894647375 O
atom 5.9362617502753317 0.0000008831792564 21.8042479619704395 O
atom 5.4040966052676289 1.5957596538389562 24.0722883299992390 O
atom 6.8042128550020538 4.7872674472584285 22.6721639847355334 Ir
atom 4.5361532899963590 3.1915181565984612 20.4040671672322667 Ir
atom 7.6721562497381290 3.1915171313377853 23.5401197075023703 O
atom 8.2043558647309496 4.7872696906777890 21.2720162244654531 O
atom 5.9362547302710995 3.1915154131791721 21.8042300069720980 O
atom 5.4040932952676970 4.7872722138389578 24.0722886050000398 O
atom 2.2681039449931952 1.5957532185779610 27.2082729297269097 Ir
atom 3.1360670797220944 0.0000003726571758 28.0761982224891185 O
atom 3.6682221647274935 1.5957513219974298 25.8081480694627103 O
atom 1.4001720302565570 0.0000008944985922 26.3403148419573014 O
atom 0.8679601252640470 1.5957550851585953 28.6084196199971572 O
atom 2.2681052049932777 4.7872811185779636 27.2082732647265644 Ir
atom 0.0000143900000189 3.1915166279182445 24.9402291472307382 Ir
atom 3.1360501497217967 3.1915172126571698 28.0761969474930950 O
atom 3.6682239347274388 4.7872808619974272 25.8081478244622247 O
atom 1.4001750402603714 3.1915171644986682 26.3403309969565882 O
atom 0.8679626352640304 4.7872751151585939 28.6084195349965498 O
atom 6.8042095549919592 1.5957437985779337 27.2082671497364785 Ir
atom 7.6721771097283726 6.3830323226572983 28.0762242724975764 O
atom 8.2043341647236350 1.5957579819973498 25.8081311594706833 O
atom 5.9362767002611623 6.3830315044986810 26.3403338019670414 O
atom 5.4040769052588162 1.5957573151584885 28.6083969100040250 O
atom 6.8042115849918998 4.7872879985779333 27.2082668847358633 Ir
atom 4.5361602399998988 3.1915144779182394 24.9402280972307651 Ir
atom 7.6721653797263327 3.1915158626572571 28.0762156275003534 O
atom 8.2043352047233675 4.7872782519973445 25.8081300244704224 O
atom 5.9362879302642559 3.1915166644987436 26.3403469369643872 O
atom 5.4040782952586337 4.7872775651584858 28.6083961250036793 O
atom 2.2681104950019901 1.5957558498978437 31.7444561497254725 Ir
atom 0.0000151099976105 6.3830296192379041 29.4763648622307031 Ir
atom 3.1360362197312046 0.0000006939770647 32.6123827824965176 O
atom 3.6682444847351952 1.5957606733172907 30.3443266594575292 O
atom 1.4001503302676555 6.3830323158185207 30.8765078019625392 O
atom 2.2681092250027768 4.7872766398978595 31.7444594747257653 Ir
atom 0.0000130999949102 3.1915161292378502 29.4763534272311674 Ir
atom 3.1360473197328154 3.1915156339770965 32.6123895974939089 O
atom 3.6682431547356824 4.7872739733172995 30.3443287144578662 O
atom 1.4001431002653693 3.1915166558184747 30.8764981269642433 O
atom 6.8042216650013883 1.5957653498978293 31.7444530697336447 Ir
atom 4.5361635199981896 0.0000000092379127 29.4763668122301183 Ir
atom 7.6721401697357274 6.3830324139771513 32.6124013925064204 O
atom 8.2043630547298374 1.5957601733171807 30.3443034194639907 O
atom 5.9362660302744947 0.0000009358186545 30.8765362919696642 O
atom 6.8042171350012159 4.7872674998978262 31.7444523147347653 Ir
atom 4.5361575699955221 3.1915182092378589 29.4763554972315092 Ir
atom 7.6721605297372930 3.1915171839771830 32.6124080375016163 O
atom 8.2043601447301135 4.7872697433171867 30.3443045544647063 O
atom 5.9362590102702626 3.1915154658185698 30.8765183369713370 O
