#===============================================================================
# Created using the Atomic Simulation Environment (ASE)

# Mon Mar 23 14:01:00 2026

#=======================================================
lattice_vector 9.0722883300002515 0.0000000000000000 0.0000000000000000 
lattice_vector 0.0000042800008374 9.0722918799992431 0.0000000000000000 
lattice_vector 0.0000000000000000 0.0000000000000000 31.5957687575000250 
atom 2.2680560413886468 2.2680912650038407 15.0000136450000383 Ir
atom 0.8679312616531877 3.6682106552697316 15.0000133965433342 O
atom 3.6682016511184763 0.8679480347330369 15.0000076334567147 O
atom 3.1360096078770376 7.6721627602683649 16.5957648440433303 O
atom 1.4001183184075148 5.9362631697358310 16.5957640359567336 O
atom 2.2680518013797415 6.8041976450049679 15.0000205250000427 Ir
atom 0.8679156016454257 8.2043219252735504 15.0000107865433563 O
atom 3.6681803811117550 5.4040636947381806 15.0000100834567434 O
atom 4.5361465781431347 0.0000000999994241 16.5957621325000133 Ir
atom 5.9362901784113351 1.4001346597291726 16.5957648209567026 O
atom 6.8042422513892120 2.2680931449939234 15.0000091399999924 Ir
atom 5.4041121516573369 3.6682277352610684 15.0000064815432985 O
atom 8.2043802511233164 0.8679680347249145 15.0000039084566765 O
atom 4.5361506681441375 4.5361484999985855 16.5957652025000186 Ir
atom 7.6721867278679472 7.6721236802605910 16.5957649090432966 O
atom 6.8042372313806503 6.8042010549952341 15.0000000000000000 Ir
atom 5.4040901316509204 8.2043447252663864 15.0000022515433251 O
atom 8.2043611911159200 5.4040808347295375 15.0000047584567007 O
atom 9.0722870881436641 9.0722901200005399 16.5957687575000250 Ir
atom 3.1359814178850884 3.1360527202748880 16.5957655740433552 O
atom 1.4000972184168317 1.4001584897406822 16.5957661059567485 O
atom 9.0722833581437925 4.5361465000012933 16.5957659775000224 Ir
atom 7.6721659778774312 3.1360197202653595 16.5957658690433192 O
atom 5.9363208084046200 5.9362503497220738 16.5957661209566680 O
