#===============================================================================
# Created using the Atomic Simulation Environment (ASE)

# Mon Mar 23 14:01:01 2026

#=======================================================
lattice_vector 9.0722918800002521 0.0000000000000000 0.0000000000000000 
lattice_vector -0.0000000099999929 6.3830326800000003 0.0000000000000000 
lattice_vector 0.0000000000000000 0.0000000000000000 36.2720931955443149 
atom 2.2681039449931952 1.5957532185779610 15.8679580877696083 Ir
atom 3.1360670797220944 0.0000003726571758 16.7358833805318170 O
atom 1.4001720302565570 0.0000008944985922 15.0000000000000000 O
atom 0.8679601252640470 1.5957550851585953 17.2681047780398558 O
atom 2.2681052049932777 4.7872811185779636 15.8679584227692629 Ir
atom 3.1360501497217967 3.1915172126571698 16.7358821055357936 O
atom 1.4001750402603714 3.1915171644986682 15.0000161549992868 O
atom 0.8679626352640304 4.7872751151585939 17.2681046930392483 O
atom 6.8042095549919592 1.5957437985779337 15.8679523077791771 Ir
atom 7.6721771097283726 6.3830323226572983 16.7359094305402749 O
atom 5.9362767002611623 6.3830315044986810 15.0000189600097400 O
atom 5.4040769052588162 1.5957573151584885 17.2680820680467235 O
atom 6.8042115849918998 4.7872879985779333 15.8679520427785619 Ir
atom 7.6721653797263327 3.1915158626572571 16.7359007855430519 O
atom 5.9362879302642559 3.1915166644987436 15.0000320950070858 O
atom 5.4040782952586337 4.7872775651584858 17.2680812830463779 O
atom 2.2681104950019901 1.5957558498978437 20.4041413077681710 Ir
atom 0.0000151099976105 6.3830296192379041 18.1360500202734016 Ir
atom 3.1360362197312046 0.0000006939770647 21.2720679405392161 O
atom 3.6682444847351952 1.5957606733172907 19.0040118175002277 O
atom 1.4001503302676555 6.3830323158185207 19.5361929600052378 O
atom 2.2681092250027768 4.7872766398978595 20.4041446327684639 Ir
atom 0.0000130999949102 3.1915161292378502 18.1360385852738659 Ir
atom 3.1360473197328154 3.1915156339770965 21.2720747555366074 O
atom 3.6682431547356824 4.7872739733172995 19.0040138725005647 O
atom 1.4001431002653693 3.1915166558184747 19.5361832850069419 O
atom 6.8042216650013883 1.5957653498978293 20.4041382277763432 Ir
atom 4.5361635199981896 0.0000000092379127 18.1360519702728169 Ir
atom 7.6721401697357274 6.3830324139771513 21.2720865505491190 O
atom 8.2043630547298374 1.5957601733171807 19.0039885775066892 O
atom 5.9362660302744947 0.0000009358186545 19.5362214500123628 O
atom 6.8042171350012159 4.7872674998978262 20.4041374727774638 Ir
atom 4.5361575699955221 3.1915182092378589 18.1360406552742077 Ir
atom 7.6721605297372930 3.1915171839771830 21.2720931955443149 O
atom 8.2043601447301135 4.7872697433171867 19.0039897125074049 O
atom 5.9362590102702626 3.1915154658185698 19.5362034950140355 O
