#===============================================================================
# Created using the Atomic Simulation Environment (ASE)

# Mon Mar 23 14:01:01 2026

#=======================================================
lattice_vector 11.0927688637512336 0.0000000000000000 0.0000000000000000 
lattice_vector 0.0000035086032155 9.0722918799995735 0.0000000000000000 
lattice_vector 0.0000000000000000 0.0000000000000000 36.8317809735236494 
atom 4.6835934485776507 2.2680935636698325 15.8056721067183616 Ir
atom 0.0739337929336151 0.0000025114048076 18.4158869226059316 Ir
atom 6.3116643956006460 3.1360560687613215 15.0000000000000000 O
atom 3.5384944679810415 3.6682122262579289 15.0000067240224659 O
atom 5.8287103002298961 0.8679493010799747 16.6113500263628531 O
atom 2.8471156558975088 2.2680955339063114 18.4158827598015407 Ir
atom 1.9104204784041716 0.0000050811688322 15.8056926869760979 Ir
atom 4.4751916503454279 3.1360398489954675 17.6102006811667700 O
atom 1.7020152572510092 3.6682147064948194 17.6102183846442735 O
atom 3.0555025052427243 1.4001652885821527 16.6113437165981885 O
atom 4.6835958961466249 6.8041991736679881 15.8056610765756282 Ir
atom 0.0739358465200488 4.5361507714041025 18.4158837340434296 Ir
atom 6.3116878751044858 7.6721661087588506 15.0000143927351850 O
atom 3.5384785600138273 8.2043242262605620 15.0000024405480907 O
atom 5.8286921978216535 5.4040660810820862 16.6113387823329184 O
atom 2.8471082333605424 6.8042019139081429 18.4158847154588585 Ir
atom 1.9104226111160187 4.5361509311682253 15.8056903243915734 Ir
atom 4.4752094590132394 7.6721550789934518 17.6102103259640863 O
atom 1.7020039555615580 8.2043259764954559 17.6102060075179239 O
atom 3.0555175838750364 5.9362781785805474 16.6113524799148635 O
atom 7.4567999414478789 0.0000036661687607 15.8056850643889923 Ir
atom 10.0216102802418678 3.1360237739920711 17.6102244913786059 O
atom 7.2484302739635247 3.6682331114911690 17.6102351653597182 O
atom 8.6019143310738837 1.4001384435792574 16.6113615047085226 O
atom 10.2300084815857364 2.2680967086679948 15.8057022631128454 Ir
atom 5.6203175345342267 0.0000023564042508 18.4158818212193367 Ir
atom 0.7653192105479003 3.1360341737572788 15.0000262619847540 O
atom 9.0849051187169785 3.6682310812563936 15.0000328556708418 O
atom 0.2823539818543020 0.8679718160772046 16.6113697635097246 O
atom 7.4568015240211425 4.5361520661690742 15.8056886972813366 Ir
atom 10.0216278072426626 7.6721277339901475 17.6102344148617185 O
atom 7.2484133089962866 8.2043516814927138 17.6102213836083727 O
atom 8.6019386380392380 5.9362541335770445 16.6113789617225045 O
atom 10.2300096393953837 6.8042046186663256 15.8056906678859654 Ir
atom 5.6203197849180739 4.5361468264043312 18.4158847134854540 Ir
atom 0.7653351542035879 7.6721473837559282 15.0000381404634417 O
atom 9.0848895476490767 8.2043480712571810 15.0000154939275632 O
atom 0.2823379084914752 5.4040846160788867 16.6113582597274636 O
atom 1.0106506190295990 2.2680949741376986 21.0260741185195066 Ir
atom 2.6387215660525838 3.1360574792291867 20.2204020118011520 O
atom 10.9583205021842236 3.6682136367257945 20.2204087358236215 O
atom 1.2190178377237788 1.4001629788174002 19.2215354837929588 O
atom 2.1557674706818388 0.8679507115478408 21.8317520381640051 O
atom 9.3302465126073475 0.0000064916366982 21.0260946987772464 Ir
atom 10.4753285394459095 1.4001666990500188 21.8317457283993335 O
atom 3.9922366926282771 0.8679525213147355 19.2215540012410315 O
atom 1.0106530665985729 6.8042005841358533 21.0260630883767732 Ir
atom 2.6387450455564330 7.6721675192267176 20.2204164045363335 O
atom 10.9583045942170028 8.2043256367284272 20.2204044523492392 O
atom 1.2190362896936944 5.9362676588152032 19.2215447008537339 O
atom 2.1557493682735909 5.4040674915499531 21.8317407941340740 O
atom 9.3302486453192000 4.5361523416360932 21.0260923361927290 Ir
atom 10.4753436180782220 5.9362795890484126 21.8317544917160120 O
atom 3.9922178911275399 5.4040681813169495 19.2215425343435875 O
atom 8.3935369080722158 2.2680986789012056 18.4158977162727844 Ir
atom 3.7838571118998199 0.0000050766366266 21.0260870761901373 Ir
atom 4.9289715015258286 1.4001398540471237 21.8317635165096711 O
atom 9.5386444853679144 0.8679744063134122 19.2215776085368333 O
atom 6.5570656520376822 2.2680981191358613 21.0261042749139975 Ir
atom 8.1851452447510766 3.1360355842251444 20.2204282737859060 O
atom 5.4119622891689234 3.6682324917242597 20.2204348674719867 O
atom 6.7654346122534772 1.4001319138141197 19.2215574995361322 O
atom 7.7021800160574836 0.8679732265450707 21.8317717753108731 O
atom 8.3935306768533362 6.8042098489033522 18.4159037136077508 Ir
atom 3.7838586944730861 4.5361534766369411 21.0260907090824887 Ir
atom 4.9289958084911820 5.9362555440449087 21.8317809735236423 O
atom 9.5386329574605302 5.4040886263136816 19.2215621988822285 O
atom 6.5570668098473313 6.8042060291341899 21.0260926796871139 Ir
atom 8.1851611884067736 7.6721487942237951 20.2204401522645973 O
atom 5.4119467181010270 8.2043494817250480 20.2204175057287152 O
atom 6.7654535801735474 5.9362478238120175 19.2215681555872813 O
atom 7.7021639426946571 5.4040860265467527 21.8317602715286192 O
