#===============================================================================
# Created using the Atomic Simulation Environment (ASE)

# Mon Mar 23 14:01:00 2026

#=======================================================
lattice_vector 9.0722883300002515 0.0000000000000000 0.0000000000000000 
lattice_vector 0.0000042800008374 9.0722918799992431 0.0000000000000000 
lattice_vector 0.0000000000000000 0.0000000000000000 37.9788014375000245 
atom 2.2680560043529021 2.2680912750038504 15.0000136450000419 Ir
atom 0.8679312246174431 3.6682106652697417 15.0000133965433413 O
atom 3.6682016140827316 0.8679480447330474 15.0000076334567183 O
atom 3.1360095708412929 7.6721627702683755 16.5957648440433339 O
atom 1.4001182813717703 5.9362631797358416 16.5957640359567336 O
atom 2.2680517643439972 6.8041976550049785 15.0000205250000498 Ir
atom 0.8679155646096808 8.2043219352735619 15.0000107865433563 O
atom 3.6681803440760103 5.4040637047381912 15.0000100834567469 O
atom 4.5361465411073887 0.0000001099994345 16.5957621325000169 Ir
atom 5.9362901413755900 1.4001346697291825 16.5957648209567026 O
atom 6.8042422143534669 2.2680931549939336 15.0000091399999924 Ir
atom 5.4041121146215918 3.6682277452610781 15.0000064815432985 O
atom 8.2043802140875712 0.8679680447249248 15.0000039084566801 O
atom 4.5361506311083915 4.5361485099985961 16.5957652025000186 Ir
atom 7.6721866908322021 7.6721236902606016 16.5957649090432966 O
atom 6.8042371943449043 6.8042010649952447 15.0000000000000000 Ir
atom 5.4040900946151753 8.2043447352663978 15.0000022515433251 O
atom 8.2043611540801749 5.4040808447295481 15.0000047584567007 O
atom 2.2680556878704632 2.2680900050039252 18.1915184250000408 Ir
atom 9.0722870511079226 9.0722901300005478 16.5957687575000286 Ir
atom 3.1359813808493437 3.1360527302748986 16.5957655740433623 O
atom 0.8679314881348821 3.6682088852696793 18.1915165365433396 O
atom 1.4000971813810863 1.4001584997406926 16.5957661059567556 O
atom 3.6682017176000068 0.8679455247330222 18.1915202834567182 O
atom 2.2680560413886468 2.2680912650038407 21.3830463250000413 Ir
atom 0.0000108446254737 0.0000015199974361 19.7872818475000081 Ir
atom 3.1359801243632237 3.1360358002751934 19.7872824140433679 O
atom 0.8679312616531877 3.6682106552697316 21.3830460765433372 O
atom 1.4001133548996703 1.4001615097368771 19.7872823759567389 O
atom 3.6682016511184763 0.8679480347330369 21.3830403134567177 O
atom 2.2680520478613584 6.8041956150049101 18.1915090050000501 Ir
atom 9.0722833211080491 4.5361465100013039 16.5957659775000295 Ir
atom 3.1360096078770376 7.6721627602683649 22.9787975240433333 O
atom 0.8679167181273022 8.2043208852732885 18.1915231965433577 O
atom 1.4001183184075148 5.9362631697358310 22.9787967159567366 O
atom 3.6681811475935491 5.4040623047380025 18.1915225134567429 O
atom 2.2680518013797415 6.8041976450049679 21.3830532050000457 Ir
atom 0.0000119346258688 4.5361473699973054 19.7872796975000114 Ir
atom 3.1360009443563972 7.6721510302704106 19.7872810640433450 O
atom 0.8679156016454257 8.2043219252735504 21.3830434665433593 O
atom 1.4001314348922924 5.9362743997327385 19.7872818759567188 O
atom 3.6681803811117550 5.4040636947381806 21.3830427634567464 O
atom 6.8042389078716345 2.2680944149947129 18.1915210299999970 Ir
atom 4.5361465781431347 0.0000000999994241 22.9787948125000163 Ir
atom 7.6721659408416869 3.1360197302653705 16.5957658690433192 O
atom 5.4041100781397793 3.6682290652615586 18.1915258615433011 O
atom 5.9362901784113351 1.4001346597291726 22.9787975009567056 O
atom 8.2043784876058989 0.8679699247253312 18.1915298384566775 O
atom 6.8042422513892120 2.2680931449939234 21.3830418199999954 Ir
atom 4.5361394046256276 9.0722899700013695 19.7872813225000321 Ir
atom 7.6721727743621777 3.1360308302637572 19.7872808090433132 O
atom 5.4041121516573369 3.6682277352610684 21.3830391615433015 O
atom 5.9362804848917579 1.4001274297314596 19.7872818409567124 O
atom 8.2043802511233164 0.8679680347249145 21.3830365884566795 O
atom 6.8042379678638616 6.8042055849950609 18.1915305300000014 Ir
atom 4.5361506681441375 4.5361484999985855 22.9787978825000216 Ir
atom 7.6721867278679472 7.6721236802605910 22.9787975890432996 O
atom 5.4040889781337409 8.2043476352666609 18.1915253615433308 O
atom 5.9363207713688757 5.9362503597220853 16.5957661209566716 O
atom 8.2043608975988302 5.4040841447296071 18.1915248784567041 O
atom 6.8042372313806503 6.8042010549952341 21.3830326800000030 Ir
atom 4.5361393346248651 4.5361425600012586 19.7872834025000301 Ir
atom 7.6721933543548770 7.6721440402590311 19.7872823590432887 O
atom 5.4040901316509204 8.2043447252663864 21.3830349315433281 O
atom 5.9363028348850904 5.9362433397263148 19.7872806509566921 O
atom 8.2043611911159200 5.4040808347295375 21.3830374384567037 O
atom 9.0722870881436641 9.0722901200005399 22.9788014375000280 Ir
atom 3.1359814178850884 3.1360527202748880 22.9787982540433582 O
atom 1.4000972184168317 1.4001584897406822 22.9787987859567515 O
atom 9.0722833581437925 4.5361465000012933 22.9787986575000254 Ir
atom 7.6721659778774312 3.1360197202653595 22.9787985490433222 O
atom 5.9363208084046200 5.9362503497220738 22.9787988009566710 O
