#===============================================================================
# Created using the Atomic Simulation Environment (ASE)

# Mon Mar 23 14:01:01 2026

#=======================================================
lattice_vector 11.0927688637512336 0.0000000000000000 0.0000000000000000 
lattice_vector 0.0000035086032155 9.0722918799995735 0.0000000000000000 
lattice_vector 0.0000000000000000 0.0000000000000000 39.4419823041580244 
atom 3.7468766224816674 0.0000011009369408 15.8056862414391652 Ir
atom 6.5200584854455608 2.2680941234384449 15.8056820786347672 Ir
atom 8.1481344798934821 3.1360384385276014 15.0000000000000000 O
atom 5.3749580867990581 3.6682132960269525 15.0000177034775035 O
atom 3.7468786760681012 4.5361493609362373 15.8056830528766561 Ir
atom 6.5200510629085997 6.8042005034402768 15.8056840342920886 Ir
atom 8.1481522885612900 7.6721536685255867 15.0000096447973164 O
atom 5.3749467851096133 8.2043245660275890 15.0000053263511504 O
atom 2.6017842460386911 3.1360223635242050 15.0000238102118360 O
atom 10.9213731035115842 3.6682317010233021 15.0000344841929447 O
atom 9.2932603640822897 0.0000009459363821 15.8056811400525667 Ir
atom 2.6018017730394836 7.6721263235222814 15.0000337336949485 O
atom 10.9213561385443434 8.2043502710248450 15.0000207024415992 O
atom 9.2932626144661352 4.5361454159364643 15.8056840323186805 Ir
atom 4.6835934485776507 2.2680935636698325 18.4158734373527402 Ir
atom 0.0739337929336151 0.0000025114048076 21.0260882532403102 Ir
atom 6.3116643956006460 3.1360560687613215 17.6102013306343785 O
atom 3.5384944679810415 3.6682122262579289 17.6102080546568445 O
atom 4.8919606672718317 1.4001615683495339 16.6113348026261889 O
atom 5.8287103002298961 0.8679493010799747 19.2215513569972316 O
atom 2.8471156558975088 2.2680955339063114 21.0260840904359192 Ir
atom 1.9104204784041716 0.0000050811688322 18.4158940176104764 Ir
atom 4.4751916503454279 3.1360398489954675 20.2204020118011485 O
atom 1.7020152572510092 3.6682147064948194 20.2204197152786520 O
atom 3.0555025052427243 1.4001652885821527 19.2215450472325671 O
atom 7.6651795221763317 0.8679511108468696 16.6113533200742580 O
atom 4.6835958961466249 6.8041991736679881 18.4158624072100068 Ir
atom 0.0739358465200488 4.5361507714041025 21.0260850646778081 Ir
atom 6.3116878751044858 7.6721661087588506 17.6102157233695635 O
atom 3.5384785600138273 8.2043242262605620 17.6102037711824693 O
atom 4.8919791192417446 5.9362662483473363 16.6113440196869604 O
atom 5.8286921978216535 5.4040660810820862 19.2215401129672969 O
atom 2.8471082333605424 6.8042019139081429 21.0260860460932371 Ir
atom 1.9104226111160187 4.5361509311682253 18.4158916550259519 Ir
atom 4.4752094590132394 7.6721550789934518 20.2204116565984648 O
atom 1.7020039555615580 8.2043259764954559 20.2204073381523024 O
atom 3.0555175838750364 5.9362781785805474 19.2215538105492421 O
atom 7.6651607206755870 5.4040667708490835 16.6113418531768176 O
atom 0.9737108738690402 2.2680972684333396 15.8056970351060109 Ir
atom 7.4567999414478789 0.0000036661687607 18.4158863950233709 Ir
atom 10.0216102802418678 3.1360237739920711 20.2204258220129844 O
atom 7.2484302739635247 3.6682331114911690 20.2204364959940968 O
atom 8.6019143310738837 1.4001384435792574 19.2215628353429011 O
atom 2.1188184511647279 0.8679729958455461 16.6113769273700669 O
atom 10.2300084815857364 2.2680967086679948 18.4159035937472240 Ir
atom 5.6203175345342267 0.0000023564042508 21.0260831518537152 Ir
atom 0.7653192105479003 3.1360341737572788 17.6102275926191325 O
atom 9.0849051187169785 3.6682310812563936 17.6102341863052203 O
atom 10.4383774418015349 1.4001305033462537 16.6113568183693587 O
atom 0.2823539818543020 0.8679718160772046 19.2215710941441031 O
atom 0.9737046426501541 6.8042084384354871 15.8057030324409773 Ir
atom 7.4568015240211425 4.5361520661690742 18.4158900279157152 Ir
atom 10.0216278072426626 7.6721277339901475 20.2204357454960970 O
atom 7.2484133089962866 8.2043516814927138 20.2204227142427513 O
atom 8.6019386380392380 5.9362541335770445 19.2215802923568830 O
atom 2.1188069232573539 5.4040872158458155 16.6113615177154621 O
atom 10.2300096393953837 6.8042046186663256 18.4158919985203440 Ir
atom 5.6203197849180739 4.5361468264043312 21.0260860441198325 Ir
atom 0.7653351542035879 7.6721473837559282 17.6102394710978203 O
atom 9.0848895476490767 8.2043480712571810 17.6102168245619417 O
atom 10.4383964097216015 5.9362464133441506 16.6113674744205113 O
atom 0.2823379084914752 5.4040846160788867 19.2215595903618421 O
atom 1.0106506190295990 2.2680949741376986 23.6362754491538851 Ir
atom 2.6387215660525838 3.1360574792291867 22.8306033424355306 O
atom 10.9583205021842236 3.6682136367257945 22.8306100664580001 O
atom 1.2190178377237788 1.4001629788174002 21.8317368144273374 O
atom 2.1557674706818388 0.8679507115478408 24.4419533687983837 O
atom 9.3302465126073475 0.0000064916366982 23.6362960294116249 Ir
atom 10.4753285394459095 1.4001666990500188 24.4419470590337120 O
atom 3.9922366926282771 0.8679525213147355 21.8317553318754101 O
atom 1.0106530665985729 6.8042005841358533 23.6362644190111517 Ir
atom 2.6387450455564330 7.6721675192267176 22.8306177351707120 O
atom 10.9583045942170028 8.2043256367284272 22.8306057829836178 O
atom 1.2190362896936944 5.9362676588152032 21.8317460314881124 O
atom 2.1557493682735909 5.4040674915499531 24.4419421247684525 O
atom 9.3302486453192000 4.5361523416360932 23.6362936668271075 Ir
atom 10.4753436180782220 5.9362795890484126 24.4419558223503905 O
atom 3.9922178911275399 5.4040681813169495 21.8317438649779660 O
atom 8.3935369080722158 2.2680986789012056 21.0260990469071629 Ir
atom 3.7838571118998199 0.0000050766366266 23.6362884068245158 Ir
atom 4.9289715015258286 1.4001398540471237 24.4419648471440496 O
atom 9.5386444853679144 0.8679744063134122 21.8317789391712118 O
atom 6.5570656520376822 2.2680981191358613 23.6363056055483760 Ir
atom 8.1851452447510766 3.1360355842251444 22.8306296044202846 O
atom 5.4119622891689234 3.6682324917242597 22.8306361981063652 O
atom 6.7654346122534772 1.4001319138141197 21.8317588301705108 O
atom 7.7021800160574836 0.8679732265450707 24.4419731059452516 O
atom 8.3935306768533362 6.8042098489033522 21.0261050442421293 Ir
atom 3.7838586944730861 4.5361534766369411 23.6362920397168672 Ir
atom 4.9289958084911820 5.9362555440449087 24.4419823041580209 O
atom 9.5386329574605302 5.4040886263136816 21.8317635295166070 O
atom 6.5570668098473313 6.8042060291341899 23.6362940103214925 Ir
atom 8.1851611884067736 7.6721487942237951 22.8306414828989759 O
atom 5.4119467181010270 8.2043494817250480 22.8306188363630937 O
atom 6.7654535801735474 5.9362478238120175 21.8317694862216598 O
atom 7.7021639426946571 5.4040860265467527 24.4419616021629977 O
