#===============================================================================
# Created using the Atomic Simulation Environment (ASE)

# Mon Mar 23 14:01:00 2026

#=======================================================
lattice_vector 9.0722883300002515 0.0000000000000000 0.0000000000000000 
lattice_vector 0.0000042800008374 9.0722918799992431 0.0000000000000000 
lattice_vector 0.0000000000000000 0.0000000000000000 42.7660719850000106 
atom 3.1360095338055487 7.6721627802683869 15.0000027115433170 O
atom 1.4001182443360254 5.9362631897358522 15.0000019034567167 O
atom 4.5361465040716453 0.0000001199994449 15.0000000000000000 Ir
atom 5.9362901043398439 1.4001346797291931 15.0000026884566822 O
atom 4.5361505940726472 4.5361485199986067 15.0000030699999982 Ir
atom 7.6721866537964578 7.6721237002606131 15.0000027765432797 O
atom 2.2680556508347189 2.2680900150039354 16.5957562925000239 Ir
atom 9.0722870140721756 9.0722901400005593 15.0000066250000117 Ir
atom 3.1359813438135991 3.1360527402749088 15.0000034415433490 O
atom 0.8679314510991373 3.6682088952696890 16.5957544040433191 O
atom 1.4000971443453418 1.4001585097407030 15.0000039734567352 O
atom 3.6682016805642621 0.8679455347330326 16.5957581509567014 O
atom 2.2680560043529021 2.2680912750038504 19.7872841925000245 Ir
atom 0.0000108075897289 0.0000015299974465 18.1915197149999912 Ir
atom 3.1359800873274790 3.1360358102752035 18.1915202815433474 O
atom 0.8679312246174431 3.6682106652697417 19.7872839440433239 O
atom 1.4001133178639256 1.4001615197368875 18.1915202434567185 O
atom 3.6682016140827316 0.8679480447330474 19.7872781809567009 O
atom 2.2680520108256137 6.8041956250049207 16.5957468725000297 Ir
atom 9.0722832840723022 4.5361465200013145 15.0000038450000126 Ir
atom 3.1360095708412929 7.6721627702683755 21.3830353915433165 O
atom 0.8679166810915575 8.2043208952733000 16.5957610640433373 O
atom 1.4001182813717703 5.9362631797358416 21.3830345834567161 O
atom 3.6681811105578044 5.4040623147380131 16.5957603809567260 O
atom 2.2680517643439972 6.8041976550049785 19.7872910725000324 Ir
atom 0.0000118975901240 4.5361473799973160 18.1915175649999910 Ir
atom 3.1360009073206530 7.6721510402704212 18.1915189315433281 O
atom 0.8679155646096808 8.2043219352735619 19.7872813340433389 O
atom 1.4001313978565477 5.9362744097327500 18.1915197434567020 O
atom 3.6681803440760103 5.4040637047381912 19.7872806309567295 O
atom 6.8042388708358885 2.2680944249947235 16.5957588974999801 Ir
atom 4.5361465411073887 0.0000001099994345 21.3830326799999995 Ir
atom 7.6721659038059409 3.1360197402653802 15.0000037365433023 O
atom 5.4041100411040341 3.6682290752615687 16.5957637290432842 O
atom 5.9362901413755900 1.4001346697291825 21.3830353684566852 O
atom 8.2043784505701538 0.8679699347253418 16.5957677059566677 O
atom 6.8042422143534669 2.2680931549939336 19.7872796874999750 Ir
atom 4.5361393675898825 9.0722899800013810 18.1915191900000153 Ir
atom 7.6721727373264317 3.1360308402637673 18.1915186765432928 O
atom 5.4041121146215918 3.6682277452610781 19.7872770290432811 O
atom 5.9362804478560118 1.4001274397314700 18.1915197084566955 O
atom 8.2043802140875712 0.8679680447249248 19.7872744559566627 O
atom 6.8042379308281165 6.8042055949950724 16.5957683974999810 Ir
atom 4.5361506311083915 4.5361485099985961 21.3830357500000012 Ir
atom 7.6721866908322021 7.6721236902606016 21.3830354565432792 O
atom 5.4040889410979958 8.2043476452666724 16.5957632290433068 O
atom 5.9363207343331306 5.9362503697220950 15.0000039884566476 O
atom 8.2043608605630851 5.4040841547296186 16.5957627459566837 O
atom 6.8042371943449043 6.8042010649952447 19.7872705474999826 Ir
atom 4.5361392975891199 4.5361425700012692 18.1915212700000097 Ir
atom 7.6721933173191301 7.6721440502590408 18.1915202265432754 O
atom 5.4040900946151753 8.2043447352663978 19.7872727990433077 O
atom 5.9363027978493452 5.9362433497263245 18.1915185184566681 O
atom 8.2043611540801749 5.4040808447295481 19.7872753059566833 O
atom 2.2680556878704632 2.2680900050039252 22.9787889725000234 Ir
atom 9.0722870511079226 9.0722901300005478 21.3830393050000112 Ir
atom 3.1359813808493437 3.1360527302748986 21.3830361215433449 O
atom 0.8679314881348821 3.6682088852696793 22.9787870840433222 O
atom 1.4000971813810863 1.4001584997406926 21.3830366534567382 O
atom 3.6682017176000068 0.8679455247330222 22.9787908309567008 O
atom 2.2680560413886468 2.2680912650038407 26.1703168725000239 Ir
atom 0.0000108446254737 0.0000015199974361 24.5745523949999907 Ir
atom 3.1359801243632237 3.1360358002751934 24.5745529615433504 O
atom 0.8679312616531877 3.6682106552697316 26.1703166240433198 O
atom 1.4001133548996703 1.4001615097368771 24.5745529234567215 O
atom 3.6682016511184763 0.8679480347330369 26.1703108609567003 O
atom 2.2680520478613584 6.8041956150049101 22.9787795525000327 Ir
atom 9.0722833211080491 4.5361465100013039 21.3830365250000121 Ir
atom 3.1360096078770376 7.6721627602683649 27.7660680715433159 O
atom 0.8679167181273022 8.2043208852732885 22.9787937440433403 O
atom 1.4001183184075148 5.9362631697358310 27.7660672634567192 O
atom 3.6681811475935491 5.4040623047380025 22.9787930609567255 O
atom 2.2680518013797415 6.8041976450049679 26.1703237525000283 Ir
atom 0.0000119346258688 4.5361473699973054 24.5745502449999940 Ir
atom 3.1360009443563972 7.6721510302704106 24.5745516115433276 O
atom 0.8679156016454257 8.2043219252735504 26.1703140140433419 O
atom 1.4001314348922924 5.9362743997327385 24.5745524234567014 O
atom 3.6681803811117550 5.4040636947381806 26.1703133109567290 O
atom 6.8042389078716345 2.2680944149947129 22.9787915774999796 Ir
atom 4.5361465781431347 0.0000000999994241 27.7660653599999989 Ir
atom 7.6721659408416869 3.1360197302653705 21.3830364165433018 O
atom 5.4041100781397793 3.6682290652615586 22.9787964090432837 O
atom 5.9362901784113351 1.4001346597291726 27.7660680484566882 O
atom 8.2043784876058989 0.8679699247253312 22.9788003859566601 O
atom 6.8042422513892120 2.2680931449939234 26.1703123674999780 Ir
atom 4.5361394046256276 9.0722899700013695 24.5745518700000147 Ir
atom 7.6721727743621777 3.1360308302637572 24.5745513565432958 O
atom 5.4041121516573369 3.6682277352610684 26.1703097090432841 O
atom 5.9362804848917579 1.4001274297314596 24.5745523884566950 O
atom 8.2043802511233164 0.8679680347249145 26.1703071359566621 O
atom 6.8042379678638616 6.8042055849950609 22.9788010774999840 Ir
atom 4.5361506681441375 4.5361484999985855 27.7660684300000042 Ir
atom 7.6721867278679472 7.6721236802605910 27.7660681365432822 O
atom 5.4040889781337409 8.2043476352666609 22.9787959090433134 O
atom 5.9363207713688757 5.9362503597220853 21.3830366684566542 O
atom 8.2043608975988302 5.4040841447296071 22.9787954259566867 O
atom 6.8042372313806503 6.8042010549952341 26.1703032274999856 Ir
atom 4.5361393346248651 4.5361425600012586 24.5745539500000127 Ir
atom 7.6721933543548770 7.6721440402590311 24.5745529065432713 O
atom 5.4040901316509204 8.2043447252663864 26.1703054790433107 O
atom 5.9363028348850904 5.9362433397263148 24.5745511984566747 O
atom 8.2043611911159200 5.4040808347295375 26.1703079859566863 O
atom 9.0722870881436641 9.0722901200005399 27.7660719850000106 Ir
atom 3.1359814178850884 3.1360527202748880 27.7660688015433408 O
atom 1.4000972184168317 1.4001584897406822 27.7660693334567341 O
atom 9.0722833581437925 4.5361465000012933 27.7660692050000080 Ir
atom 7.6721659778774312 3.1360197202653595 27.7660690965433048 O
atom 5.9363208084046200 5.9362503497220738 27.7660693484566536 O
