#===============================================================================
# Created using the Atomic Simulation Environment (ASE)

# Mon Mar 23 14:01:00 2026

#=======================================================
lattice_vector 9.0722883300002515 0.0000000000000000 0.0000000000000000 
lattice_vector 0.0000042800008374 9.0722918799992431 0.0000000000000000 
lattice_vector 0.0000000000000000 0.0000000000000000 30.0000066250000117 
atom 3.1360096078770376 7.6721627602683649 15.0000027115433170 O
atom 1.4001183184075148 5.9362631697358310 15.0000019034567202 O
atom 4.5361465781431347 0.0000000999994241 15.0000000000000000 Ir
atom 5.9362901784113351 1.4001346597291726 15.0000026884566893 O
atom 4.5361506681441375 4.5361484999985855 15.0000030700000053 Ir
atom 7.6721867278679472 7.6721236802605910 15.0000027765432833 O
atom 9.0722870881436641 9.0722901200005399 15.0000066250000117 Ir
atom 3.1359814178850884 3.1360527202748880 15.0000034415433419 O
atom 1.4000972184168317 1.4001584897406822 15.0000039734567352 O
atom 9.0722833581437925 4.5361465000012933 15.0000038450000091 Ir
atom 7.6721659778774312 3.1360197202653595 15.0000037365433059 O
atom 5.9363208084046200 5.9362503497220738 15.0000039884566547 O
