#===============================================================================
# Created using the Atomic Simulation Environment (ASE)

# Mon Mar 23 14:01:00 2026

#=======================================================
lattice_vector 11.0927688637512336 0.0000000000000000 0.0000000000000000 
lattice_vector 3.6729463381512715 10.4670459790894856 0.0000000000000000 
lattice_vector 0.0000000000000000 0.0000000000000000 32.2624473830459024 
atom 4.6835969571808747 3.3201203695653718 17.2624163537436672 Ir
atom 6.3116679042038593 4.4742511791319339 16.9969949375054057 O
atom 3.5384979765842575 4.9354930752221486 17.2624117593119237 O
atom 4.8919641758750467 3.4678493422709953 15.2654582211467975 O
atom 5.8287138088331121 1.7047192224013861 17.2624190466397351 O
atom 6.5200619940487821 4.6219445256684963 15.0000386673896244 Ir
atom 1.9104239870073827 1.3542491006156878 16.1312331153621074 Ir
atom 5.3749615954022696 6.2373171708607611 15.0000352006007915 O
atom 7.6651830307795485 3.0065477926689645 15.0000361953975094 O
atom 8.3565422342978977 9.8554417755719168 15.0000000000000000 Ir
atom 3.7468821846713167 6.5877762293502125 16.1312240072618920 Ir
atom 3.5384785600138247 1.0037706757854941 15.0000044402211401 O
atom 9.5016385359729210 8.2400504166612514 15.0000080785095875 O
atom 6.5200545715118183 8.5536043801267834 17.2624073109882232 Ir
atom 8.1481557971645096 9.7077282327889254 16.9969792578633019 O
atom 5.3749502937128346 10.1689884121403633 17.2623938601583120 O
atom 6.7284639220263136 8.7013373205944351 15.2654588445116310 O
atom 7.6651642292788136 6.9382223849999276 17.2623978333917449 O
atom 12.0664832462234877 4.6219397920993979 15.0000531994351967 Ir
atom 7.4568034500510914 1.3542516759055514 16.1312258027742246 Ir
atom 10.9213766121148002 6.2373247540310706 15.0000589246777949 O
atom 2.1188219597679465 3.0065549873913864 15.0000675720377288 O
atom 10.2300119901889506 3.3201080550913744 17.2624440602929212 Ir
atom 11.8580915829023432 4.4742191036107970 16.9970067799709028 O
atom 9.0849086273201998 4.9354963846862709 17.2624438127276676 O
atom 10.4383809504047491 3.4678114364698813 15.2654618096866201 O
atom 11.3751263542087493 1.7047288933967921 17.2624473830459024 O
atom 12.0664770150046081 8.5536017825081885 17.2624277351451880 Ir
atom 13.6945741453939345 9.7076925173116759 16.9969864986422508 O
atom 10.9213596471475611 10.1690030231231017 17.2624200076290251 O
atom 12.2748849761905081 8.7013032719298256 15.2654698052035656 O
atom 13.2115792956117986 6.9382302980397714 17.2624250744594931 O
atom 13.9029559775466609 9.8554317364520223 15.0000283638806629 Ir
atom 9.2932661230693476 6.5877723215365815 16.1312228886366178 Ir
atom 9.0848895476490785 1.0037848330603767 15.0000276468182108 O
atom 3.9552842466427456 8.2400567675500636 15.0000342047648800 O
