#===============================================================================
# Created using the Atomic Simulation Environment (ASE)

# Mon Mar 23 14:01:00 2026

#=======================================================
lattice_vector 9.0722883300002515 0.0000000000000000 0.0000000000000000 
lattice_vector 0.0000042800008374 9.0722918799992431 0.0000000000000000 
lattice_vector 0.0000000000000000 0.0000000000000000 44.3618341175000239 
atom 2.2680559673171570 2.2680912850038615 15.0000136450000419 Ir
atom 0.8679311875816982 3.6682106752697523 15.0000133965433378 O
atom 3.6682015770469865 0.8679480547330578 15.0000076334567147 O
atom 3.1360095338055487 7.6721627802683869 16.5957648440433339 O
atom 1.4001182443360254 5.9362631897358522 16.5957640359567336 O
atom 2.2680517273082521 6.8041976650049882 15.0000205250000462 Ir
atom 0.8679155275739361 8.2043219452735716 15.0000107865433598 O
atom 3.6681803070402657 5.4040637147382009 15.0000100834567434 O
atom 4.5361465040716453 0.0000001199994449 16.5957621325000169 Ir
atom 5.9362901043398439 1.4001346797291931 16.5957648209566990 O
atom 6.8042421773177226 2.2680931649939442 15.0000091399999924 Ir
atom 5.4041120775858467 3.6682277552610887 15.0000064815432985 O
atom 8.2043801770518279 0.8679680547249352 15.0000039084566801 O
atom 4.5361505940726472 4.5361485199986067 16.5957652025000151 Ir
atom 7.6721866537964578 7.6721237002606131 16.5957649090432966 O
atom 6.8042371573091591 6.8042010749952553 15.0000000000000000 Ir
atom 5.4040900575794319 8.2043447452664076 15.0000022515433251 O
atom 8.2043611170444297 5.4040808547295578 15.0000047584567007 O
atom 2.2680556508347189 2.2680900150039354 18.1915184250000408 Ir
atom 9.0722870140721756 9.0722901400005593 16.5957687575000286 Ir
atom 3.1359813438135991 3.1360527402749088 16.5957655740433658 O
atom 0.8679314510991373 3.6682088952696890 18.1915165365433360 O
atom 1.4000971443453418 1.4001585097407030 16.5957661059567521 O
atom 3.6682016805642621 0.8679455347330326 18.1915202834567182 O
atom 2.2680560043529021 2.2680912750038504 21.3830463250000413 Ir
atom 0.0000108075897289 0.0000015299974465 19.7872818475000081 Ir
atom 3.1359800873274790 3.1360358102752035 19.7872824140433643 O
atom 0.8679312246174431 3.6682106652697417 21.3830460765433408 O
atom 1.4001133178639256 1.4001615197368875 19.7872823759567353 O
atom 3.6682016140827316 0.8679480447330474 21.3830403134567177 O
atom 2.2680520108256137 6.8041956250049207 18.1915090050000465 Ir
atom 9.0722832840723022 4.5361465200013145 16.5957659775000295 Ir
atom 3.1360095708412929 7.6721627702683755 22.9787975240433333 O
atom 0.8679166810915575 8.2043208952733000 18.1915231965433541 O
atom 1.4001182813717703 5.9362631797358416 22.9787967159567330 O
atom 3.6681811105578044 5.4040623147380131 18.1915225134567429 O
atom 2.2680517643439972 6.8041976550049785 21.3830532050000492 Ir
atom 0.0000118975901240 4.5361473799973160 19.7872796975000078 Ir
atom 3.1360009073206530 7.6721510402704212 19.7872810640433450 O
atom 0.8679155646096808 8.2043219352735619 21.3830434665433557 O
atom 1.4001313978565477 5.9362744097327500 19.7872818759567188 O
atom 3.6681803440760103 5.4040637047381912 21.3830427634567464 O
atom 6.8042388708358885 2.2680944249947235 18.1915210299999970 Ir
atom 4.5361465411073887 0.0000001099994345 22.9787948125000163 Ir
atom 7.6721659038059409 3.1360197402653802 16.5957658690433192 O
atom 5.4041100411040341 3.6682290752615687 18.1915258615433011 O
atom 5.9362901413755900 1.4001346697291825 22.9787975009567020 O
atom 8.2043784505701538 0.8679699347253418 18.1915298384566846 O
atom 6.8042422143534669 2.2680931549939336 21.3830418199999919 Ir
atom 4.5361393675898825 9.0722899800013810 19.7872813225000321 Ir
atom 7.6721727373264317 3.1360308402637673 19.7872808090433097 O
atom 5.4041121146215918 3.6682277452610781 21.3830391615432980 O
atom 5.9362804478560118 1.4001274397314700 19.7872818409567124 O
atom 8.2043802140875712 0.8679680447249248 21.3830365884566795 O
atom 6.8042379308281165 6.8042055949950724 18.1915305299999979 Ir
atom 4.5361506311083915 4.5361485099985961 22.9787978825000181 Ir
atom 7.6721866908322021 7.6721236902606016 22.9787975890432961 O
atom 5.4040889410979958 8.2043476452666724 18.1915253615433237 O
atom 5.9363207343331306 5.9362503697220950 16.5957661209566645 O
atom 8.2043608605630851 5.4040841547296186 18.1915248784567005 O
atom 6.8042371943449043 6.8042010649952447 21.3830326799999995 Ir
atom 4.5361392975891199 4.5361425700012692 19.7872834025000266 Ir
atom 7.6721933173191301 7.6721440502590408 19.7872823590432922 O
atom 5.4040900946151753 8.2043447352663978 21.3830349315433246 O
atom 5.9363027978493452 5.9362433497263245 19.7872806509566850 O
atom 8.2043611540801749 5.4040808447295481 21.3830374384567001 O
atom 2.2680556878704632 2.2680900050039252 24.5745511050000403 Ir
atom 9.0722870511079226 9.0722901300005478 22.9788014375000280 Ir
atom 3.1359813808493437 3.1360527302748986 22.9787982540433617 O
atom 0.8679314881348821 3.6682088852696793 24.5745492165433390 O
atom 1.4000971813810863 1.4001584997406926 22.9787987859567551 O
atom 3.6682017176000068 0.8679455247330222 24.5745529634567177 O
atom 2.2680560413886468 2.2680912650038407 27.7660790050000408 Ir
atom 0.0000108446254737 0.0000015199974361 26.1703145275000075 Ir
atom 3.1359801243632237 3.1360358002751934 26.1703150940433673 O
atom 0.8679312616531877 3.6682106552697316 27.7660787565433367 O
atom 1.4001133548996703 1.4001615097368771 26.1703150559567383 O
atom 3.6682016511184763 0.8679480347330369 27.7660729934567172 O
atom 2.2680520478613584 6.8041956150049101 24.5745416850000495 Ir
atom 9.0722833211080491 4.5361465100013039 22.9787986575000289 Ir
atom 3.1360096078770376 7.6721627602683649 29.3618302040433328 O
atom 0.8679167181273022 8.2043208852732885 24.5745558765433572 O
atom 1.4001183184075148 5.9362631697358310 29.3618293959567360 O
atom 3.6681811475935491 5.4040623047380025 24.5745551934567423 O
atom 2.2680518013797415 6.8041976450049679 27.7660858850000452 Ir
atom 0.0000119346258688 4.5361473699973054 26.1703123775000108 Ir
atom 3.1360009443563972 7.6721510302704106 26.1703137440433444 O
atom 0.8679156016454257 8.2043219252735504 27.7660761465433588 O
atom 1.4001314348922924 5.9362743997327385 26.1703145559567183 O
atom 3.6681803811117550 5.4040636947381806 27.7660754434567458 O
atom 6.8042389078716345 2.2680944149947129 24.5745537099999964 Ir
atom 4.5361465781431347 0.0000000999994241 29.3618274925000158 Ir
atom 7.6721659408416869 3.1360197302653705 22.9787985490433186 O
atom 5.4041100781397793 3.6682290652615586 24.5745585415433005 O
atom 5.9362901784113351 1.4001346597291726 29.3618301809567050 O
atom 8.2043784876058989 0.8679699247253312 24.5745625184566769 O
atom 6.8042422513892120 2.2680931449939234 27.7660744999999949 Ir
atom 4.5361394046256276 9.0722899700013695 26.1703140025000316 Ir
atom 7.6721727743621777 3.1360308302637572 26.1703134890433127 O
atom 5.4041121516573369 3.6682277352610684 27.7660718415433010 O
atom 5.9362804848917579 1.4001274297314596 26.1703145209567118 O
atom 8.2043802511233164 0.8679680347249145 27.7660692684566790 O
atom 6.8042379678638616 6.8042055849950609 24.5745632100000009 Ir
atom 4.5361506681441375 4.5361484999985855 29.3618305625000211 Ir
atom 7.6721867278679472 7.6721236802605910 29.3618302690432991 O
atom 5.4040889781337409 8.2043476352666609 24.5745580415433302 O
atom 5.9363207713688757 5.9362503597220853 22.9787988009566710 O
atom 8.2043608975988302 5.4040841447296071 24.5745575584567035 O
atom 6.8042372313806503 6.8042010549952341 27.7660653600000025 Ir
atom 4.5361393346248651 4.5361425600012586 26.1703160825000296 Ir
atom 7.6721933543548770 7.6721440402590311 26.1703150390432882 O
atom 5.4040901316509204 8.2043447252663864 27.7660676115433276 O
atom 5.9363028348850904 5.9362433397263148 26.1703133309566915 O
atom 8.2043611911159200 5.4040808347295375 27.7660701184567031 O
atom 9.0722870881436641 9.0722901200005399 29.3618341175000275 Ir
atom 3.1359814178850884 3.1360527202748880 29.3618309340433576 O
atom 1.4000972184168317 1.4001584897406822 29.3618314659567510 O
atom 9.0722833581437925 4.5361465000012933 29.3618313375000248 Ir
atom 7.6721659778774312 3.1360197202653595 29.3618312290433217 O
atom 5.9363208084046200 5.9362503497220738 29.3618314809566705 O
