#===============================================================================
# Created using the Atomic Simulation Environment (ASE)

# Mon Mar 23 14:01:01 2026

#=======================================================
lattice_vector 11.0927688637512336 0.0000000000000000 0.0000000000000000 
lattice_vector 0.0000035086032155 9.0722918799995735 0.0000000000000000 
lattice_vector 0.0000000000000000 0.0000000000000000 44.6623843159591729 
atom 7.4198229606329358 9.0722915704686482 15.8056862414391617 Ir
atom 10.1930013149936158 2.2680927129705792 15.8056820786347672 Ir
atom 0.7283084456903056 3.1360370280597354 15.0000000000000000 O
atom 9.0479009163471122 3.6682118855590873 15.0000177034775000 O
atom 7.4198215056161585 4.5361479504683722 15.8056830528766543 Ir
atom 10.1929938924566539 6.8041990929724117 15.8056840342920886 Ir
atom 0.7283262543581180 7.6721522580577206 15.0000096447973110 O
atom 9.0478896146576684 8.2043231555597238 15.0000053263511486 O
atom 6.2747270755867488 3.1360209530563394 15.0000238102118342 O
atom 3.5015470693084025 3.6682302905554369 15.0000344841929447 O
atom 1.8734378384823187 9.0722914154680900 15.8056811400525667 Ir
atom 6.2747446025875346 7.6721249130544154 15.0000337336949432 O
atom 3.5015301043411649 8.2043488605569799 15.0000207024415992 O
atom 1.8734365802629576 4.5361440054685982 15.8056840323186805 Ir
atom 8.3565362781257093 2.2680921532019660 18.4158734373527366 Ir
atom 3.7468766224816674 0.0000011009369408 21.0260882532403137 Ir
atom 9.9846072251486984 3.1360546582934545 17.6102013306343750 O
atom 7.2114372975290948 3.6682108157900624 17.6102080546568445 O
atom 8.5649034968198858 1.4001601578816680 16.6113348026261889 O
atom 9.5016531297779565 0.8679478906121088 19.2215513569972316 O
atom 6.5200584854455608 2.2680941234384449 21.0260840904359156 Ir
atom 5.5833633079522240 0.0000036707009663 18.4158940176104728 Ir
atom 8.1481344798934821 3.1360384385276014 20.2204020118011485 O
atom 5.3749580867990581 3.6682132960269525 20.2204197152786520 O
atom 6.7284453347907816 1.4001638781142871 19.2215450472325671 O
atom 0.2453534879731531 0.8679497003790038 16.6113533200742580 O
atom 8.3565387256946835 6.8041977632001212 18.4158624072100032 Ir
atom 3.7468786760681012 4.5361493609362373 21.0260850646778046 Ir
atom 9.9846307046525418 7.6721646982909864 17.6102157233695564 O
atom 7.2114213895618775 8.2043228157926933 17.6102037711824657 O
atom 8.5649219487897987 5.9362648378794720 16.6113440196869604 O
atom 9.5016350273697086 5.4040646706142201 19.2215401129672969 O
atom 6.5200510629085997 6.8042005034402768 21.0260860460932371 Ir
atom 5.5833654406640738 4.5361495207003601 18.4158916550259519 Ir
atom 8.1481522885612900 7.6721536685255867 20.2204116565984648 O
atom 5.3749467851096133 8.2043245660275890 20.2204073381522988 O
atom 6.7284604134230959 5.9362767681126813 19.2215538105492385 O
atom 0.2453346864724157 5.4040653603812174 16.6113418531768176 O
atom 4.6466537034170949 2.2680958579654735 15.8056970351060091 Ir
atom 0.0369739072446983 0.0000022557008947 18.4158863950233638 Ir
atom 2.6017842460386911 3.1360223635242050 20.2204258220129844 O
atom 10.9213731035115842 3.6682317010233021 20.2204364959940932 O
atom 1.1820882968707069 1.4001370331113916 19.2215628353429011 O
atom 5.7917612807127874 0.8679715853776802 16.6113769273700598 O
atom 2.8101824473825561 2.2680952982001288 18.4159035937472240 Ir
atom 9.2932603640822897 0.0000009459363821 21.0260831518537152 Ir
atom 4.4382620400959496 3.1360327632894123 17.6102275926191325 O
atom 1.6650790845137966 3.6682296707885280 17.6102341863052203 O
atom 3.0185514075983608 1.4001290928783880 16.6113568183693587 O
atom 3.9552968114023566 0.8679704056093387 19.2215710941440996 O
atom 4.6466474721982065 6.8042070279676210 15.8057030324409755 Ir
atom 0.0369754898179618 4.5361506557012090 18.4158900279157116 Ir
atom 2.6018017730394836 7.6721263235222814 20.2204357454960970 O
atom 10.9213561385443434 8.2043502710248450 20.2204227142427477 O
atom 1.1821126038360577 5.9362527231091775 19.2215802923568759 O
atom 5.7917497528054058 5.4040858053779512 16.6113615177154585 O
atom 2.8101836051922100 6.8042032081984587 18.4158919985203440 Ir
atom 9.2932626144661352 4.5361454159364643 21.0260860441198290 Ir
atom 4.4382779837516475 7.6721459732880630 17.6102394710978203 O
atom 1.6650635134459006 8.2043466607893141 17.6102168245619417 O
atom 3.0185703755184234 5.9362450028762863 16.6113674744205113 O
atom 3.9552807380395278 5.4040832056110215 19.2215595903618421 O
atom 4.6835934485776507 2.2680935636698325 23.6362754491538887 Ir
atom 0.0739337929336151 0.0000025114048076 26.2464902650414587 Ir
atom 6.3116643956006460 3.1360560687613215 22.8306033424355270 O
atom 3.5384944679810415 3.6682122262579289 22.8306100664579930 O
atom 4.8919606672718317 1.4001615683495339 21.8317368144273374 O
atom 5.8287103002298961 0.8679493010799747 24.4419533687983801 O
atom 2.8471156558975088 2.2680955339063114 26.2464861022370677 Ir
atom 1.9104204784041716 0.0000050811688322 23.6362960294116249 Ir
atom 4.4751916503454279 3.1360398489954675 25.4408040236022970 O
atom 1.7020152572510092 3.6682147064948194 25.4408217270798005 O
atom 3.0555025052427243 1.4001652885821527 24.4419470590337156 O
atom 7.6651795221763317 0.8679511108468696 21.8317553318754065 O
atom 4.6835958961466249 6.8041991736679881 23.6362644190111553 Ir
atom 0.0739358465200488 4.5361507714041025 26.2464870764789566 Ir
atom 6.3116878751044858 7.6721661087588506 22.8306177351707120 O
atom 3.5384785600138273 8.2043242262605620 22.8306057829836178 O
atom 4.8919791192417446 5.9362662483473363 21.8317460314881089 O
atom 5.8286921978216535 5.4040660810820862 24.4419421247684454 O
atom 2.8471082333605424 6.8042019139081429 26.2464880578943855 Ir
atom 1.9104226111160187 4.5361509311682253 23.6362936668271004 Ir
atom 4.4752094590132394 7.6721550789934518 25.4408136683996133 O
atom 1.7020039555615580 8.2043259764954559 25.4408093499534509 O
atom 3.0555175838750364 5.9362781785805474 24.4419558223503905 O
atom 7.6651607206755870 5.4040667708490835 21.8317438649779660 O
atom 0.9737108738690402 2.2680972684333396 21.0260990469071594 Ir
atom 7.4567999414478789 0.0000036661687607 23.6362884068245194 Ir
atom 10.0216102802418678 3.1360237739920711 25.4408278338141329 O
atom 7.2484302739635247 3.6682331114911690 25.4408385077952452 O
atom 8.6019143310738837 1.4001384435792574 24.4419648471440496 O
atom 2.1188184511647279 0.8679729958455461 21.8317789391712154 O
atom 10.2300084815857364 2.2680967086679948 23.6363056055483725 Ir
atom 5.6203175345342267 0.0000023564042508 26.2464851636548637 Ir
atom 0.7653192105479003 3.1360341737572788 22.8306296044202810 O
atom 9.0849051187169785 3.6682310812563936 22.8306361981063688 O
atom 10.4383774418015349 1.4001305033462537 21.8317588301705072 O
atom 0.2823539818543020 0.8679718160772046 24.4419731059452516 O
atom 0.9737046426501541 6.8042084384354871 21.0261050442421258 Ir
atom 7.4568015240211425 4.5361520661690742 23.6362920397168637 Ir
atom 10.0216278072426626 7.6721277339901475 25.4408377572972455 O
atom 7.2484133089962866 8.2043516814927138 25.4408247260438998 O
atom 8.6019386380392380 5.9362541335770445 24.4419823041580315 O
atom 2.1188069232573539 5.4040872158458155 21.8317635295166106 O
atom 10.2300096393953837 6.8042046186663256 23.6362940103214925 Ir
atom 5.6203197849180739 4.5361468264043312 26.2464880559209810 Ir
atom 0.7653351542035879 7.6721473837559282 22.8306414828989688 O
atom 9.0848895476490767 8.2043480712571810 22.8306188363630902 O
atom 10.4383964097216015 5.9362464133441506 21.8317694862216598 O
atom 0.2823379084914752 5.4040846160788867 24.4419616021629906 O
atom 1.0106506190295990 2.2680949741376986 28.8566774609550336 Ir
atom 2.6387215660525838 3.1360574792291867 28.0510053542366791 O
atom 10.9583205021842236 3.6682136367257945 28.0510120782591486 O
atom 1.2190178377237788 1.4001629788174002 27.0521388262284859 O
atom 2.1557674706818388 0.8679507115478408 29.6623553805995321 O
atom 9.3302465126073475 0.0000064916366982 28.8566980412127734 Ir
atom 10.4753285394459095 1.4001666990500188 29.6623490708348605 O
atom 3.9922366926282771 0.8679525213147355 27.0521573436765586 O
atom 1.0106530665985729 6.8042005841358533 28.8566664308123002 Ir
atom 2.6387450455564330 7.6721675192267176 28.0510197469718605 O
atom 10.9583045942170028 8.2043256367284272 28.0510077947847662 O
atom 1.2190362896936944 5.9362676588152032 27.0521480432892609 O
atom 2.1557493682735909 5.4040674915499531 29.6623441365696010 O
atom 9.3302486453192000 4.5361523416360932 28.8566956786282560 Ir
atom 10.4753436180782220 5.9362795890484126 29.6623578341515390 O
atom 3.9922178911275399 5.4040681813169495 27.0521458767791145 O
atom 8.3935369080722158 2.2680986789012056 26.2465010587083114 Ir
atom 3.7838571118998199 0.0000050766366266 28.8566904186256643 Ir
atom 4.9289715015258286 1.4001398540471237 29.6623668589451981 O
atom 9.5386444853679144 0.8679744063134122 27.0521809509723603 O
atom 6.5570656520376822 2.2680981191358613 28.8567076173495245 Ir
atom 8.1851452447510766 3.1360355842251444 28.0510316162214330 O
atom 5.4119622891689234 3.6682324917242597 28.0510382099075137 O
atom 6.7654346122534772 1.4001319138141197 27.0521608419716593 O
atom 7.7021800160574836 0.8679732265450707 29.6623751177464001 O
atom 8.3935306768533362 6.8042098489033522 26.2465070560432778 Ir
atom 3.7838586944730861 4.5361534766369411 28.8566940515180157 Ir
atom 4.9289958084911820 5.9362555440449087 29.6623843159591694 O
atom 9.5386329574605302 5.4040886263136816 27.0521655413177555 O
atom 6.5570668098473313 6.8042060291341899 28.8566960221226410 Ir
atom 8.1851611884067736 7.6721487942237951 28.0510434947001244 O
atom 5.4119467181010270 8.2043494817250480 28.0510208481642422 O
atom 6.7654535801735474 5.9362478238120175 27.0521714980228083 O
atom 7.7021639426946571 5.4040860265467527 29.6623636139641462 O
