#===============================================================================
# Created using the Atomic Simulation Environment (ASE)

# Mon Mar 23 14:01:00 2026

#=======================================================
lattice_vector 11.0927688637512336 0.0000000000000000 0.0000000000000000 
lattice_vector 3.6729463381512715 10.4670459790894856 0.0000000000000000 
lattice_vector 0.0000000000000000 0.0000000000000000 34.2593884302553562 
atom 3.7468801310848883 2.6560775098293061 15.8657799821146348 Ir
atom 6.7284488433940002 4.7696752189060074 15.0000221007601411 O
atom 8.5649254573930129 10.0031598439808072 15.0000000000000000 O
atom 12.2748606692251592 4.7696430792983691 15.0000241297181489 O
atom 9.2932638726854986 2.6560799197813427 15.8657754831923654 Ir
atom 14.1113427478728823 10.0031309540677249 15.0000104367044287 O
atom 4.6835969571808747 3.3201203695653718 19.2593574009531210 Ir
atom 6.3116679042038593 4.4742511791319339 18.9939359847148594 O
atom 3.5384979765842575 4.9354930752221486 19.2593528065213775 O
atom 4.8919641758750467 3.4678493422709953 17.2623992683562513 O
atom 5.8287138088331121 1.7047192224013861 19.2593600938491889 O
atom 6.5200619940487821 4.6219445256684963 16.9969797145990782 Ir
atom 1.9104239870073827 1.3542491006156878 18.1281741625715611 Ir
atom 8.1481379884966980 5.7760645425460231 16.7315405830238149 O
atom 5.3749615954022696 6.2373171708607611 16.9969762478102453 O
atom 7.6651830307795485 3.0065477926689645 16.9969772426069632 O
atom 8.3565422342978977 9.8554417755719168 16.9969410472094538 Ir
atom 3.7468821846713167 6.5877762293502125 18.1281650544713457 Ir
atom 6.3116878751044894 0.5425177661717160 16.7315438756445403 O
atom 3.5384785600138247 1.0037706757854941 16.9969454874305939 O
atom 9.5016385359729210 8.2400504166612514 16.9969491257190413 O
atom 6.5200545715118183 8.5536043801267834 19.2593483581976770 Ir
atom 5.5833689492672915 7.8896010616462604 15.8657853909737803 Ir
atom 8.1481557971645096 9.7077282327889254 18.9939203050727556 O
atom 5.3749502937128346 10.1689884121403633 19.2593349073677658 O
atom 6.7284639220263136 8.7013373205944351 17.2623998917210848 O
atom 7.6651642292788136 6.9382223849999276 19.2593388806011987 O
atom 12.0664832462234877 4.6219397920993979 16.9969942466446504 Ir
atom 7.4568034500510914 1.3542516759055514 18.1281668499836783 Ir
atom 2.6017877546419044 5.7760387343114568 16.7315532031248502 O
atom 10.9213766121148002 6.2373247540310706 16.9969999718872486 O
atom 2.1188219597679465 3.0065549873913864 16.9970086192471825 O
atom 10.2300119901889506 3.3201080550913744 19.2593851075023750 Ir
atom 11.8580915829023432 4.4742191036107970 18.9939478271803566 O
atom 9.0849086273201998 4.9354963846862709 19.2593848599371213 O
atom 10.4383809504047491 3.4678114364698813 17.2624028568960739 O
atom 11.3751263542087493 1.7047288933967921 19.2593884302553562 O
atom 12.0664770150046081 8.5536017825081885 19.2593687823546418 Ir
atom 11.1297478621724117 7.8896028569213543 15.8657845467569807 Ir
atom 13.6945741453939345 9.7076925173116759 18.9939275458517045 O
atom 10.9213596471475611 10.1690030231231017 19.2593610548384788 O
atom 12.2748849761905081 8.7013032719298256 17.2624108524130193 O
atom 13.2115792956117986 6.9382302980397714 19.2593661216689469 O
atom 13.9029559775466609 9.8554317364520223 16.9969694110901166 Ir
atom 9.2932661230693476 6.5877723215365815 18.1281639358460716 Ir
atom 0.7653351542035933 0.5424896922189923 16.7315551199102188 O
atom 9.0848895476490785 1.0037848330603767 16.9969686940276645 O
atom 3.9552842466427456 8.2400567675500636 16.9969752519743338 O
