#===============================================================================
# Created using the Atomic Simulation Environment (ASE)

# Mon Mar 23 14:01:01 2026

#=======================================================
lattice_vector 9.0722918800002521 0.0000000000000000 0.0000000000000000 
lattice_vector -0.0000000099999929 6.3830326800000003 0.0000000000000000 
lattice_vector 0.0000000000000000 0.0000000000000000 40.8081982405366048 
atom 0.0000111199961506 0.0000035379181675 18.1360029652664778 Ir
atom 4.5361593799959010 0.0000007579181601 18.1360013752659484 Ir
atom 2.2681062150028279 1.5957557972584457 15.8679580227612362 Ir
atom 3.1360319397320420 0.0000006413376666 16.7358846555322600 O
atom 1.4001460502684926 6.3830322631791230 15.0000096749982958 O
atom 0.8679823852721565 1.5957646138390496 17.2680982630267223 O
atom 2.2681049450036146 4.7872765872584617 15.8679613477615078 Ir
atom 3.1360430397336527 3.1915155813376983 16.7358914705296442 O
atom 1.4001388202662066 3.1915166031790769 15.0000000000000000 O
atom 0.8679804952725717 4.7872713638390572 17.2681000080272185 O
atom 6.8042173850022252 1.5957652972584315 15.8679549427693871 Ir
atom 7.6721358897365644 6.3830323613377535 16.7359032655421700 O
atom 5.9362617502753317 0.0000008831792564 15.0000381650054280 O
atom 5.4040966052676289 1.5957596538389562 17.2680785330342275 O
atom 6.8042128550020538 4.7872674472584285 15.8679541877705219 Ir
atom 7.6721562497381290 3.1915171313377853 16.7359099105373588 O
atom 5.9362547302710995 3.1915154131791721 15.0000202100070865 O
atom 5.4040932952676970 4.7872722138389578 17.2680788080350283 O
atom 2.2681039449931952 1.5957532185779610 20.4040631327618982 Ir
atom 3.1360670797220944 0.0000003726571758 21.2719884255241070 O
atom 3.6682221647274935 1.5957513219974298 19.0039382724976988 O
atom 1.4001720302565570 0.0000008944985922 19.5361050449922899 O
atom 0.8679601252640470 1.5957550851585953 21.8042098230321457 O
atom 2.2681052049932777 4.7872811185779636 20.4040634677615529 Ir
atom 0.0000143900000189 3.1915166279182445 18.1360193502657268 Ir
atom 3.1360501497217967 3.1915172126571698 21.2719871505280835 O
atom 3.6682239347274388 4.7872808619974272 19.0039380274972132 O
atom 1.4001750402603714 3.1915171644986682 19.5361211999915767 O
atom 0.8679626352640304 4.7872751151585939 21.8042097380315383 O
atom 6.8042095549919592 1.5957437985779337 20.4040573527714670 Ir
atom 7.6721771097283726 6.3830323226572983 21.2720144755325649 O
atom 8.2043341647236350 1.5957579819973498 19.0039213625056718 O
atom 5.9362767002611623 6.3830315044986810 19.5361240050020299 O
atom 5.4040769052588162 1.5957573151584885 21.8041871130390135 O
atom 6.8042115849918998 4.7872879985779333 20.4040570877708518 Ir
atom 4.5361602399998988 3.1915144779182394 18.1360183002657536 Ir
atom 7.6721653797263327 3.1915158626572571 21.2720058305353419 O
atom 8.2043352047233675 4.7872782519973445 19.0039202275054109 O
atom 5.9362879302642559 3.1915166644987436 19.5361371399993757 O
atom 5.4040782952586337 4.7872775651584858 21.8041863280386679 O
atom 2.2681104950019901 1.5957558498978437 24.9402463527604610 Ir
atom 0.0000151099976105 6.3830296192379041 22.6721550652656916 Ir
atom 3.1360362197312046 0.0000006939770647 25.8081729855315061 O
atom 3.6682444847351952 1.5957606733172907 23.5401168624925177 O
atom 1.4001503302676555 6.3830323158185207 24.0722980049975277 O
atom 2.2681092250027768 4.7872766398978595 24.9402496777607539 Ir
atom 0.0000130999949102 3.1915161292378502 22.6721436302661559 Ir
atom 3.1360473197328154 3.1915156339770965 25.8081798005288974 O
atom 3.6682431547356824 4.7872739733172995 23.5401189174928547 O
atom 1.4001431002653693 3.1915166558184747 24.0722883299992318 O
atom 6.8042216650013883 1.5957653498978293 24.9402432727686332 Ir
atom 4.5361635199981896 0.0000000092379127 22.6721570152651068 Ir
atom 7.6721401697357274 6.3830324139771513 25.8081915955414090 O
atom 8.2043630547298374 1.5957601733171807 23.5400936224989792 O
atom 5.9362660302744947 0.0000009358186545 24.0723264950046527 O
atom 6.8042171350012159 4.7872674998978262 24.9402425177697538 Ir
atom 4.5361575699955221 3.1915182092378589 22.6721457002664977 Ir
atom 7.6721605297372930 3.1915171839771830 25.8081982405366048 O
atom 8.2043601447301135 4.7872697433171867 23.5400947574996948 O
atom 5.9362590102702626 3.1915154658185698 24.0723085400063255 O
