#===============================================================================
# Created using the Atomic Simulation Environment (ASE)

# Mon Mar 23 14:01:00 2026

#=======================================================
lattice_vector 9.0722883300002515 0.0000000000000000 0.0000000000000000 
lattice_vector 0.0000042800008374 9.0722918799992431 0.0000000000000000 
lattice_vector 0.0000000000000000 0.0000000000000000 39.5745544200000197 
atom 2.2680560043529021 2.2680912750038504 16.5957666275000335 Ir
atom 0.0000108075897289 0.0000015299974465 15.0000021500000003 Ir
atom 3.1359800873274790 3.1360358102752035 15.0000027165433565 O
atom 0.8679312246174431 3.6682106652697417 16.5957663790433330 O
atom 1.4001133178639256 1.4001615197368875 15.0000026784567275 O
atom 3.6682016140827316 0.8679480447330474 16.5957606159567099 O
atom 3.1360095708412929 7.6721627702683755 18.1915178265433255 O
atom 1.4001182813717703 5.9362631797358416 18.1915170184567252 O
atom 2.2680517643439972 6.8041976550049785 16.5957735075000414 Ir
atom 0.0000118975901240 4.5361473799973160 15.0000000000000000 Ir
atom 3.1360009073206530 7.6721510402704212 15.0000013665433372 O
atom 0.8679155646096808 8.2043219352735619 16.5957637690433479 O
atom 1.4001313978565477 5.9362744097327500 15.0000021784567110 O
atom 3.6681803440760103 5.4040637047381912 16.5957630659567386 O
atom 4.5361465411073887 0.0000001099994345 18.1915151150000085 Ir
atom 5.9362901413755900 1.4001346697291825 18.1915178034566942 O
atom 6.8042422143534669 2.2680931549939336 16.5957621224999841 Ir
atom 4.5361393675898825 9.0722899800013810 15.0000016250000243 Ir
atom 7.6721727373264317 3.1360308402637673 15.0000011115433018 O
atom 5.4041121146215918 3.6682277452610781 16.5957594640432902 O
atom 5.9362804478560118 1.4001274397314700 15.0000021434567046 O
atom 8.2043802140875712 0.8679680447249248 16.5957568909566717 O
atom 4.5361506311083915 4.5361485099985961 18.1915181850000103 Ir
atom 7.6721866908322021 7.6721236902606016 18.1915178915432882 O
atom 6.8042371943449043 6.8042010649952447 16.5957529824999916 Ir
atom 4.5361392975891199 4.5361425700012692 15.0000037050000188 Ir
atom 7.6721933173191301 7.6721440502590408 15.0000026615432844 O
atom 5.4040900946151753 8.2043447352663978 16.5957552340433168 O
atom 5.9363027978493452 5.9362433497263245 15.0000009534566772 O
atom 8.2043611540801749 5.4040808447295481 16.5957577409566923 O
atom 2.2680556878704632 2.2680900050039252 19.7872714075000324 Ir
atom 9.0722870511079226 9.0722901300005478 18.1915217400000202 Ir
atom 3.1359813808493437 3.1360527302748986 18.1915185565433539 O
atom 0.8679314881348821 3.6682088852696793 19.7872695190433312 O
atom 1.4000971813810863 1.4001584997406926 18.1915190884567473 O
atom 3.6682017176000068 0.8679455247330222 19.7872732659567099 O
atom 2.2680560413886468 2.2680912650038407 22.9787993075000330 Ir
atom 0.0000108446254737 0.0000015199974361 21.3830348299999997 Ir
atom 3.1359801243632237 3.1360358002751934 21.3830353965433595 O
atom 0.8679312616531877 3.6682106552697316 22.9787990590433289 O
atom 1.4001133548996703 1.4001615097368771 21.3830353584567305 O
atom 3.6682016511184763 0.8679480347330369 22.9787932959567094 O
atom 2.2680520478613584 6.8041956150049101 19.7872619875000417 Ir
atom 9.0722833211080491 4.5361465100013039 18.1915189600000211 Ir
atom 3.1360096078770376 7.6721627602683649 24.5745505065433250 O
atom 0.8679167181273022 8.2043208852732885 19.7872761790433493 O
atom 1.4001183184075148 5.9362631697358310 24.5745496984567282 O
atom 3.6681811475935491 5.4040623047380025 19.7872754959567345 O
atom 2.2680518013797415 6.8041976450049679 22.9788061875000373 Ir
atom 0.0000119346258688 4.5361473699973054 21.3830326800000030 Ir
atom 3.1360009443563972 7.6721510302704106 21.3830340465433366 O
atom 0.8679156016454257 8.2043219252735504 22.9787964490433509 O
atom 1.4001314348922924 5.9362743997327385 21.3830348584567105 O
atom 3.6681803811117550 5.4040636947381806 22.9787957459567380 O
atom 6.8042389078716345 2.2680944149947129 19.7872740124999886 Ir
atom 4.5361465781431347 0.0000000999994241 24.5745477950000080 Ir
atom 7.6721659408416869 3.1360197302653705 18.1915188515433108 O
atom 5.4041100781397793 3.6682290652615586 19.7872788440432927 O
atom 5.9362901784113351 1.4001346597291726 24.5745504834566972 O
atom 8.2043784876058989 0.8679699247253312 19.7872828209566691 O
atom 6.8042422513892120 2.2680931449939234 22.9787948024999871 Ir
atom 4.5361394046256276 9.0722899700013695 21.3830343050000238 Ir
atom 7.6721727743621777 3.1360308302637572 21.3830337915433049 O
atom 5.4041121516573369 3.6682277352610684 22.9787921440432932 O
atom 5.9362804848917579 1.4001274297314596 21.3830348234567040 O
atom 8.2043802511233164 0.8679680347249145 22.9787895709566712 O
atom 6.8042379678638616 6.8042055849950609 19.7872835124999931 Ir
atom 4.5361506681441375 4.5361484999985855 24.5745508650000133 Ir
atom 7.6721867278679472 7.6721236802605910 24.5745505715432913 O
atom 5.4040889781337409 8.2043476352666609 19.7872783440433224 O
atom 5.9363207713688757 5.9362503597220853 18.1915191034566632 O
atom 8.2043608975988302 5.4040841447296071 19.7872778609566957 O
atom 6.8042372313806503 6.8042010549952341 22.9787856624999947 Ir
atom 4.5361393346248651 4.5361425600012586 21.3830363850000218 Ir
atom 7.6721933543548770 7.6721440402590311 21.3830353415432803 O
atom 5.4040901316509204 8.2043447252663864 22.9787879140433198 O
atom 5.9363028348850904 5.9362433397263148 21.3830336334566837 O
atom 8.2043611911159200 5.4040808347295375 22.9787904209566953 O
atom 9.0722870881436641 9.0722901200005399 24.5745544200000197 Ir
atom 3.1359814178850884 3.1360527202748880 24.5745512365433498 O
atom 1.4000972184168317 1.4001584897406822 24.5745517684567432 O
atom 9.0722833581437925 4.5361465000012933 24.5745516400000170 Ir
atom 7.6721659778774312 3.1360197202653595 24.5745515315433138 O
atom 5.9363208084046200 5.9362503497220738 24.5745517834566627 O
