#===============================================================================
# Created using the Atomic Simulation Environment (ASE)

# Mon Mar 23 14:01:01 2026

#=======================================================
lattice_vector 9.0722918800002521 0.0000000000000000 0.0000000000000000 
lattice_vector -0.0000000099999929 6.3830326800000003 0.0000000000000000 
lattice_vector 0.0000000000000000 0.0000000000000000 43.0763002424971759 
atom 0.0000111199961506 0.0000035379181675 20.4041049672270489 Ir
atom 0.8679558452648842 1.5957550325191974 15.0000234949934743 O
atom 0.8679583552648676 4.7872750625191953 15.0000234099928669 O
atom 4.5361593799959010 0.0000007579181601 20.4041033772265195 Ir
atom 5.4040726252596532 1.5957572625190903 15.0000007850003421 O
atom 5.4040740152594715 4.7872775125190881 15.0000000000000000 O
atom 2.2681062150028279 1.5957557972584457 18.1360600247218073 Ir
atom 0.0000108299984479 6.3830295665985064 15.8679687372270202 Ir
atom 3.1360319397320420 0.0000006413376666 19.0039866574928311 O
atom 3.6682402047360325 1.5957606206778925 16.7359305344538427 O
atom 1.4001460502684926 6.3830322631791230 17.2681116769588670 O
atom 0.8679823852721565 1.5957646138390496 19.5362002649872935 O
atom 2.2681049450036146 4.7872765872584617 18.1360633497220789 Ir
atom 0.0000088199957486 3.1915160765984525 15.8679573022274880 Ir
atom 3.1360430397336527 3.1915155813376983 19.0039934724902153 O
atom 3.6682388747365202 4.7872739206779009 16.7359325894541726 O
atom 1.4001388202662066 3.1915166031790769 17.2681020019605711 O
atom 0.8679804952725717 4.7872713638390572 19.5362020099877896 O
atom 6.8042173850022252 1.5957652972584315 18.1360569447299582 Ir
atom 4.5361592299990345 6.3830326365985144 15.8679706872264283 Ir
atom 7.6721358897365644 6.3830323613377535 19.0040052675027411 O
atom 8.2043587747306752 1.5957601206777829 16.7359072944602971 O
atom 5.9362617502753317 0.0000008831792564 17.2681401669659991 O
atom 5.4040966052676289 1.5957596538389562 19.5361805349947986 O
atom 6.8042128550020538 4.7872674472584285 18.1360561897310930 Ir
atom 4.5361532899963590 3.1915181565984612 15.8679593722278263 Ir
atom 7.6721562497381290 3.1915171313377853 19.0040119124979299 O
atom 8.2043558647309496 4.7872696906777890 16.7359084294610128 O
atom 5.9362547302710995 3.1915154131791721 17.2681222119676576 O
atom 5.4040932952676970 4.7872722138389578 19.5361808099955994 O
atom 2.2681039449931952 1.5957532185779610 22.6721651347224693 Ir
atom 3.1360670797220944 0.0000003726571758 23.5400904274846781 O
atom 3.6682221647274935 1.5957513219974298 21.2720402744582699 O
atom 1.4001720302565570 0.0000008944985922 21.8042070469528610 O
atom 0.8679601252640470 1.5957550851585953 24.0723118249927168 O
atom 2.2681052049932777 4.7872811185779636 22.6721654697221240 Ir
atom 0.0000143900000189 3.1915166279182445 20.4041213522262979 Ir
atom 3.1360501497217967 3.1915172126571698 23.5400891524886546 O
atom 3.6682239347274388 4.7872808619974272 21.2720400294577843 O
atom 1.4001750402603714 3.1915171644986682 21.8042232019521478 O
atom 0.8679626352640304 4.7872751151585939 24.0723117399921094 O
atom 6.8042095549919592 1.5957437985779337 22.6721593547320381 Ir
atom 7.6721771097283726 6.3830323226572983 23.5401164774931360 O
atom 8.2043341647236350 1.5957579819973498 21.2720233644662429 O
atom 5.9362767002611623 6.3830315044986810 21.8042260069626010 O
atom 5.4040769052588162 1.5957573151584885 24.0722891149995846 O
atom 6.8042115849918998 4.7872879985779333 22.6721590897314229 Ir
atom 4.5361602399998988 3.1915144779182394 20.4041203022263247 Ir
atom 7.6721653797263327 3.1915158626572571 23.5401078324959130 O
atom 8.2043352047233675 4.7872782519973445 21.2720222294659820 O
atom 5.9362879302642559 3.1915166644987436 21.8042391419599468 O
atom 5.4040782952586337 4.7872775651584858 24.0722883299992390 O
atom 2.2681104950019901 1.5957558498978437 27.2083483547210321 Ir
atom 0.0000151099976105 6.3830296192379041 24.9402570672262627 Ir
atom 3.1360362197312046 0.0000006939770647 28.0762749874920772 O
atom 3.6682444847351952 1.5957606733172907 25.8082188644530888 O
atom 1.4001503302676555 6.3830323158185207 26.3404000069580988 O
atom 2.2681092250027768 4.7872766398978595 27.2083516797213250 Ir
atom 0.0000130999949102 3.1915161292378502 24.9402456322267270 Ir
atom 3.1360473197328154 3.1915156339770965 28.0762818024894685 O
atom 3.6682431547356824 4.7872739733172995 25.8082209194534258 O
atom 1.4001431002653693 3.1915166558184747 26.3403903319598029 O
atom 6.8042216650013883 1.5957653498978293 27.2083452747292043 Ir
atom 4.5361635199981896 0.0000000092379127 24.9402590172256780 Ir
atom 7.6721401697357274 6.3830324139771513 28.0762935975019801 O
atom 8.2043630547298374 1.5957601733171807 25.8081956244595503 O
atom 5.9362660302744947 0.0000009358186545 26.3404284969652238 O
atom 6.8042171350012159 4.7872674998978262 27.2083445197303249 Ir
atom 4.5361575699955221 3.1915182092378589 24.9402477022270688 Ir
atom 7.6721605297372930 3.1915171839771830 28.0763002424971759 O
atom 8.2043601447301135 4.7872697433171867 25.8081967594602659 O
atom 5.9362590102702626 3.1915154658185698 26.3404105419668966 O
