#===============================================================================
# Created using the Atomic Simulation Environment (ASE)

# Mon Mar 23 14:01:01 2026

#=======================================================
lattice_vector 11.0927688637512336 0.0000000000000000 0.0000000000000000 
lattice_vector 0.0000035086032155 9.0722918799995735 0.0000000000000000 
lattice_vector 0.0000000000000000 0.0000000000000000 42.0521829853247979 
atom 8.3565362781257093 2.2680921532019660 15.8056721067183616 Ir
atom 3.7468766224816674 0.0000011009369408 18.4158869226059387 Ir
atom 9.9846072251486984 3.1360546582934545 15.0000000000000000 O
atom 7.2114372975290948 3.6682108157900624 15.0000067240224695 O
atom 9.5016531297779565 0.8679478906121088 16.6113500263628566 O
atom 6.5200584854455608 2.2680941234384449 18.4158827598015407 Ir
atom 5.5833633079522240 0.0000036707009663 15.8056926869760979 Ir
atom 8.1481344798934821 3.1360384385276014 17.6102006811667735 O
atom 5.3749580867990581 3.6682132960269525 17.6102183846442770 O
atom 6.7284453347907816 1.4001638781142871 16.6113437165981921 O
atom 8.3565387256946835 6.8041977632001212 15.8056610765756282 Ir
atom 3.7468786760681012 4.5361493609362373 18.4158837340434296 Ir
atom 9.9846307046525418 7.6721646982909864 15.0000143927351814 O
atom 7.2114213895618775 8.2043228157926933 15.0000024405480907 O
atom 9.5016350273697086 5.4040646706142201 16.6113387823329219 O
atom 6.5200510629085997 6.8042005034402768 18.4158847154588621 Ir
atom 5.5833654406640738 4.5361495207003601 15.8056903243915770 Ir
atom 8.1481522885612900 7.6721536685255867 17.6102103259640899 O
atom 5.3749467851096133 8.2043245660275890 17.6102060075179239 O
atom 6.7284604134230959 5.9362767681126813 16.6113524799148635 O
atom 0.0369739072446983 0.0000022557008947 15.8056850643889888 Ir
atom 2.6017842460386911 3.1360223635242050 17.6102244913786095 O
atom 10.9213731035115842 3.6682317010233021 17.6102351653597182 O
atom 1.1820882968707069 1.4001370331113916 16.6113615047085261 O
atom 2.8101824473825561 2.2680952982001288 15.8057022631128490 Ir
atom 9.2932603640822897 0.0000009459363821 18.4158818212193403 Ir
atom 4.4382620400959496 3.1360327632894123 15.0000262619847575 O
atom 1.6650790845137966 3.6682296707885280 15.0000328556708453 O
atom 3.9552968114023566 0.8679704056093387 16.6113697635097246 O
atom 0.0369754898179618 4.5361506557012090 15.8056886972813366 Ir
atom 2.6018017730394836 7.6721263235222814 17.6102344148617220 O
atom 10.9213561385443434 8.2043502710248450 17.6102213836083727 O
atom 1.1821126038360577 5.9362527231091775 16.6113789617225009 O
atom 2.8101836051922100 6.8042032081984587 15.8056906678859690 Ir
atom 9.2932626144661352 4.5361454159364643 18.4158847134854540 Ir
atom 4.4382779837516475 7.6721459732880630 15.0000381404634453 O
atom 1.6650635134459006 8.2043466607893141 15.0000154939275667 O
atom 3.9552807380395278 5.4040832056110215 16.6113582597274672 O
atom 4.6835934485776507 2.2680935636698325 21.0260741185195137 Ir
atom 0.0739337929336151 0.0000025114048076 23.6362889344070837 Ir
atom 6.3116643956006460 3.1360560687613215 20.2204020118011520 O
atom 3.5384944679810415 3.6682122262579289 20.2204087358236180 O
atom 4.8919606672718317 1.4001615683495339 19.2215354837929624 O
atom 5.8287103002298961 0.8679493010799747 21.8317520381640051 O
atom 2.8471156558975088 2.2680955339063114 23.6362847716026927 Ir
atom 1.9104204784041716 0.0000050811688322 21.0260946987772499 Ir
atom 4.4751916503454279 3.1360398489954675 22.8306026929679220 O
atom 1.7020152572510092 3.6682147064948194 22.8306203964454255 O
atom 3.0555025052427243 1.4001652885821527 21.8317457283993406 O
atom 7.6651795221763317 0.8679511108468696 19.2215540012410315 O
atom 4.6835958961466249 6.8041991736679881 21.0260630883767803 Ir
atom 0.0739358465200488 4.5361507714041025 23.6362857458445816 Ir
atom 6.3116878751044858 7.6721661087588506 20.2204164045363370 O
atom 3.5384785600138273 8.2043242262605620 20.2204044523492428 O
atom 4.8919791192417446 5.9362662483473363 19.2215447008537339 O
atom 5.8286921978216535 5.4040660810820862 21.8317407941340704 O
atom 2.8471082333605424 6.8042019139081429 23.6362867272600106 Ir
atom 1.9104226111160187 4.5361509311682253 21.0260923361927254 Ir
atom 4.4752094590132394 7.6721550789934518 22.8306123377652384 O
atom 1.7020039555615580 8.2043259764954559 22.8306080193190759 O
atom 3.0555175838750364 5.9362781785805474 21.8317544917160156 O
atom 7.6651607206755870 5.4040667708490835 19.2215425343435911 O
atom 0.9737108738690402 2.2680972684333396 18.4158977162727844 Ir
atom 7.4567999414478789 0.0000036661687607 21.0260870761901444 Ir
atom 10.0216102802418678 3.1360237739920711 22.8306265031797579 O
atom 7.2484302739635247 3.6682331114911690 22.8306371771608703 O
atom 8.6019143310738837 1.4001384435792574 21.8317635165096746 O
atom 2.1188184511647279 0.8679729958455461 19.2215776085368404 O
atom 10.2300084815857364 2.2680967086679948 21.0261042749139975 Ir
atom 5.6203175345342267 0.0000023564042508 23.6362838330204887 Ir
atom 0.7653192105479003 3.1360341737572788 20.2204282737859060 O
atom 9.0849051187169785 3.6682310812563936 20.2204348674719938 O
atom 10.4383774418015349 1.4001305033462537 19.2215574995361322 O
atom 0.2823539818543020 0.8679718160772046 21.8317717753108766 O
atom 0.9737046426501541 6.8042084384354871 18.4159037136077508 Ir
atom 7.4568015240211425 4.5361520661690742 21.0260907090824887 Ir
atom 10.0216278072426626 7.6721277339901475 22.8306364266628705 O
atom 7.2484133089962866 8.2043516814927138 22.8306233954095248 O
atom 8.6019386380392380 5.9362541335770445 21.8317809735236565 O
atom 2.1188069232573539 5.4040872158458155 19.2215621988822356 O
atom 10.2300096393953837 6.8042046186663256 21.0260926796871175 Ir
atom 5.6203197849180739 4.5361468264043312 23.6362867252866060 Ir
atom 0.7653351542035879 7.6721473837559282 20.2204401522645938 O
atom 9.0848895476490767 8.2043480712571810 20.2204175057287152 O
atom 10.4383964097216015 5.9362464133441506 19.2215681555872848 O
atom 0.2823379084914752 5.4040846160788867 21.8317602715286156 O
atom 1.0106506190295990 2.2680949741376986 26.2464761303206586 Ir
atom 2.6387215660525838 3.1360574792291867 25.4408040236023041 O
atom 10.9583205021842236 3.6682136367257945 25.4408107476247736 O
atom 1.2190178377237788 1.4001629788174002 24.4419374955941109 O
atom 2.1557674706818388 0.8679507115478408 27.0521540499651572 O
atom 9.3302465126073475 0.0000064916366982 26.2464967105783984 Ir
atom 10.4753285394459095 1.4001666990500188 27.0521477402004855 O
atom 3.9922366926282771 0.8679525213147355 24.4419560130421836 O
atom 1.0106530665985729 6.8042005841358533 26.2464651001779252 Ir
atom 2.6387450455564330 7.6721675192267176 25.4408184163374855 O
atom 10.9583045942170028 8.2043256367284272 25.4408064641503913 O
atom 1.2190362896936944 5.9362676588152032 24.4419467126548859 O
atom 2.1557493682735909 5.4040674915499531 27.0521428059352260 O
atom 9.3302486453192000 4.5361523416360932 26.2464943479938810 Ir
atom 10.4753436180782220 5.9362795890484126 27.0521565035171641 O
atom 3.9922178911275399 5.4040681813169495 24.4419445461447395 O
atom 8.3935369080722158 2.2680986789012056 23.6362997280739364 Ir
atom 3.7838571118998199 0.0000050766366266 26.2464890879912893 Ir
atom 4.9289715015258286 1.4001398540471237 27.0521655283108231 O
atom 9.5386444853679144 0.8679744063134122 24.4419796203379853 O
atom 6.5570656520376822 2.2680981191358613 26.2465062867151495 Ir
atom 8.1851452447510766 3.1360355842251444 25.4408302855870581 O
atom 5.4119622891689234 3.6682324917242597 25.4408368792731387 O
atom 6.7654346122534772 1.4001319138141197 24.4419595113372843 O
atom 7.7021800160574836 0.8679732265450707 27.0521737871120251 O
atom 8.3935306768533362 6.8042098489033522 23.6363057254089028 Ir
atom 3.7838586944730861 4.5361534766369411 26.2464927208836407 Ir
atom 4.9289958084911820 5.9362555440449087 27.0521829853247944 O
atom 9.5386329574605302 5.4040886263136816 24.4419642106833805 O
atom 6.5570668098473313 6.8042060291341899 26.2464946914882660 Ir
atom 8.1851611884067736 7.6721487942237951 25.4408421640657494 O
atom 5.4119467181010270 8.2043494817250480 25.4408195175298673 O
atom 6.7654535801735474 5.9362478238120175 24.4419701673884333 O
atom 7.7021639426946571 5.4040860265467527 27.0521622833297712 O
