#===============================================================================
# Created using the Atomic Simulation Environment (ASE)

# Mon Mar 23 14:01:00 2026

#=======================================================
lattice_vector 11.0927688637512336 0.0000000000000000 0.0000000000000000 
lattice_vector 3.6729463381512715 10.4670459790894856 0.0000000000000000 
lattice_vector 0.0000000000000000 0.0000000000000000 43.3089351460359779 
atom 11.0927657901809962 7.8633889944806779 15.8657799821146348 Ir
atom 14.0743345024901085 9.9769867035573814 15.0000221007601411 O
atom 12.2378647783378529 4.7434253495426928 15.0000000000000000 O
atom 8.5279774645700339 9.9769545639497430 15.0000241297181454 O
atom 5.5463806680303751 7.8633914044327131 15.8657754831923654 Ir
atom 6.6915132050664816 4.7433964596296114 15.0000104367044269 O
atom 12.0294826162769812 8.5274318542167453 19.2593574009531210 Ir
atom 7.4198229606329393 5.2597332521549918 20.3905533400049492 Ir
atom 13.6575535632999756 9.6815626637833070 18.9939359847148594 O
atom 10.8843836356803649 10.1428045598735199 19.2593528065213739 O
atom 12.2378498349711577 8.6751608269223688 17.2623992683562477 O
atom 13.1745994679292231 6.9120307070527600 19.2593600938491853 O
atom 13.8659476531448895 9.8292560103198667 16.9969797145990746 Ir
atom 9.2563096461034924 6.5615605852670607 18.1281741625715611 Ir
atom 0.7283084456903068 0.5163300481079097 16.7315405830238113 O
atom 9.0479009163471140 0.9775826764226465 16.9969762478102417 O
atom 10.4013916729420526 7.3733309612316935 19.5247954586504555 O
atom 3.9182998261244251 8.2138592773203385 16.9969772426069596 O
atom 12.0294815552427341 4.5957072811338033 16.9969410472094538 Ir
atom 7.4198215056161532 1.3280417349121001 18.1281650544713457 Ir
atom 2.5648046704493610 5.7498292508230877 16.7315438756445367 O
atom 10.8843642191099281 6.2110821604368658 16.9969454874305939 O
atom 8.5649219487898005 2.1397696072170063 19.5247733578903144 O
atom 2.0818089931665242 2.9803159222231379 16.9969491257190377 O
atom 10.1929938924566557 3.2938698856886695 19.2593483581976734 Ir
atom 9.2563082702121289 2.6298665672081456 15.8657853909737803 Ir
atom 11.8210951181093513 4.4479937383508101 18.9939203050727592 O
atom 9.0478896146576737 4.9092539177022498 19.2593349073677587 O
atom 10.4014032429711509 3.4416028261563221 17.2623998917210848 O
atom 11.3381035502236589 1.6784878905618135 19.2593388806011987 O
atom 8.3196000415683660 9.8292512767507692 16.9969942466446504 Ir
atom 3.7099202453959692 6.5615631605569247 18.1281668499836783 Ir
atom 6.2747270755867479 0.5163042398733428 16.7315532031248466 O
atom 3.5015470693084034 0.9775902595929559 16.9969999718872451 O
atom 4.8550346350219815 7.3732988216240551 19.5247974876084598 O
atom 9.4647076188640575 8.2138664720427581 16.9970086192471861 O
atom 6.4831287855338298 8.5274195397427448 19.2593851075023750 Ir
atom 1.8734378384823156 5.2597356621070270 20.3905488410826763 Ir
atom 8.1112083782472197 9.6815305882621701 18.9939478271803530 O
atom 5.3380254226650736 10.1428078693376431 19.2593848599371213 O
atom 6.6914977457496319 8.6751229211212522 17.2624028568960739 O
atom 7.6282431495536267 6.9120403780481636 19.2593884302553562 O
atom 4.6466474721982074 3.2938672880700754 19.2593687823546453 Ir
atom 3.7099183193660159 2.6298683624832413 15.8657845467569807 Ir
atom 6.2747446025875355 4.4479580228735625 18.9939275458517045 O
atom 3.5015301043411644 4.9092685286849882 19.2593610548384788 O
atom 4.8550554333841092 3.4415687774917121 17.2624108524130158 O
atom 5.7917497528054076 1.6784958036016595 19.2593661216689469 O
atom 6.4831264347402602 4.5956972420139097 16.9969694110901166 Ir
atom 1.8734365802629558 1.3280378270984674 18.1281639358460680 Ir
atom 8.1112208132997008 5.7498011768703643 16.7315551199102153 O
atom 5.3380063429939550 6.2110963177117480 16.9969686940276681 O
atom 3.0185703755184279 2.1397407173039249 19.5247837945947396 O
atom 7.6282235675875842 2.9803222731119496 16.9969752519743338 O
atom 8.3565397867289271 5.9237761118910610 23.7841307588434319 Ir
atom 3.7468801310848883 2.6560775098293061 24.9153266978952566 Ir
atom 9.9846107337519214 7.0779069214576218 23.5187093426051668 O
atom 7.2114408061323090 7.5391488175478347 23.7841261644116884 O
atom 8.5649070054231036 6.0715050845966818 21.7871726262465586 O
atom 9.5016566383811689 4.3083749647270730 23.7841334517394962 O
atom 10.1930048235968336 7.2256002679941815 21.5217530724893855 Ir
atom 5.5833668165554444 3.9579048429413741 22.6529475204618720 Ir
atom 11.8210808180447557 8.3797202848717109 21.2563139409141257 O
atom 9.0479044249503318 8.8409729131864481 21.5217496057005562 O
atom 6.7284488433940002 4.7696752189060074 24.0495688165407628 O
atom 11.3381258603276045 5.6102035349946515 21.5217506004972741 O
atom 8.3565387256946799 1.9920515388081168 21.5217144050997646 Ir
atom 7.4198250142193691 9.1914319716758985 22.6529384123616566 Ir
atom 9.9846307046525418 3.1461735084974007 21.2563172335348476 O
atom 7.2114213895618766 3.6074264181111810 21.5217188453209047 O
atom 8.5649254573930129 10.0031598439808072 24.0495467157806218 O
atom 9.5016350273696979 0.3766601798974518 21.5217224836093521 O
atom 6.5200510629085935 0.6902141433629837 23.7841217160879879 Ir
atom 5.5833654406640756 0.0262108248824591 20.3905587488640876 Ir
atom 8.1481522885612954 1.8443379960251245 23.5186936629630736 O
atom 5.3749467851096195 2.3055981753765646 23.7841082652580695 O
atom 6.7284604134230985 0.8379470838306360 21.7871732496113992 O
atom 11.3381070588268695 9.5418781273256119 23.7841122384915131 O
atom 4.6466572120203109 7.2255955344250848 21.5217676045349613 Ir
atom 11.1297462795991482 3.9579074182312368 22.6529402078739892 Ir
atom 6.2747305841899603 8.3796944766371411 21.2563265610151610 O
atom 3.5015505779116260 8.8409804963567566 21.5217733297775560 O
atom 12.2748606692251592 4.7696430792983691 24.0495708454987707 O
atom 5.7917647893159980 5.6102107297170711 21.5217819771375005 O
atom 2.8101859559857787 5.9237637974170596 23.7841584653926859 Ir
atom 9.2932638726854986 2.6560799197813427 24.9153221989729872 Ir
atom 4.4382655486991665 7.0778748459364840 23.5187211850706674 O
atom 12.7578514568682468 7.5391521270119588 23.7841582178274322 O
atom 3.0185549162015781 6.0714671787955670 21.7871762147863848 O
atom 3.9553003200055725 4.3083846357224784 23.7841617881456671 O
atom 0.9737046426501552 0.6902115457443889 23.7841421402449562 Ir
atom 0.0369754898179592 0.0262126201575545 20.3905579046472916 Ir
atom 2.6018017730394809 1.8443022805478766 23.5187009037420118 O
atom 10.9213561385443523 2.3056127863593034 23.7841344127287897 O
atom 1.1821126038360550 0.8379130351660253 21.7871842103033266 O
atom 5.7917532614086218 9.5418860403654584 23.7841394795592578 O
atom 2.8101836051922140 1.9920414996882236 21.5217427689804275 Ir
atom 12.9662089526174071 9.1914280638622667 22.6529372937363789 Ir
atom 4.4382779837516493 3.1461454345446782 21.2563284778005261 O
atom 1.6650635134459009 3.6074405753860623 21.5217420519179790 O
atom 14.1113427478728823 10.0031309540677249 24.0495571524850504 O
atom 3.9552807380395256 0.3766665307862632 21.5217486098646447 O
atom 4.6835969571808747 3.3201203695653718 28.3089041167337427 Ir
atom 6.3116679042038593 4.4742511791319339 28.0434827004954812 O
atom 3.5384979765842575 4.9354930752221486 28.3088995223019992 O
atom 4.8919641758750467 3.4678493422709953 26.3119459841368730 O
atom 5.8287138088331121 1.7047192224013861 28.3089068096298107 O
atom 6.5200619940487821 4.6219445256684963 26.0465264303796999 Ir
atom 1.9104239870073827 1.3542491006156878 27.1777208783521829 Ir
atom 8.1481379884966980 5.7760645425460231 25.7810872988044366 O
atom 5.3749615954022696 6.2373171708607611 26.0465229635908671 O
atom 7.6651830307795485 3.0065477926689645 26.0465239583875849 O
atom 8.3565422342978977 9.8554417755719168 26.0464877629900755 Ir
atom 3.7468821846713167 6.5877762293502125 27.1777117702519675 Ir
atom 6.3116878751044894 0.5425177661717160 25.7810905914251620 O
atom 3.5384785600138247 1.0037706757854941 26.0464922032112156 O
atom 9.5016385359729210 8.2400504166612514 26.0464958414996630 O
atom 6.5200545715118183 8.5536043801267834 28.3088950739782987 Ir
atom 5.5833689492672915 7.8896010616462604 24.9153321067544020 Ir
atom 8.1481557971645096 9.7077282327889254 28.0434670208533774 O
atom 5.3749502937128346 10.1689884121403633 28.3088816231483875 O
atom 6.7284639220263136 8.7013373205944351 26.3119466075017066 O
atom 7.6651642292788136 6.9382223849999276 28.3088855963818204 O
atom 12.0664832462234877 4.6219397920993979 26.0465409624252722 Ir
atom 7.4568034500510914 1.3542516759055514 27.1777135657643001 Ir
atom 2.6017877546419044 5.7760387343114568 25.7810999189054719 O
atom 10.9213766121148002 6.2373247540310706 26.0465466876678704 O
atom 2.1188219597679465 3.0065549873913864 26.0465553350278043 O
atom 10.2300119901889506 3.3201080550913744 28.3089318232829967 Ir
atom 11.8580915829023432 4.4742191036107970 28.0434945429609783 O
atom 9.0849086273201998 4.9354963846862709 28.3089315757177431 O
atom 10.4383809504047491 3.4678114364698813 26.3119495726766957 O
atom 11.3751263542087493 1.7047288933967921 28.3089351460359779 O
atom 12.0664770150046081 8.5536017825081885 28.3089154981352635 Ir
atom 11.1297478621724117 7.8896028569213543 24.9153312625376024 Ir
atom 13.6945741453939345 9.7076925173116759 28.0434742616323263 O
atom 10.9213596471475611 10.1690030231231017 28.3089077706191006 O
atom 12.2748849761905081 8.7013032719298256 26.3119575681936411 O
atom 13.2115792956117986 6.9382302980397714 28.3089128374495687 O
atom 13.9029559775466609 9.8554317364520223 26.0465161268707384 Ir
atom 9.2932661230693476 6.5877723215365815 27.1777106516266933 Ir
atom 0.7653351542035933 0.5424896922189923 25.7811018356908406 O
atom 9.0848895476490785 1.0037848330603767 26.0465154098082863 O
atom 3.9552842466427456 8.2400567675500636 26.0465219677549555 O
