#===============================================================================
# Created using the Atomic Simulation Environment (ASE)

# Mon Mar 23 14:01:01 2026

#=======================================================
lattice_vector 11.0927688637512336 0.0000000000000000 0.0000000000000000 
lattice_vector 0.0000035086032155 9.0722918799995735 0.0000000000000000 
lattice_vector 0.0000000000000000 0.0000000000000000 34.2215802923568759 
atom 0.0739337929336151 0.0000025114048076 15.8056862414391617 Ir
atom 2.8471156558975088 2.2680955339063114 15.8056820786347707 Ir
atom 4.4751916503454279 3.1360398489954675 15.0000000000000000 O
atom 1.7020152572510092 3.6682147064948194 15.0000177034775035 O
atom 0.0739358465200488 4.5361507714041025 15.8056830528766596 Ir
atom 2.8471082333605424 6.8042019139081429 15.8056840342920886 Ir
atom 4.4752094590132394 7.6721550789934518 15.0000096447973164 O
atom 1.7020039555615580 8.2043259764954559 15.0000053263511539 O
atom 10.0216102802418678 3.1360237739920711 15.0000238102118360 O
atom 7.2484302739635247 3.6682331114911690 15.0000344841929483 O
atom 5.6203175345342267 0.0000023564042508 15.8056811400525667 Ir
atom 10.0216278072426626 7.6721277339901475 15.0000337336949485 O
atom 7.2484133089962866 8.2043516814927138 15.0000207024416028 O
atom 5.6203197849180739 4.5361468264043312 15.8056840323186840 Ir
atom 1.0106506190295990 2.2680949741376986 18.4158734373527366 Ir
atom 2.6387215660525838 3.1360574792291867 17.6102013306343821 O
atom 10.9583205021842236 3.6682136367257945 17.6102080546568516 O
atom 1.2190178377237788 1.4001629788174002 16.6113348026261889 O
atom 2.1557674706818388 0.8679507115478408 19.2215513569972352 O
atom 9.3302465126073475 0.0000064916366982 18.4158940176104764 Ir
atom 10.4753285394459095 1.4001666990500188 19.2215450472325635 O
atom 3.9922366926282771 0.8679525213147355 16.6113533200742616 O
atom 1.0106530665985729 6.8042005841358533 18.4158624072100032 Ir
atom 2.6387450455564330 7.6721675192267176 17.6102157233695635 O
atom 10.9583045942170028 8.2043256367284272 17.6102037711824693 O
atom 1.2190362896936944 5.9362676588152032 16.6113440196869639 O
atom 2.1557493682735909 5.4040674915499531 19.2215401129673040 O
atom 9.3302486453192000 4.5361523416360932 18.4158916550259590 Ir
atom 10.4753436180782220 5.9362795890484126 19.2215538105492421 O
atom 3.9922178911275399 5.4040681813169495 16.6113418531768176 O
atom 8.3935369080722158 2.2680986789012056 15.8056970351060144 Ir
atom 3.7838571118998199 0.0000050766366266 18.4158863950233673 Ir
atom 4.9289715015258286 1.4001398540471237 19.2215628353429011 O
atom 9.5386444853679144 0.8679744063134122 16.6113769273700633 O
atom 6.5570656520376822 2.2680981191358613 18.4159035937472275 Ir
atom 8.1851452447510766 3.1360355842251444 17.6102275926191361 O
atom 5.4119622891689234 3.6682324917242597 17.6102341863052168 O
atom 6.7654346122534772 1.4001319138141197 16.6113568183693623 O
atom 7.7021800160574836 0.8679732265450707 19.2215710941441031 O
atom 8.3935306768533362 6.8042098489033522 15.8057030324409808 Ir
atom 3.7838586944730861 4.5361534766369411 18.4158900279157187 Ir
atom 4.9289958084911820 5.9362555440449087 19.2215802923568724 O
atom 9.5386329574605302 5.4040886263136816 16.6113615177154585 O
atom 6.5570668098473313 6.8042060291341899 18.4158919985203440 Ir
atom 8.1851611884067736 7.6721487942237951 17.6102394710978274 O
atom 5.4119467181010270 8.2043494817250480 17.6102168245619453 O
atom 6.7654535801735474 5.9362478238120175 16.6113674744205113 O
atom 7.7021639426946571 5.4040860265467527 19.2215595903618492 O
