#===============================================================================
# Created using the Atomic Simulation Environment (ASE)

# Mon Mar 23 14:01:01 2026

#=======================================================
lattice_vector 9.0722918800002521 0.0000000000000000 0.0000000000000000 
lattice_vector -0.0000000099999929 6.3830326800000003 0.0000000000000000 
lattice_vector 0.0000000000000000 0.0000000000000000 31.7359099105373730 
atom 2.2681104950019901 1.5957558498978437 15.8679580227612291 Ir
atom 3.1360362197312046 0.0000006939770647 16.7358846555322742 O
atom 1.4001503302676555 6.3830323158185207 15.0000096749982958 O
atom 2.2681092250027768 4.7872766398978595 15.8679613477615220 Ir
atom 3.1360473197328154 3.1915156339770965 16.7358914705296655 O
atom 1.4001431002653693 3.1915166558184747 15.0000000000000000 O
atom 6.8042216650013883 1.5957653498978293 15.8679549427694013 Ir
atom 7.6721401697357274 6.3830324139771513 16.7359032655421771 O
atom 5.9362660302744947 0.0000009358186545 15.0000381650054209 O
atom 6.8042171350012159 4.7872674998978262 15.8679541877705219 Ir
atom 7.6721605297372930 3.1915171839771830 16.7359099105373730 O
atom 5.9362590102702626 3.1915154658185698 15.0000202100070936 O
