#===============================================================================
# Created using the Atomic Simulation Environment (ASE)

# Mon Mar 23 14:01:02 2026

#=======================================================
lattice_vector 12.8301526818574523 0.0000000000000000 0.0000000000000000 
lattice_vector -0.0000000332592932 6.3830326800000003 0.0000000000000000 
lattice_vector 0.0000000000000000 0.0000000000000000 38.8700064818696092 
atom 12.8301218783211510 4.7872795844671190 16.2274608419599176 Ir
atom 6.4150659839096758 6.3830292423605748 19.4349956660454275 Ir
atom 12.8300951628463338 6.3830324317475613 17.4549193186554454 O
atom 10.8500510074833088 4.7872814729238344 16.2274562260590081 O
atom 12.8301033152614892 6.3830319071866448 15.0000012480268019 O
atom 1.9800736053766970 4.7872777260104353 16.2274627920748280 O
atom 12.8301212373412810 1.5957516844671147 16.2274619733306160 Ir
atom 12.8301062456996213 3.1915155917475984 17.4549064493141870 O
atom 10.8500495957570582 1.5957519329238308 16.2274573079320774 O
atom 12.8301126232715887 3.1915156371866211 15.0000148032656178 O
atom 1.9800717835283757 1.5957576960104307 16.2274645103439354 O
atom 9.6226068832876184 4.7872889948606385 19.4349679209436665 Ir
atom 9.6226026447012547 6.3830320319671436 16.2274564985602083 Ir
atom 7.6425236239396428 4.7872748033173513 19.4349599533541593 O
atom 9.6226065049150318 0.0000012875801390 18.2075251632265491 O
atom 11.6026914225008646 4.7872754864039493 19.4349657981196060 O
atom 9.6226052735714429 1.5957447948606329 19.4349691725222939 Ir
atom 9.6226140174633432 3.1915183119671249 16.2274690779920761 Ir
atom 7.6425220990765208 1.5957545333173502 19.4349598897142357 O
atom 9.6226078388559682 3.1915161275801016 18.2075423883479992 O
atom 11.6026898976376458 1.5957552364039451 19.4349662294544281 O
atom 3.2075333974917766 0.0000031969671345 16.2274629084845721 Ir
atom 3.2075389356393913 0.0000005025800718 18.2075585846302772 O
atom 3.2075267199181137 3.1915166869671507 16.2274533978970581 Ir
atom 3.2075371936715360 3.1915161625800970 18.2075466274542634 O
atom 6.4150924433199892 4.7872674794671459 16.2274648123736469 Ir
atom 6.4151135968811905 0.0000004167476601 17.4549080226431528 O
atom 4.4349876596411466 4.7872726479238379 16.2274590509531222 O
atom 6.4151198634118591 6.3830318921866800 15.0000176564578354 O
atom 8.3951642263261057 4.7872731310104388 16.2274667200557836 O
atom 6.4150951257429147 1.5957653294671568 16.2274610788503963 Ir
atom 12.8301424793542971 3.1915145973605790 19.4349935058342353 Ir
atom 6.4151038858138358 3.1915156467476109 17.4549271145243452 O
atom 4.4349905329824271 1.5957630779238425 16.2274577993746973 O
atom 6.4151121442967760 3.1915173621867137 15.0000000000000000 O
atom 8.3951667743984402 1.5957605710104450 16.2274645775227384 O
atom 6.4150430271627661 4.7872795652539741 22.6425402093051780 Ir
atom 6.4150163116879453 6.3830324125344164 23.8699986860007023 O
atom 4.4349721563249158 4.7872814537106896 22.6425355934042649 O
atom 6.4150244641031007 6.3830318879735000 21.4150806153720588 O
atom 8.3951474360757459 4.7872777067972905 22.6425421594200849 O
atom 6.4150423861828969 1.5957516652539694 22.6425413406758729 Ir
atom 6.4150752707065068 3.1915161523605509 19.4350095677665600 Ir
atom 6.4150273945412337 3.1915155725344535 23.8699858166594474 O
atom 4.4349707445986679 1.5957519137106857 22.6425366752773378 O
atom 6.4150337721131976 3.1915156179734763 21.4150941706108746 O
atom 8.3951456142274434 1.5957576767972856 22.6425438776891887 O
atom 3.2075237935428591 6.3830320127539988 22.6425358659054687 Ir
atom 9.6225995757928899 0.0000004721410383 20.6624520373348481 O
atom 3.2075351663049525 3.1915182927539800 22.6425484453373365 Ir
atom 9.6226017441260154 3.1915169321410719 20.6624376264990808 O
atom 3.2075306095216587 4.7872769698604989 19.4350312600335862 Ir
atom 9.6226072281908337 0.0000031777539892 22.6425422758298289 Ir
atom 3.2075312944395953 6.3830321271410186 20.6624642313928710 O
atom 1.2274453137039403 4.7872721383171850 19.4350345212993751 O
atom 5.1876163225294922 4.7872681614037775 19.4350427843706335 O
atom 3.2075338717711457 1.5957561798604964 19.4350327166741756 Ir
atom 9.6226005506171681 3.1915166677540054 22.6425327652423185 Ir
atom 3.2075282775786720 3.1915171871409882 20.6624769027458015 O
atom 1.2274477203544101 1.5957588383171843 19.4350350374878005 O
atom 5.1876189059567634 1.5957614114037808 19.4350426853762102 O
atom 0.0000135921615985 4.7872674602540011 22.6425441797189073 Ir
atom 12.8301462931449617 0.0000001173605548 19.4350057104980252 Ir
atom 0.0000347457228022 0.0000003975345149 23.8699873899884061 O
atom 10.8500614903402006 4.7872726287106930 22.6425384182983827 O
atom 0.0000410122534674 6.3830318729735351 21.4150970238030887 O
atom 1.9800853751677137 4.7872731117972931 22.6425460874010405 O
atom 0.0000162745845301 1.5957653102540117 22.6425404461956568 Ir
atom 0.0000250346554474 3.1915156275344656 23.8700064818696056 O
atom 10.8500643636814864 1.5957630587106975 22.6425371667199578 O
atom 0.0000332931383856 3.1915173429735688 21.4150793673452569 O
atom 1.9800879232400450 1.5957605517972997 22.6425439448679917 O
