#===============================================================================
# Created using the Atomic Simulation Environment (ASE)

# Mon Mar 23 14:01:00 2026

#=======================================================
lattice_vector 9.0722883300002515 0.0000000000000000 0.0000000000000000 
lattice_vector 0.0000042800008374 9.0722918799992431 0.0000000000000000 
lattice_vector 0.0000000000000000 0.0000000000000000 45.9575871000000191 
atom 2.2680559673171570 2.2680912850038615 16.5957666275000335 Ir
atom 0.0000107705539841 0.0000015399974569 15.0000021500000003 Ir
atom 3.1359800502917343 3.1360358202752141 15.0000027165433565 O
atom 0.8679311875816982 3.6682106752697523 16.5957663790433294 O
atom 1.4001132808281809 1.4001615297368981 15.0000026784567275 O
atom 3.6682015770469865 0.8679480547330578 16.5957606159567064 O
atom 3.1360095338055487 7.6721627802683869 18.1915178265433255 O
atom 1.4001182443360254 5.9362631897358522 18.1915170184567252 O
atom 2.2680517273082521 6.8041976650049882 16.5957735075000379 Ir
atom 0.0000118605543792 4.5361473899973266 15.0000000000000000 Ir
atom 3.1360008702849074 7.6721510502704318 15.0000013665433372 O
atom 0.8679155275739361 8.2043219452735716 16.5957637690433515 O
atom 1.4001313608208030 5.9362744197327588 15.0000021784567110 O
atom 3.6681803070402657 5.4040637147382009 16.5957630659567350 O
atom 4.5361465040716453 0.0000001199994449 18.1915151150000085 Ir
atom 5.9362901043398439 1.4001346797291931 18.1915178034566907 O
atom 6.8042421773177226 2.2680931649939442 16.5957621224999841 Ir
atom 4.5361393305541382 9.0722899900013907 15.0000016250000243 Ir
atom 7.6721727002906865 3.1360308502637779 15.0000011115432983 O
atom 5.4041120775858467 3.6682277552610887 16.5957594640432902 O
atom 5.9362804108202667 1.4001274497314806 15.0000021434567010 O
atom 8.2043801770518279 0.8679680547249352 16.5957568909566717 O
atom 4.5361505940726472 4.5361485199986067 18.1915181850000067 Ir
atom 7.6721866537964578 7.6721237002606131 18.1915178915432882 O
atom 6.8042371573091591 6.8042010749952553 16.5957529824999916 Ir
atom 4.5361392605533757 4.5361425800012789 15.0000037050000188 Ir
atom 7.6721932802833859 7.6721440602590505 15.0000026615432809 O
atom 5.4040900575794319 8.2043447452664076 16.5957552340433168 O
atom 5.9363027608136010 5.9362433597263342 15.0000009534566772 O
atom 8.2043611170444297 5.4040808547295578 16.5957577409566923 O
atom 2.2680556508347189 2.2680900150039354 19.7872714075000324 Ir
atom 9.0722870140721756 9.0722901400005593 18.1915217400000202 Ir
atom 3.1359813438135991 3.1360527402749088 18.1915185565433575 O
atom 0.8679314510991373 3.6682088952696890 19.7872695190433276 O
atom 1.4000971443453418 1.4001585097407030 18.1915190884567437 O
atom 3.6682016805642621 0.8679455347330326 19.7872732659567099 O
atom 2.2680560043529021 2.2680912750038504 22.9787993075000330 Ir
atom 0.0000108075897289 0.0000015299974465 21.3830348299999997 Ir
atom 3.1359800873274790 3.1360358102752035 21.3830353965433559 O
atom 0.8679312246174431 3.6682106652697417 22.9787990590433324 O
atom 1.4001133178639256 1.4001615197368875 21.3830353584567270 O
atom 3.6682016140827316 0.8679480447330474 22.9787932959567094 O
atom 2.2680520108256137 6.8041956250049207 19.7872619875000382 Ir
atom 9.0722832840723022 4.5361465200013145 18.1915189600000211 Ir
atom 3.1360095708412929 7.6721627702683755 24.5745505065433250 O
atom 0.8679166810915575 8.2043208952733000 19.7872761790433458 O
atom 1.4001182813717703 5.9362631797358416 24.5745496984567247 O
atom 3.6681811105578044 5.4040623147380131 19.7872754959567345 O
atom 2.2680517643439972 6.8041976550049785 22.9788061875000409 Ir
atom 0.0000118975901240 4.5361473799973160 21.3830326799999995 Ir
atom 3.1360009073206530 7.6721510402704212 21.3830340465433366 O
atom 0.8679155646096808 8.2043219352735619 22.9787964490433474 O
atom 1.4001313978565477 5.9362744097327500 21.3830348584567105 O
atom 3.6681803440760103 5.4040637047381912 22.9787957459567380 O
atom 6.8042388708358885 2.2680944249947235 19.7872740124999886 Ir
atom 4.5361465411073887 0.0000001099994345 24.5745477950000080 Ir
atom 7.6721659038059409 3.1360197402653802 18.1915188515433108 O
atom 5.4041100411040341 3.6682290752615687 19.7872788440432927 O
atom 5.9362901413755900 1.4001346697291825 24.5745504834566937 O
atom 8.2043784505701538 0.8679699347253418 19.7872828209566762 O
atom 6.8042422143534669 2.2680931549939336 22.9787948024999835 Ir
atom 4.5361393675898825 9.0722899800013810 21.3830343050000238 Ir
atom 7.6721727373264317 3.1360308402637673 21.3830337915433013 O
atom 5.4041121146215918 3.6682277452610781 22.9787921440432896 O
atom 5.9362804478560118 1.4001274397314700 21.3830348234567040 O
atom 8.2043802140875712 0.8679680447249248 22.9787895709566712 O
atom 6.8042379308281165 6.8042055949950724 19.7872835124999895 Ir
atom 4.5361506311083915 4.5361485099985961 24.5745508650000097 Ir
atom 7.6721866908322021 7.6721236902606016 24.5745505715432877 O
atom 5.4040889410979958 8.2043476452666724 19.7872783440433153 O
atom 5.9363207343331306 5.9362503697220950 18.1915191034566561 O
atom 8.2043608605630851 5.4040841547296186 19.7872778609566922 O
atom 6.8042371943449043 6.8042010649952447 22.9787856624999911 Ir
atom 4.5361392975891199 4.5361425700012692 21.3830363850000182 Ir
atom 7.6721933173191301 7.6721440502590408 21.3830353415432839 O
atom 5.4040900946151753 8.2043447352663978 22.9787879140433162 O
atom 5.9363027978493452 5.9362433497263245 21.3830336334566766 O
atom 8.2043611540801749 5.4040808447295481 22.9787904209566918 O
atom 2.2680556878704632 2.2680900050039252 26.1703040875000319 Ir
atom 9.0722870511079226 9.0722901300005478 24.5745544200000197 Ir
atom 3.1359813808493437 3.1360527302748986 24.5745512365433534 O
atom 0.8679314881348821 3.6682088852696793 26.1703021990433307 O
atom 1.4000971813810863 1.4001584997406926 24.5745517684567467 O
atom 3.6682017176000068 0.8679455247330222 26.1703059459567093 O
atom 2.2680560413886468 2.2680912650038407 29.3618319875000324 Ir
atom 0.0000108446254737 0.0000015199974361 27.7660675099999992 Ir
atom 3.1359801243632237 3.1360358002751934 27.7660680765433590 O
atom 0.8679312616531877 3.6682106552697316 29.3618317390433283 O
atom 1.4001133548996703 1.4001615097368771 27.7660680384567300 O
atom 3.6682016511184763 0.8679480347330369 29.3618259759567088 O
atom 2.2680520478613584 6.8041956150049101 26.1702946675000412 Ir
atom 9.0722833211080491 4.5361465100013039 24.5745516400000206 Ir
atom 3.1360096078770376 7.6721627602683649 30.9575831865433244 O
atom 0.8679167181273022 8.2043208852732885 26.1703088590433488 O
atom 1.4001183184075148 5.9362631697358310 30.9575823784567277 O
atom 3.6681811475935491 5.4040623047380025 26.1703081759567340 O
atom 2.2680518013797415 6.8041976450049679 29.3618388675000368 Ir
atom 0.0000119346258688 4.5361473699973054 27.7660653600000025 Ir
atom 3.1360009443563972 7.6721510302704106 27.7660667265433361 O
atom 0.8679156016454257 8.2043219252735504 29.3618291290433504 O
atom 1.4001314348922924 5.9362743997327385 27.7660675384567099 O
atom 3.6681803811117550 5.4040636947381806 29.3618284259567375 O
atom 6.8042389078716345 2.2680944149947129 26.1703066924999881 Ir
atom 4.5361465781431347 0.0000000999994241 30.9575804750000074 Ir
atom 7.6721659408416869 3.1360197302653705 24.5745515315433103 O
atom 5.4041100781397793 3.6682290652615586 26.1703115240432922 O
atom 5.9362901784113351 1.4001346597291726 30.9575831634566967 O
atom 8.2043784876058989 0.8679699247253312 26.1703155009566686 O
atom 6.8042422513892120 2.2680931449939234 29.3618274824999865 Ir
atom 4.5361394046256276 9.0722899700013695 27.7660669850000232 Ir
atom 7.6721727743621777 3.1360308302637572 27.7660664715433043 O
atom 5.4041121516573369 3.6682277352610684 29.3618248240432926 O
atom 5.9362804848917579 1.4001274297314596 27.7660675034567035 O
atom 8.2043802511233164 0.8679680347249145 29.3618222509566706 O
atom 6.8042379678638616 6.8042055849950609 26.1703161924999925 Ir
atom 4.5361506681441375 4.5361484999985855 30.9575835450000127 Ir
atom 7.6721867278679472 7.6721236802605910 30.9575832515432907 O
atom 5.4040889781337409 8.2043476352666609 26.1703110240433219 O
atom 5.9363207713688757 5.9362503597220853 24.5745517834566627 O
atom 8.2043608975988302 5.4040841447296071 26.1703105409566952 O
atom 6.8042372313806503 6.8042010549952341 29.3618183424999941 Ir
atom 4.5361393346248651 4.5361425600012586 27.7660690650000213 Ir
atom 7.6721933543548770 7.6721440402590311 27.7660680215432798 O
atom 5.4040901316509204 8.2043447252663864 29.3618205940433192 O
atom 5.9363028348850904 5.9362433397263148 27.7660663134566832 O
atom 8.2043611911159200 5.4040808347295375 29.3618231009566948 O
atom 9.0722870881436641 9.0722901200005399 30.9575871000000191 Ir
atom 3.1359814178850884 3.1360527202748880 30.9575839165433493 O
atom 1.4000972184168317 1.4001584897406822 30.9575844484567426 O
atom 9.0722833581437925 4.5361465000012933 30.9575843200000165 Ir
atom 7.6721659778774312 3.1360197202653595 30.9575842115433133 O
atom 5.9363208084046200 5.9362503497220738 30.9575844634566621 O
