#===============================================================================
# Created using the Atomic Simulation Environment (ASE)

# Mon Mar 23 14:01:02 2026

#=======================================================
lattice_vector 12.8301526818574523 0.0000000000000000 0.0000000000000000 
lattice_vector -0.0000000332592932 6.3830326800000003 0.0000000000000000 
lattice_vector 0.0000000000000000 0.0000000000000000 35.6624813186430600 
atom 6.4150659839096758 6.3830292423605748 16.2274705028188784 Ir
atom 9.6226068832876184 4.7872889948606385 16.2274427577171174 Ir
atom 7.6425236239396428 4.7872748033173513 16.2274347901276101 O
atom 9.6226065049150318 0.0000012875801390 15.0000000000000000 O
atom 11.6026914225008646 4.7872754864039493 16.2274406348930569 O
atom 9.6226052735714429 1.5957447948606329 16.2274440092957448 Ir
atom 7.6425220990765208 1.5957545333173502 16.2274347264876866 O
atom 9.6226078388559682 3.1915161275801016 15.0000172251214501 O
atom 11.6026898976376458 1.5957552364039451 16.2274410662278790 O
atom 3.2075389356393913 0.0000005025800718 15.0000334214037281 O
atom 3.2075371936715360 3.1915161625800970 15.0000214642277143 O
atom 12.8301424793542971 3.1915145973605790 16.2274683426076862 Ir
atom 6.4150430271627661 4.7872795652539741 19.4350150460786288 Ir
atom 6.4150163116879453 6.3830324125344164 20.6624735227741532 O
atom 4.4349721563249158 4.7872814537106896 19.4350104301777158 O
atom 6.4150244641031007 6.3830318879735000 18.2075554521455096 O
atom 8.3951474360757459 4.7872777067972905 19.4350169961935357 O
atom 6.4150423861828969 1.5957516652539694 19.4350161774493237 Ir
atom 6.4150752707065068 3.1915161523605509 16.2274844045400108 Ir
atom 6.4150273945412337 3.1915155725344535 20.6624606534328983 O
atom 4.4349707445986679 1.5957519137106857 19.4350115120507887 O
atom 6.4150337721131976 3.1915156179734763 18.2075690073843255 O
atom 8.3951456142274434 1.5957576767972856 19.4350187144626396 O
atom 3.2075237935428591 6.3830320127539988 19.4350107026789196 Ir
atom 9.6225995757928899 0.0000004721410383 17.4549268741082990 O
atom 3.2075351663049525 3.1915182927539800 19.4350232821107873 Ir
atom 9.6226017441260154 3.1915169321410719 17.4549124632725317 O
atom 3.2075306095216587 4.7872769698604989 16.2275060968070370 Ir
atom 9.6226072281908337 0.0000031777539892 19.4350171126032798 Ir
atom 3.2075312944395953 6.3830321271410186 17.4549390681663219 O
atom 1.2274453137039403 4.7872721383171850 16.2275093580728260 O
atom 5.1876163225294922 4.7872681614037775 16.2275176211440844 O
atom 3.2075338717711457 1.5957561798604964 16.2275075534476265 Ir
atom 9.6226005506171681 3.1915166677540054 19.4350076020157694 Ir
atom 3.2075282775786720 3.1915171871409882 17.4549517395192524 O
atom 1.2274477203544101 1.5957588383171843 16.2275098742612514 O
atom 5.1876189059567634 1.5957614114037808 16.2275175221496610 O
atom 0.0000135921615985 4.7872674602540011 19.4350190164923582 Ir
atom 12.8301462931449617 0.0000001173605548 16.2274805472714760 Ir
atom 0.0000347457228022 0.0000003975345149 20.6624622267618570 O
atom 10.8500614903402006 4.7872726287106930 19.4350132550718335 O
atom 0.0000410122534674 6.3830318729735351 18.2075718605765395 O
atom 1.9800853751677137 4.7872731117972931 19.4350209241744913 O
atom 0.0000162745845301 1.5957653102540117 19.4350152829691076 Ir
atom 0.0000250346554474 3.1915156275344656 20.6624813186430565 O
atom 10.8500643636814864 1.5957630587106975 19.4350120034934086 O
atom 0.0000332931383856 3.1915173429735688 18.2075542041187077 O
atom 1.9800879232400450 1.5957605517972997 19.4350187816414426 O
