#===============================================================================
# Created using the Atomic Simulation Environment (ASE)

# Mon Mar 23 14:01:02 2026

#=======================================================
lattice_vector 12.8301526818574523 0.0000000000000000 0.0000000000000000 
lattice_vector -0.0000000332592932 6.3830326800000003 0.0000000000000000 
lattice_vector 0.0000000000000000 0.0000000000000000 42.0775606859883169 
atom 12.8301448350680669 6.3830292615737196 16.2274705028188748 Ir
atom 3.2075330525885541 4.7872890140737834 16.2274427577171210 Ir
atom 1.2274497932405755 4.7872748225304971 16.2274347901276101 O
atom 3.2075326742159738 0.0000013067932842 15.0000000000000000 O
atom 5.1876175918018035 4.7872755056170941 16.2274406348930569 O
atom 3.2075314428723849 1.5957448140737784 16.2274440092957448 Ir
atom 1.2274482683774561 1.5957545525304955 16.2274347264876937 O
atom 3.2075340081569070 3.1915161467932469 15.0000172251214536 O
atom 5.1876160669385838 1.5957552556170906 16.2274410662278825 O
atom 9.6226177867977807 0.0000005217932171 15.0000334214037281 O
atom 9.6226160448299272 3.1915161817932423 15.0000214642277179 O
atom 6.4150686486552306 3.1915146165737243 16.2274683426076898 Ir
atom 12.8301218783211510 4.7872795844671190 19.4350150460786288 Ir
atom 6.4150659839096758 6.3830292423605748 22.6425498701641388 Ir
atom 12.8300951628463338 6.3830324317475613 20.6624735227741567 O
atom 10.8500510074833088 4.7872814729238344 19.4350104301777193 O
atom 12.8301033152614892 6.3830319071866448 18.2075554521455132 O
atom 1.9800736053766970 4.7872777260104353 19.4350169961935393 O
atom 12.8301212373412810 1.5957516844671147 19.4350161774493273 Ir
atom 0.0000014400074452 3.1915161715736962 16.2274844045400144 Ir
atom 12.8301062456996213 3.1915155917475984 20.6624606534328983 O
atom 10.8500495957570582 1.5957519329238308 19.4350115120507887 O
atom 12.8301126232715887 3.1915156371866211 18.2075690073843290 O
atom 1.9800717835283757 1.5957576960104307 19.4350187144626467 O
atom 9.6226068832876184 4.7872889948606385 22.6425221250623778 Ir
atom 9.6226026447012547 6.3830320319671436 19.4350107026789196 Ir
atom 3.2075257450938284 0.0000004913541836 17.4549268741083026 O
atom 7.6425236239396428 4.7872748033173513 22.6425141574728706 O
atom 9.6226065049150318 0.0000012875801390 21.4150793673452604 O
atom 11.6026914225008646 4.7872754864039493 22.6425200022383173 O
atom 9.6226052735714429 1.5957447948606329 22.6425233766410052 Ir
atom 9.6226140174633432 3.1915183119671249 19.4350232821107873 Ir
atom 3.2075279134269512 3.1915169513542168 17.4549124632725317 O
atom 7.6425220990765208 1.5957545333173502 22.6425140938329470 O
atom 9.6226078388559682 3.1915161275801016 21.4150965924667105 O
atom 11.6026898976376458 1.5957552364039451 22.6425204335731394 O
atom 9.6226094606800530 4.7872769890736437 16.2275060968070370 Ir
atom 3.2075333974917766 0.0000031969671345 19.4350171126032834 Ir
atom 9.6226101455979833 6.3830321463541635 17.4549390681663255 O
atom 7.6425241648623370 4.7872721575303308 16.2275093580728296 O
atom 3.2075389356393913 0.0000005025800718 21.4151127887489885 O
atom 11.6026951736878772 4.7872681806169233 16.2275176211440844 O
atom 9.6226127229295351 1.5957561990736415 16.2275075534476301 Ir
atom 3.2075267199181137 3.1915166869671507 19.4350076020157694 Ir
atom 9.6226071287370658 3.1915172063541335 17.4549517395192524 O
atom 7.6425265715128035 1.5957588575303294 16.2275098742612549 O
atom 3.2075371936715360 3.1915161625800970 21.4151008315729747 O
atom 11.6026977571151519 1.5957614306169263 16.2275175221496646 O
atom 6.4150924433199892 4.7872674794671459 19.4350190164923582 Ir
atom 6.4150724624459006 0.0000001365737000 16.2274805472714796 Ir
atom 6.4151135968811905 0.0000004167476601 20.6624622267618641 O
atom 4.4349876596411466 4.7872726479238379 19.4350132550718335 O
atom 6.4151198634118591 6.3830318921866800 18.2075718605765466 O
atom 8.3951642263261057 4.7872731310104388 19.4350209241744949 O
atom 6.4150951257429147 1.5957653294671568 19.4350152829691076 Ir
atom 12.8301424793542971 3.1915145973605790 22.6425477099529466 Ir
atom 6.4151038858138358 3.1915156467476109 20.6624813186430565 O
atom 4.4349905329824271 1.5957630779238425 19.4350120034934086 O
atom 6.4151121442967760 3.1915173621867137 18.2075542041187113 O
atom 8.3951667743984402 1.5957605710104450 19.4350187816414497 O
atom 6.4150430271627661 4.7872795652539741 25.8500944134238893 Ir
atom 6.4150163116879453 6.3830324125344164 27.0775528901194136 O
atom 4.4349721563249158 4.7872814537106896 25.8500897975229762 O
atom 6.4150244641031007 6.3830318879735000 24.6226348194907700 O
atom 8.3951474360757459 4.7872777067972905 25.8500963635387961 O
atom 6.4150423861828969 1.5957516652539694 25.8500955447945842 Ir
atom 6.4150752707065068 3.1915161523605509 22.6425637718852713 Ir
atom 6.4150273945412337 3.1915155725344535 27.0775400207781587 O
atom 4.4349707445986679 1.5957519137106857 25.8500908793960491 O
atom 6.4150337721131976 3.1915156179734763 24.6226483747295859 O
atom 8.3951456142274434 1.5957576767972856 25.8500980818079000 O
atom 3.2075237935428591 6.3830320127539988 25.8500900700241800 Ir
atom 9.6225995757928899 0.0000004721410383 23.8700062414535594 O
atom 3.2075351663049525 3.1915182927539800 25.8501026494560477 Ir
atom 9.6226017441260154 3.1915169321410719 23.8699918306177921 O
atom 3.2075306095216587 4.7872769698604989 22.6425854641522974 Ir
atom 9.6226072281908337 0.0000031777539892 25.8500964799485402 Ir
atom 3.2075312944395953 6.3830321271410186 23.8700184355115823 O
atom 1.2274453137039403 4.7872721383171850 22.6425887254180864 O
atom 5.1876163225294922 4.7872681614037775 22.6425969884893448 O
atom 3.2075338717711457 1.5957561798604964 22.6425869207928869 Ir
atom 9.6226005506171681 3.1915166677540054 25.8500869693610298 Ir
atom 3.2075282775786720 3.1915171871409882 23.8700311068645128 O
atom 1.2274477203544101 1.5957588383171843 22.6425892416065118 O
atom 5.1876189059567634 1.5957614114037808 22.6425968894949214 O
atom 0.0000135921615985 4.7872674602540011 25.8500983838376186 Ir
atom 12.8301462931449617 0.0000001173605548 22.6425599146167364 Ir
atom 0.0000347457228022 0.0000003975345149 27.0775415941071174 O
atom 10.8500614903402006 4.7872726287106930 25.8500926224170939 O
atom 0.0000410122534674 6.3830318729735351 24.6226512279217999 O
atom 1.9800853751677137 4.7872731117972931 25.8501002915197517 O
atom 0.0000162745845301 1.5957653102540117 25.8500946503143680 Ir
atom 0.0000250346554474 3.1915156275344656 27.0775606859883169 O
atom 10.8500643636814864 1.5957630587106975 25.8500913708386690 O
atom 0.0000332931383856 3.1915173429735688 24.6226335714639681 O
atom 1.9800879232400450 1.5957605517972997 25.8500981489867030 O
