#===============================================================================
# Created using the Atomic Simulation Environment (ASE)

# Mon Mar 23 14:01:02 2026

#=======================================================
lattice_vector 12.8301526818574523 0.0000000000000000 0.0000000000000000 
lattice_vector -0.0000000332592932 6.3830326800000003 0.0000000000000000 
lattice_vector 0.0000000000000000 0.0000000000000000 45.2850858492148660 
atom 6.4150480476220926 4.7872796036802647 16.2274608419599211 Ir
atom 12.8301448350680669 6.3830292615737196 19.4349956660454239 Ir
atom 6.4150213321472718 6.3830324509607062 17.4549193186554454 O
atom 4.4349771767842485 4.7872814921369802 16.2274562260590116 O
atom 6.4150294845624263 6.3830319263997897 15.0000012480268055 O
atom 8.3951524565350848 4.7872777452235811 16.2274627920748316 O
atom 6.4150474066422181 1.5957517036802600 16.2274619733306160 Ir
atom 6.4150324150005629 3.1915156109607437 17.4549064493141870 O
atom 4.4349757650579980 1.5957519521369763 16.2274573079320810 O
atom 6.4150387925725267 3.1915156563997664 15.0000148032656213 O
atom 8.3951506346867699 1.5957577152235762 16.2274645103439425 O
atom 3.2075330525885541 4.7872890140737834 19.4349679209436701 Ir
atom 3.2075288140021940 6.3830320511802885 16.2274564985602083 Ir
atom 1.2274497932405755 4.7872748225304971 19.4349599533541593 O
atom 3.2075326742159738 0.0000013067932842 18.2075251632265491 O
atom 5.1876175918018035 4.7872755056170941 19.4349657981196060 O
atom 3.2075314428723849 1.5957448140737784 19.4349691725222939 Ir
atom 3.2075401867642794 3.1915183311802702 16.2274690779920761 Ir
atom 1.2274482683774561 1.5957545525304955 19.4349598897142428 O
atom 3.2075340081569070 3.1915161467932469 18.2075423883480028 O
atom 5.1876160669385838 1.5957552556170906 19.4349662294544316 O
atom 9.6226122486501691 0.0000032161802797 16.2274629084845756 Ir
atom 9.6226177867977807 0.0000005217932171 18.2075585846302772 O
atom 9.6226055710765035 3.1915167061802960 16.2274533978970581 Ir
atom 9.6226160448299272 3.1915161817932423 18.2075466274542670 O
atom 0.0000186126209309 4.7872674986802908 16.2274648123736540 Ir
atom 0.0000397661821289 0.0000004359608053 17.4549080226431563 O
atom 10.8500665107995360 4.7872726671369827 16.2274590509531258 O
atom 0.0000460327127998 6.3830319113998248 15.0000176564578389 O
atom 1.9800903956270406 4.7872731502235837 16.2274667200557872 O
atom 0.0000212950438568 1.5957653486803021 16.2274610788503963 Ir
atom 6.4150686486552306 3.1915146165737243 19.4349935058342389 Ir
atom 0.0000300551147741 3.1915156659607562 17.4549271145243452 O
atom 10.8500693841408165 1.5957630971369878 16.2274577993746973 O
atom 0.0000383135977151 3.1915173813998590 15.0000000000000000 O
atom 1.9800929436993773 1.5957605902235905 16.2274645775227384 O
atom 12.8301218783211510 4.7872795844671190 22.6425402093051780 Ir
atom 6.4150659839096758 6.3830292423605748 25.8500750333906879 Ir
atom 12.8300951628463338 6.3830324317475613 23.8699986860007058 O
atom 10.8500510074833088 4.7872814729238344 22.6425355934042685 O
atom 12.8301033152614892 6.3830319071866448 21.4150806153720623 O
atom 1.9800736053766970 4.7872777260104353 22.6425421594200884 O
atom 12.8301212373412810 1.5957516844671147 22.6425413406758764 Ir
atom 0.0000014400074452 3.1915161715736962 19.4350095677665635 Ir
atom 12.8301062456996213 3.1915155917475984 23.8699858166594474 O
atom 10.8500495957570582 1.5957519329238308 22.6425366752773378 O
atom 12.8301126232715887 3.1915156371866211 21.4150941706108782 O
atom 1.9800717835283757 1.5957576960104307 22.6425438776891959 O
atom 9.6226068832876184 4.7872889948606385 25.8500472882889269 Ir
atom 9.6226026447012547 6.3830320319671436 22.6425358659054687 Ir
atom 3.2075257450938284 0.0000004913541836 20.6624520373348517 O
atom 7.6425236239396428 4.7872748033173513 25.8500393206994197 O
atom 9.6226065049150318 0.0000012875801390 24.6226045305718095 O
atom 11.6026914225008646 4.7872754864039493 25.8500451654648664 O
atom 9.6226052735714429 1.5957447948606329 25.8500485398675544 Ir
atom 9.6226140174633432 3.1915183119671249 22.6425484453373365 Ir
atom 3.2075279134269512 3.1915169513542168 20.6624376264990808 O
atom 7.6425220990765208 1.5957545333173502 25.8500392570594961 O
atom 9.6226078388559682 3.1915161275801016 24.6226217556932596 O
atom 11.6026898976376458 1.5957552364039451 25.8500455967996885 O
atom 9.6226094606800530 4.7872769890736437 19.4350312600335862 Ir
atom 3.2075333974917766 0.0000031969671345 22.6425422758298325 Ir
atom 9.6226101455979833 6.3830321463541635 20.6624642313928746 O
atom 7.6425241648623370 4.7872721575303308 19.4350345212993787 O
atom 3.2075389356393913 0.0000005025800718 24.6226379519755376 O
atom 11.6026951736878772 4.7872681806169233 19.4350427843706335 O
atom 9.6226127229295351 1.5957561990736415 19.4350327166741792 Ir
atom 3.2075267199181137 3.1915166869671507 22.6425327652423185 Ir
atom 9.6226071287370658 3.1915172063541335 20.6624769027458015 O
atom 7.6425265715128035 1.5957588575303294 19.4350350374878040 O
atom 3.2075371936715360 3.1915161625800970 24.6226259947995239 O
atom 11.6026977571151519 1.5957614306169263 19.4350426853762137 O
atom 6.4150924433199892 4.7872674794671459 22.6425441797189073 Ir
atom 6.4150724624459006 0.0000001365737000 19.4350057104980287 Ir
atom 6.4151135968811905 0.0000004167476601 23.8699873899884132 O
atom 4.4349876596411466 4.7872726479238379 22.6425384182983827 O
atom 6.4151198634118591 6.3830318921866800 21.4150970238030958 O
atom 8.3951642263261057 4.7872731310104388 22.6425460874010440 O
atom 6.4150951257429147 1.5957653294671568 22.6425404461956568 Ir
atom 12.8301424793542971 3.1915145973605790 25.8500728731794958 Ir
atom 6.4151038858138358 3.1915156467476109 23.8700064818696056 O
atom 4.4349905329824271 1.5957630779238425 22.6425371667199578 O
atom 6.4151121442967760 3.1915173621867137 21.4150793673452604 O
atom 8.3951667743984402 1.5957605710104450 22.6425439448679988 O
atom 6.4150430271627661 4.7872795652539741 29.0576195766504384 Ir
atom 6.4150163116879453 6.3830324125344164 30.2850780533459627 O
atom 4.4349721563249158 4.7872814537106896 29.0576149607495253 O
atom 6.4150244641031007 6.3830318879735000 27.8301599827173192 O
atom 8.3951474360757459 4.7872777067972905 29.0576215267653453 O
atom 6.4150423861828969 1.5957516652539694 29.0576207080211333 Ir
atom 6.4150752707065068 3.1915161523605509 25.8500889351118204 Ir
atom 6.4150273945412337 3.1915155725344535 30.2850651840047078 O
atom 4.4349707445986679 1.5957519137106857 29.0576160426225982 O
atom 6.4150337721131976 3.1915156179734763 27.8301735379561350 O
atom 8.3951456142274434 1.5957576767972856 29.0576232450344492 O
atom 3.2075237935428591 6.3830320127539988 29.0576152332507291 Ir
atom 9.6225995757928899 0.0000004721410383 27.0775314046801086 O
atom 3.2075351663049525 3.1915182927539800 29.0576278126825969 Ir
atom 9.6226017441260154 3.1915169321410719 27.0775169938443412 O
atom 3.2075306095216587 4.7872769698604989 25.8501106273788466 Ir
atom 9.6226072281908337 0.0000031777539892 29.0576216431750893 Ir
atom 3.2075312944395953 6.3830321271410186 27.0775435987381314 O
atom 1.2274453137039403 4.7872721383171850 25.8501138886446356 O
atom 5.1876163225294922 4.7872681614037775 25.8501221517158939 O
atom 3.2075338717711457 1.5957561798604964 25.8501120840194361 Ir
atom 9.6226005506171681 3.1915166677540054 29.0576121325875789 Ir
atom 3.2075282775786720 3.1915171871409882 27.0775562700910619 O
atom 1.2274477203544101 1.5957588383171843 25.8501144048330609 O
atom 5.1876189059567634 1.5957614114037808 25.8501220527214706 O
atom 0.0000135921615985 4.7872674602540011 29.0576235470641677 Ir
atom 12.8301462931449617 0.0000001173605548 25.8500850778432856 Ir
atom 0.0000347457228022 0.0000003975345149 30.2850667573336665 O
atom 10.8500614903402006 4.7872726287106930 29.0576177856436431 O
atom 0.0000410122534674 6.3830318729735351 27.8301763911483491 O
atom 1.9800853751677137 4.7872731117972931 29.0576254547463009 O
atom 0.0000162745845301 1.5957653102540117 29.0576198135409172 Ir
atom 0.0000250346554474 3.1915156275344656 30.2850858492148660 O
atom 10.8500643636814864 1.5957630587106975 29.0576165340652182 O
atom 0.0000332931383856 3.1915173429735688 27.8301587346905173 O
atom 1.9800879232400450 1.5957605517972997 29.0576233122132521 O
