#===============================================================================
# Created using the Atomic Simulation Environment (ASE)

# Mon Mar 23 14:01:00 2026

#=======================================================
lattice_vector 9.0722883300002515 0.0000000000000000 0.0000000000000000 
lattice_vector 0.0000042800008374 9.0722918799992431 0.0000000000000000 
lattice_vector 0.0000000000000000 0.0000000000000000 33.1915217400000131 
atom 2.2680560413886468 2.2680912650038407 16.5957666275000300 Ir
atom 0.0000108446254737 0.0000015199974361 15.0000021499999967 Ir
atom 3.1359801243632237 3.1360358002751934 15.0000027165433565 O
atom 0.8679312616531877 3.6682106552697316 16.5957663790433259 O
atom 1.4001133548996703 1.4001615097368771 15.0000026784567275 O
atom 3.6682016511184763 0.8679480347330369 16.5957606159567064 O
atom 3.1360096078770376 7.6721627602683649 18.1915178265433219 O
atom 1.4001183184075148 5.9362631697358310 18.1915170184567252 O
atom 2.2680518013797415 6.8041976450049679 16.5957735075000343 Ir
atom 0.0000119346258688 4.5361473699973054 15.0000000000000000 Ir
atom 3.1360009443563972 7.6721510302704106 15.0000013665433336 O
atom 0.8679156016454257 8.2043219252735504 16.5957637690433479 O
atom 1.4001314348922924 5.9362743997327385 15.0000021784567075 O
atom 3.6681803811117550 5.4040636947381806 16.5957630659567350 O
atom 4.5361465781431347 0.0000000999994241 18.1915151150000050 Ir
atom 5.9362901784113351 1.4001346597291726 18.1915178034566942 O
atom 6.8042422513892120 2.2680931449939234 16.5957621224999841 Ir
atom 4.5361394046256276 9.0722899700013695 15.0000016250000208 Ir
atom 7.6721727743621777 3.1360308302637572 15.0000011115433018 O
atom 5.4041121516573369 3.6682277352610684 16.5957594640432902 O
atom 5.9362804848917579 1.4001274297314596 15.0000021434567010 O
atom 8.2043802511233164 0.8679680347249145 16.5957568909566682 O
atom 4.5361506681441375 4.5361484999985855 18.1915181850000103 Ir
atom 7.6721867278679472 7.6721236802605910 18.1915178915432882 O
atom 6.8042372313806503 6.8042010549952341 16.5957529824999916 Ir
atom 4.5361393346248651 4.5361425600012586 15.0000037050000188 Ir
atom 7.6721933543548770 7.6721440402590311 15.0000026615432773 O
atom 5.4040901316509204 8.2043447252663864 16.5957552340433168 O
atom 5.9363028348850904 5.9362433397263148 15.0000009534566807 O
atom 8.2043611911159200 5.4040808347295375 16.5957577409566923 O
atom 9.0722870881436641 9.0722901200005399 18.1915217400000166 Ir
atom 3.1359814178850884 3.1360527202748880 18.1915185565433468 O
atom 1.4000972184168317 1.4001584897406822 18.1915190884567401 O
atom 9.0722833581437925 4.5361465000012933 18.1915189600000140 Ir
atom 7.6721659778774312 3.1360197202653595 18.1915188515433108 O
atom 5.9363208084046200 5.9362503497220738 18.1915191034566597 O
