#===============================================================================
# Created using the Atomic Simulation Environment (ASE)

# Mon Mar 23 14:01:01 2026

#=======================================================
lattice_vector 9.0722918800002521 0.0000000000000000 0.0000000000000000 
lattice_vector -0.0000000099999929 6.3830326800000003 0.0000000000000000 
lattice_vector 0.0000000000000000 0.0000000000000000 38.5401197075023774 
atom 0.0000111199961506 0.0000035379181675 15.8679244322322504 Ir
atom 4.5361593799959010 0.0000007579181601 15.8679228422317209 Ir
atom 0.8679823852721565 1.5957646138390496 15.0000197299924949 O
atom 0.8679804952725717 4.7872713638390572 15.0000214749929910 O
atom 5.4040966052676289 1.5957596538389562 15.0000000000000000 O
atom 5.4040932952676970 4.7872722138389578 15.0000002750008008 O
atom 2.2681039449931952 1.5957532185779610 18.1359845997276707 Ir
atom 3.1360670797220944 0.0000003726571758 19.0039098924898795 O
atom 3.6682221647274935 1.5957513219974298 16.7358597394634714 O
atom 1.4001720302565570 0.0000008944985922 17.2680265119580625 O
atom 0.8679601252640470 1.5957550851585953 19.5361312899979183 O
atom 2.2681052049932777 4.7872811185779636 18.1359849347273254 Ir
atom 0.0000143900000189 3.1915166279182445 15.8679408172314993 Ir
atom 3.1360501497217967 3.1915172126571698 19.0039086174938561 O
atom 3.6682239347274388 4.7872808619974272 16.7358594944629857 O
atom 1.4001750402603714 3.1915171644986682 17.2680426669573492 O
atom 0.8679626352640304 4.7872751151585939 19.5361312049973108 O
atom 6.8042095549919592 1.5957437985779337 18.1359788197372396 Ir
atom 7.6721771097283726 6.3830323226572983 19.0039359424983374 O
atom 8.2043341647236350 1.5957579819973498 16.7358428294714443 O
atom 5.9362767002611623 6.3830315044986810 17.2680454719678025 O
atom 5.4040769052588162 1.5957573151584885 19.5361085800047860 O
atom 6.8042115849918998 4.7872879985779333 18.1359785547366243 Ir
atom 4.5361602399998988 3.1915144779182394 15.8679397672315261 Ir
atom 7.6721653797263327 3.1915158626572571 19.0039272975011144 O
atom 8.2043352047233675 4.7872782519973445 16.7358416944711834 O
atom 5.9362879302642559 3.1915166644987436 17.2680586069651483 O
atom 5.4040782952586337 4.7872775651584858 19.5361077950044404 O
atom 2.2681104950019901 1.5957558498978437 22.6721678197262335 Ir
atom 0.0000151099976105 6.3830296192379041 20.4040765322314641 Ir
atom 3.1360362197312046 0.0000006939770647 23.5400944524972786 O
atom 3.6682444847351952 1.5957606733172907 21.2720383294582902 O
atom 1.4001503302676555 6.3830323158185207 21.8042194719633002 O
atom 2.2681092250027768 4.7872766398978595 22.6721711447265264 Ir
atom 0.0000130999949102 3.1915161292378502 20.4040650972319284 Ir
atom 3.1360473197328154 3.1915156339770965 23.5401012674946699 O
atom 3.6682431547356824 4.7872739733172995 21.2720403844586272 O
atom 1.4001431002653693 3.1915166558184747 21.8042097969650044 O
atom 6.8042216650013883 1.5957653498978293 22.6721647397344057 Ir
atom 4.5361635199981896 0.0000000092379127 20.4040784822308794 Ir
atom 7.6721401697357274 6.3830324139771513 23.5401130625071815 O
atom 8.2043630547298374 1.5957601733171807 21.2720150894647517 O
atom 5.9362660302744947 0.0000009358186545 21.8042479619704253 O
atom 6.8042171350012159 4.7872674998978262 22.6721639847355263 Ir
atom 4.5361575699955221 3.1915182092378589 20.4040671672322702 Ir
atom 7.6721605297372930 3.1915171839771830 23.5401197075023774 O
atom 8.2043601447301135 4.7872697433171867 21.2720162244654674 O
atom 5.9362590102702626 3.1915154658185698 21.8042300069720980 O
