#===============================================================================
# Created using the Atomic Simulation Environment (ASE)

# Mon Mar 23 14:01:00 2026

#=======================================================
lattice_vector 11.0927688637512336 0.0000000000000000 0.0000000000000000 
lattice_vector 3.6729463381512715 10.4670459790894856 0.0000000000000000 
lattice_vector 0.0000000000000000 0.0000000000000000 39.0496002386682193 
atom 12.0294826162769812 8.5274318542167453 15.0000224935853623 Ir
atom 7.4198229606329393 5.2597332521549918 16.1312184326371906 Ir
atom 10.8843836356803649 10.1428045598735199 15.0000178991536153 O
atom 13.1745994679292231 6.9120307070527600 15.0000251864814267 O
atom 10.4013916729420526 7.3733309612316935 15.2654605512826969 O
atom 8.5649219487898005 2.1397696072170063 15.2654384505225558 O
atom 10.1929938924566557 3.2938698856886695 15.0000134508299148 Ir
atom 9.0478896146576737 4.9092539177022498 15.0000000000000000 O
atom 11.3381035502236589 1.6784878905618135 15.0000039732334400 O
atom 4.8550346350219815 7.3732988216240551 15.2654625802407011 O
atom 6.4831287855338298 8.5274195397427448 15.0000502001346163 Ir
atom 1.8734378384823156 5.2597356621070270 16.1312139337149176 Ir
atom 5.3380254226650736 10.1428078693376431 15.0000499525693627 O
atom 7.6282431495536267 6.9120403780481636 15.0000535228875975 O
atom 4.6466474721982074 3.2938672880700754 15.0000338749868867 Ir
atom 3.5015301043411644 4.9092685286849882 15.0000261474707202 O
atom 5.7917497528054076 1.6784958036016595 15.0000312143011882 O
atom 3.0185703755184279 2.1397407173039249 15.2654488872269809 O
atom 8.3565397867289271 5.9237761118910610 19.5247958514756732 Ir
atom 3.7468801310848883 2.6560775098293061 20.6559917905274979 Ir
atom 9.9846107337519214 7.0779069214576218 19.2593744352374081 O
atom 7.2114408061323090 7.5391488175478347 19.5247912570439297 O
atom 8.5649070054231036 6.0715050845966818 17.5278377188787999 O
atom 9.5016566383811689 4.3083749647270730 19.5247985443717376 O
atom 10.1930048235968336 7.2256002679941815 17.2624181651216269 Ir
atom 5.5833668165554444 3.9579048429413741 18.3936126130941133 Ir
atom 11.8210808180447557 8.3797202848717109 16.9969790335463671 O
atom 9.0479044249503318 8.8409729131864481 17.2624146983327975 O
atom 6.7284488433940002 4.7696752189060074 19.7902339091730042 O
atom 11.3381258603276045 5.6102035349946515 17.2624156931295154 O
atom 8.3565387256946799 1.9920515388081168 17.2623794977320060 Ir
atom 7.4198250142193691 9.1914319716758985 18.3936035049938980 Ir
atom 9.9846307046525418 3.1461735084974007 16.9969823261670889 O
atom 7.2114213895618766 3.6074264181111810 17.2623839379531461 O
atom 8.5649254573930129 10.0031598439808072 19.7902118084128631 O
atom 9.5016350273696979 0.3766601798974518 17.2623875762415935 O
atom 6.5200510629085935 0.6902141433629837 19.5247868087202292 Ir
atom 5.5833654406640756 0.0262108248824591 16.1312238414963289 Ir
atom 8.1481522885612954 1.8443379960251245 19.2593587555953150 O
atom 5.3749467851096195 2.3055981753765646 19.5247733578903109 O
atom 6.7284604134230985 0.8379470838306360 17.5278383422436406 O
atom 11.3381070588268695 9.5418781273256119 19.5247773311237545 O
atom 4.6466572120203109 7.2255955344250848 17.2624326971672026 Ir
atom 11.1297462795991482 3.9579074182312368 18.3936053005062305 Ir
atom 6.2747305841899603 8.3796944766371411 16.9969916536474024 O
atom 3.5015505779116260 8.8409804963567566 17.2624384224097973 O
atom 12.2748606692251592 4.7696430792983691 19.7902359381310120 O
atom 5.7917647893159980 5.6102107297170711 17.2624470697697419 O
atom 2.8101859559857787 5.9237637974170596 19.5248235580249272 Ir
atom 9.2932638726854986 2.6560799197813427 20.6559872916052285 Ir
atom 4.4382655486991665 7.0778748459364840 19.2593862777029088 O
atom 12.7578514568682468 7.5391521270119588 19.5248233104596736 O
atom 3.0185549162015781 6.0714671787955670 17.5278413074186261 O
atom 3.9553003200055725 4.3083846357224784 19.5248268807779084 O
atom 0.9737046426501552 0.6902115457443889 19.5248072328771975 Ir
atom 0.0369754898179592 0.0262126201575545 16.1312229972795329 Ir
atom 2.6018017730394809 1.8443022805478766 19.2593659963742532 O
atom 10.9213561385443523 2.3056127863593034 19.5247995053610310 O
atom 1.1821126038360550 0.8379130351660253 17.5278493029355680 O
atom 5.7917532614086218 9.5418860403654584 19.5248045721914991 O
atom 2.8101836051922140 1.9920414996882236 17.2624078616126688 Ir
atom 12.9662089526174071 9.1914280638622667 18.3936023863686202 Ir
atom 4.4382779837516493 3.1461454345446782 16.9969935704327675 O
atom 1.6650635134459009 3.6074405753860623 17.2624071445502203 O
atom 14.1113427478728823 10.0031309540677249 19.7902222451172918 O
atom 3.9552807380395256 0.3766665307862632 17.2624137024968860 O
atom 4.6835969571808747 3.3201203695653718 24.0495692093659841 Ir
atom 6.3116679042038593 4.4742511791319339 23.7841477931277225 O
atom 3.5384979765842575 4.9354930752221486 24.0495646149342406 O
atom 4.8919641758750467 3.4678493422709953 22.0526110767691144 O
atom 5.8287138088331121 1.7047192224013861 24.0495719022620520 O
atom 6.5200619940487821 4.6219445256684963 21.7871915230119413 Ir
atom 1.9104239870073827 1.3542491006156878 22.9183859709844242 Ir
atom 8.1481379884966980 5.7760645425460231 21.5217523914366780 O
atom 5.3749615954022696 6.2373171708607611 21.7871880562231084 O
atom 7.6651830307795485 3.0065477926689645 21.7871890510198263 O
atom 8.3565422342978977 9.8554417755719168 21.7871528556223168 Ir
atom 3.7468821846713167 6.5877762293502125 22.9183768628842088 Ir
atom 6.3116878751044894 0.5425177661717160 21.5217556840574034 O
atom 3.5384785600138247 1.0037706757854941 21.7871572958434570 O
atom 9.5016385359729210 8.2400504166612514 21.7871609341319044 O
atom 6.5200545715118183 8.5536043801267834 24.0495601666105401 Ir
atom 5.5833689492672915 7.8896010616462604 20.6559971993866434 Ir
atom 8.1481557971645096 9.7077282327889254 23.7841321134856187 O
atom 5.3749502937128346 10.1689884121403633 24.0495467157806289 O
atom 6.7284639220263136 8.7013373205944351 22.0526117001339479 O
atom 7.6651642292788136 6.9382223849999276 24.0495506890140618 O
atom 12.0664832462234877 4.6219397920993979 21.7872060550575135 Ir
atom 7.4568034500510914 1.3542516759055514 22.9183786583965414 Ir
atom 2.6017877546419044 5.7760387343114568 21.5217650115377133 O
atom 10.9213766121148002 6.2373247540310706 21.7872117803001117 O
atom 2.1188219597679465 3.0065549873913864 21.7872204276600456 O
atom 10.2300119901889506 3.3201080550913744 24.0495969159152381 Ir
atom 11.8580915829023432 4.4742191036107970 23.7841596355932197 O
atom 9.0849086273201998 4.9354963846862709 24.0495966683499844 O
atom 10.4383809504047491 3.4678114364698813 22.0526146653089370 O
atom 11.3751263542087493 1.7047288933967921 24.0496002386682193 O
atom 12.0664770150046081 8.5536017825081885 24.0495805907675049 Ir
atom 11.1297478621724117 7.8896028569213543 20.6559963551698438 Ir
atom 13.6945741453939345 9.7076925173116759 23.7841393542645676 O
atom 10.9213596471475611 10.1690030231231017 24.0495728632513419 O
atom 12.2748849761905081 8.7013032719298256 22.0526226608258824 O
atom 13.2115792956117986 6.9382302980397714 24.0495779300818100 O
atom 13.9029559775466609 9.8554317364520223 21.7871812195029797 Ir
atom 9.2932661230693476 6.5877723215365815 22.9183757442589346 Ir
atom 0.7653351542035933 0.5424896922189923 21.5217669283230819 O
atom 9.0848895476490785 1.0037848330603767 21.7871805024405276 O
atom 3.9552842466427456 8.2400567675500636 21.7871870603871969 O
