#===============================================================================
# Created using the Atomic Simulation Environment (ASE)

# Mon Mar 23 14:01:04 2026

#=======================================================
lattice_vector 9.8265490582286468 0.0000000000000000 0.0000000000000000 
lattice_vector 0.0363446553796943 9.8126216415448742 0.0000000000000000 
lattice_vector 0.0000000000000000 0.0000000000000000 35.8165040707229991 
atom 0.0018528985206292 0.0034230689491665 17.7131094792854782 Mo
atom 1.3892226598996293 1.3576966587748864 17.8692571030173148 O
atom 2.4337123269183989 2.5314670254390181 16.6381757092240576 Mo
atom 0.0026265787330787 0.0042973800414468 15.2171454387890748 Mo
atom 0.9990663378938411 3.9308066639469703 16.5540685035624549 O
atom 3.8332339080521907 1.1357898603452086 16.4856279245284298 O
atom 3.4617003601743148 3.4648662068380145 15.0792791552132002 O
atom 1.4705961033237633 1.4465525553766256 15.1416632779898634 O
atom 3.5638902969645390 8.4601538652302342 17.8703424694375670 O
atom 2.5188705980675707 7.2889211136936565 16.6388739388847711 Mo
atom 0.0210783002276146 4.9105981316651093 15.0006651486383582 Mo
atom 1.1196235976287396 8.6832102026617424 16.4840063303913951 O
atom 3.9540270947994682 5.8882840917211094 16.5518456442501432 O
atom 3.4817473670508057 8.3731622954734188 15.1409973236134476 O
atom 1.4859471864421721 6.3493863376591069 15.0766606384674766 O
atom 4.9141158039699091 0.0023899340552312 17.7140531443100002 Mo
atom 6.3019102070290725 1.3566971808753217 17.8705035047994265 O
atom 7.3461846632236822 2.5289663059251364 16.6386003034527867 Mo
atom 4.9140665962381522 0.0035860967534769 15.2186614272169436 Mo
atom 5.9118170476169842 3.9317177428335617 16.5555015582176495 O
atom 8.7463126985587571 1.1359273949470512 16.4852933056790221 O
atom 8.3745314157689439 3.4640547528612098 15.0779291549926775 O
atom 6.3825924606048661 1.4458511187629217 15.1410287968570785 O
atom 8.4772343562037751 8.4616727525974138 17.8688133149702857 O
atom 7.4322280922096100 7.2892233699993589 16.6383279213096102 Mo
atom 4.9353214801083487 4.9117369273602938 15.0000000000000000 Mo
atom 6.0313853865910039 8.6829187024454324 16.4832112689261052 O
atom 8.8650958953859362 5.8880567177052656 16.5511670757388174 O
atom 8.3951201511624216 8.3727275159912864 15.1412532958238089 O
atom 6.3991895803545207 6.3496614466688097 15.0772428959334022 O
atom 2.5002992641331279 2.3829949519628246 19.1794132419432515 Mo
atom 1.0996446627891985 3.7763953972651332 19.3329438492276005 O
atom 3.9346099102066923 0.9812469739404924 19.2649801551198365 O
atom 3.5455841888972275 3.5554758198656375 17.9498151634001211 O
atom 0.0023502239947080 0.0039767851112227 20.8149880822951303 Mo
atom 3.4614240054359433 3.4645456119077904 20.6771217987192522 O
atom 1.4703197485853934 1.4462319604464016 20.7395059214959225 O
atom 2.4514372923231349 7.4351782967748452 19.1788175615837488 Mo
atom 9.8445306074977790 4.9079646530633294 18.1037796118288519 Mo
atom 1.0177291278263421 8.8371798067547118 19.2654461797007528 O
atom 3.8513300605944489 6.0424112372813248 19.3347726385390999 O
atom 1.4068988698898075 6.2636950068273558 17.9468691802400784 O
atom 0.0208019454892440 4.9102775367348857 20.5985077921444102 Mo
atom 3.4814710123124351 8.3728417005431925 20.7388399671195067 O
atom 1.4856708317038012 6.3490657427288824 20.6745032819735286 O
atom 7.4138670588993332 2.3825858054672548 19.1805330654727548 Mo
atom 6.0141550848862808 3.7766193072202316 19.3331528998799023 O
atom 8.8497195287766193 0.9808361312748211 19.2659777877213720 O
atom 8.4580622390093403 3.5548940520675347 17.9480203997432319 O
atom 4.9137902414997825 0.0032655018232528 20.8165040707229991 Mo
atom 8.3742550610305724 3.4637341579309857 20.6757717984987295 O
atom 6.3823161058664946 1.4455305238326972 20.7388714403631305 O
atom 7.3652777187007752 7.4378610920771342 19.1789317946859441 Mo
atom 4.9337846937207175 4.9091322234306816 18.1030411667176168 Mo
atom 5.9311184864351922 8.8364187775777960 19.2653215426463866 O
atom 8.7644070822100701 6.0417015565186816 19.3339594790847222 O
atom 6.3210432217617143 6.2650280720985405 17.9481255728090652 O
atom 4.9350451253699781 4.9114163324300710 20.5978426435060555 Mo
atom 8.3948437964240519 8.3724069210610619 20.7390959393298644 O
atom 6.3989132256161501 6.3493408517385861 20.6750855394394577 O
