#===============================================================================
# Created using the Atomic Simulation Environment (ASE)

# Mon Mar 23 14:01:05 2026

#=======================================================
lattice_vector 11.3093916751154389 0.0000000000000000 0.0000000000000000 
lattice_vector 0.0318583412982305 9.8126372326800713 0.0000000000000000 
lattice_vector 0.0000000000000000 0.0000000000000000 41.9712964962615729 
atom 10.0831659371331348 2.3968763090211143 17.2424148651174001 Mo
atom 5.8669374422619365 0.0214213675328470 19.5999025244123111 Mo
atom 8.7901713964212274 3.7892846283657446 16.6799791349963762 O
atom 11.2870574628050981 0.9965344151679135 18.0292781916837725 O
atom 0.2906821033187050 3.5683020143387627 16.6892459829351907 O
atom 9.7662048914363773 1.3684934365475843 15.5559388700411674 O
atom 11.2831559640410788 2.5412055526951058 15.0010851305061301 Mo
atom 7.1030443386197133 0.0182853184189016 17.4315234615119188 Mo
atom 7.3072298058882525 3.9478161173268442 19.0791965561353329 O
atom 1.2652878037525706 1.1465210965533446 15.5638182024725040 O
atom 10.1770007760303152 3.4816804737901870 19.0175313307389295 O
atom 8.4159778981341233 1.4617127040753273 18.0898963977303673 O
atom 10.0411474227270450 7.4490070685173659 17.2084497341867326 Mo
atom 8.4587403238635730 4.9179218007047814 15.0744822114006070 Mo
atom 8.7525472802641460 8.8498797458959064 16.5715060419922544 O
atom 11.1802929847924482 6.0577288082732030 18.0394214675780553 O
atom 0.3460643021261071 8.4728602626220013 16.6202608206766698 O
atom 9.7432870957458704 6.2746238661804830 15.6231315489189875 O
atom 0.0475482839375818 7.2987279445256767 15.0351209033245361 Mo
atom 7.2263681583787989 4.9242462260637776 17.2435605514124539 Mo
atom 7.4467966195753377 8.7002055058709171 19.0692788979514241 O
atom 1.3376047621778075 5.8992203891756327 15.6724316963976555 O
atom 10.1640101052939364 8.3900851914154444 19.0720829482849616 O
atom 8.4616301135361081 6.3644473371938339 18.0320250919099827 O
atom 3.0426602935358402 2.4008066999403614 19.6754677821551134 Mo
atom 1.5964058115883151 0.0160513795250918 17.1682896637958713 Mo
atom 1.7509356354867571 3.7938474432084717 19.1127060888579763 O
atom 7.0189726702225093 0.9917893181701239 15.5991201266852393 O
atom 4.5600638833969187 3.5720541384365347 19.1192273182471659 O
atom 2.7248717237323130 1.3718329233780928 17.9886671560063895 O
atom 4.2420425277736840 2.5430422897911127 17.4329955710890268 Mo
atom 2.8315144182364684 0.0132373747540344 15.0000000000000000 Mo
atom 3.0368798529436489 3.9443915569236210 16.6482468147260469 O
atom 5.5344688604537318 1.1509953986492383 17.9953642987527545 O
atom 5.9080981242623967 3.4765289819490985 16.5842063006148415 O
atom 4.1459958105361610 1.4566716423810953 15.6567797329853384 O
atom 3.0013764987082281 7.4560280207236396 19.6407581633087958 Mo
atom 1.4210968317376158 4.9234278929630877 17.5070240111639706 Mo
atom 1.7125025563075198 8.8534560973385332 19.0033899628099832 O
atom 6.9113383362083729 6.0526801693250185 15.6066844618516996 O
atom 4.6160671550003975 8.4787142297107430 19.0508977448816097 O
atom 2.7032148788712909 6.2802971943951720 18.0565853174243180 O
atom 4.3170761498828742 7.3033668743702735 17.4666209623379629 Mo
atom 0.1873329193501931 4.9297222843372612 19.6753939527457433 Mo
atom 3.1766902081321602 8.6955739147518454 16.6359058475225368 O
atom 5.6052095571805545 5.9033274561010574 18.1026847124268002 O
atom 5.8947832637954276 8.3853134324935752 16.6404208086679226 O
atom 4.1921284926556490 6.3603858748050230 15.6005806228451220 O
atom 7.3121452709236801 2.4055512655431825 22.1062828375419649 Mo
atom 3.0959167760524879 0.0300963240549160 24.4637704968368759 Mo
atom 6.0191507302117762 3.7979595848878147 21.5438471074209374 O
atom 8.5160367965956496 1.0052093716899826 22.8931461641083338 O
atom 8.8290531122246882 3.5769769708608319 21.5531139553597448 O
atom 6.9951842252269243 1.3771683930696537 20.4198068424657286 O
atom 8.5121352978316231 2.5498805092171750 19.8649531029306914 Mo
atom 4.3320236724102621 0.0269602749409706 22.2953914339364836 Mo
atom 4.5362091396787978 3.9564910738489139 23.9430645285598942 O
atom 9.8036588126585595 1.1551960530754135 20.4276861748970653 O
atom 7.4059801098208569 3.4903554303122561 23.8813993031634872 O
atom 5.6449572319246739 1.4703876605973965 22.9537643701549321 O
atom 7.2701267565175929 7.4576820250394356 22.0723177066112903 Mo
atom 5.6877196576541271 4.9265967572268501 19.9383501838251682 Mo
atom 5.9815266140546957 8.8585547024179760 21.4353740144168192 O
atom 8.4092723185830014 6.0664037647952718 22.9032894400026201 O
atom 8.8844353110320977 8.4815352191440709 21.4841287931012310 O
atom 6.9722664295364227 6.2832988227025517 20.4869995213435452 O
atom 8.5859192928435704 7.3074029010477455 19.8989888757490974 Mo
atom 4.4553474921693503 4.9329211825858472 22.1074285238370152 Mo
atom 4.6757759533658874 8.7088804623929867 23.9331468703759818 O
atom 9.8759757710837981 5.9078953456977015 20.5362996688222168 O
atom 7.3929894390844817 8.3987601479375140 23.9359509207095229 O
atom 5.6906094473266524 6.3731222937159027 22.8958930643345404 O
atom 0.2716396273263799 2.4094816564624306 24.5393357545796782 Mo
atom 10.1347768204943005 0.0247263360471608 22.0321576362204326 Mo
atom 10.2893066443927452 3.8025223997305408 23.9765740612825340 O
atom 4.2479520040130589 1.0004642746921930 20.4629880991098005 O
atom 1.7890432171874631 3.5807290949586035 23.9830952906717272 O
atom 11.2632427326382967 1.3805078799001618 22.8525351284309544 O
atom 1.4710218615642392 2.5517172463131819 22.2968635435135880 Mo
atom 0.0604937520270177 0.0219123312761034 19.8638679724245613 Mo
atom 0.2658591867341935 3.9530665134456902 21.5121147871506118 O
atom 2.7634481942442810 1.1596703551713072 22.8592322711773157 O
atom 3.1370774580529335 3.4852039384711673 21.4480742730393992 O
atom 1.3749751443267049 1.4653465989031644 20.5206477054098961 O
atom 0.2303558324987879 7.4647029772457083 24.5046261357333606 Mo
atom 9.9594678406435992 4.9321028494851582 22.3708919835885318 Mo
atom 10.2508735652135083 8.8621310538606028 23.8672579352345444 O
atom 4.1403176699989226 6.0613551258470872 20.4705524342762573 O
atom 1.8450464887909450 8.4873891862328144 23.9147657173061710 O
atom 11.2415858877772799 6.2889721509172416 22.9204532898488793 O
atom 1.5460554836734288 7.3120418308923441 22.3304889347625242 Mo
atom 8.7257039282561859 4.9383972408593300 24.5392619251703046 Mo
atom 0.4056695419227047 8.7042488712739150 21.4997738199470980 O
atom 2.8341888909711068 5.9120024126231270 22.9665526848513615 O
atom 3.1237625975859769 8.3939883890156448 21.5042887810924839 O
atom 1.4211078264461978 6.3690608313270927 20.4644485952696833 O
atom 4.5411246047142235 2.4142262220652522 26.9701508099665261 Mo
atom 3.2481300640023307 3.8066345414098834 26.4077150798454987 O
atom 6.0580324460152477 3.5856519273829006 26.4169819277843096 O
atom 4.2241635590174722 1.3858433495917224 25.2836748148902863 O
atom 5.7411146316221782 2.5585554657392442 24.7288210753552526 Mo
atom 7.0326381464491003 1.1638710095974827 25.2915541473216230 O
atom 4.4991060903081381 7.4663569815615043 26.9361856790358551 Mo
atom 2.9166989914446710 4.9352717137489188 24.8022181562497295 Mo
atom 3.2105059478452347 8.8672296589400439 26.2992419868413769 O
atom 6.1134146448226456 8.4902101756661406 26.3479967655257887 O
atom 4.2012457633269724 6.2919737792246213 25.3508674937681100 O
atom 5.8148986266341218 7.3160778575698142 24.7628568481736586 Mo
atom 1.6843268259598998 4.9415961391079177 26.9712964962615764 Mo
atom 7.1049551048743398 5.9165703022197702 25.4001676412467781 O
atom 7.3637561542848529 0.0334012925692298 26.8960256086449938 Mo
atom 1.4769313378036180 1.0091392312142620 25.3268560715343547 O
atom 8.5988647609330062 0.0305872877981724 24.7277359448491225 Mo
atom 8.8042301956401765 3.9617414699677589 26.3759827595751695 O
atom 0.3660567918434879 3.4938788949932365 26.3119422454639604 O
atom 9.9133461532326876 1.4740215554252336 25.3845156778344609 O
atom 1.3692970037894672 6.0700300823691569 25.3344204067008185 O
atom 8.9440405508286975 8.7129238277959828 26.3636417923716557 O
atom 0.3527419313765264 8.4026633455377127 26.3681567535170451 O
atom 9.9594788353521917 6.3777357878491614 25.3283165676942446 O
