#===============================================================================
# Created using the Atomic Simulation Environment (ASE)

# Mon Mar 23 14:01:05 2026

#=======================================================
lattice_vector 11.3093916751154389 0.0000000000000000 0.0000000000000000 
lattice_vector 0.0318583412982305 9.8126372326800713 0.0000000000000000 
lattice_vector 0.0000000000000000 0.0000000000000000 44.4036410071742154 
atom 8.6379581084713912 0.0127464110107780 17.1683790629003923 Mo
atom 2.7486864538991069 0.9878594586458445 15.5977547301718502 O
atom 9.8740650048291609 0.0096103618968326 15.0000000000000000 Mo
atom 10.0782504720977037 3.9391411608047755 16.6476730946234142 O
atom 1.6386297671243268 3.4730055172681182 16.5860078692270108 O
atom 11.1869985643435736 1.4530377475532583 15.6583729362184467 O
atom 2.6419219758864569 6.0490538517511343 15.6078980060661330 O
atom 10.2178172857847898 8.6915305493488493 16.6377554364395053 O
atom 1.6256390963879512 8.3814102348933766 16.6405594867730393 O
atom 11.2326507797455584 6.3557723806717652 15.6005016303980586 O
atom 5.8136809597452883 2.3921317434182923 17.2439443206431946 Mo
atom 4.5219563016962052 3.7851724866864025 16.6811826273460539 O
atom 7.3310845496063717 3.5633791819144660 16.6877038567352471 O
atom 5.4958923899417629 1.3631579668560236 15.5571436944944690 O
atom 7.0130631939831378 2.5343673332690435 15.0014721095771062 Mo
atom 8.3054895266631839 1.1423204421271691 15.5638408372408339 O
atom 5.7723971649176820 7.4473530642015708 17.2092347017968734 Mo
atom 4.1921174979470637 4.9147529364410181 15.0755005496520482 Mo
atom 4.4835232225169728 8.8447811408164654 16.5718665012980608 O
atom 7.3870878212098496 8.4700392731886751 16.6193742833696874 O
atom 5.4742355450807416 6.2716222378731032 15.6250618559123993 O
atom 7.0880968160923281 7.2946919178482048 15.0350975008260406 Mo
atom 2.9583535855596486 4.9210473278151916 17.2438704912338210 Mo
atom 8.3762302233900066 5.8946524995789886 15.6711612509148779 O
atom 10.0831659371331348 2.3968763090211143 19.6747593760300390 Mo
atom 5.8669374422619365 0.0214213675328470 22.0322470353249500 Mo
atom 8.7901713964212274 3.7892846283657446 19.1123236459090151 O
atom 11.2870574628050981 0.9965344151679135 20.4616227025964115 O
atom 0.2906821033187050 3.5683020143387627 19.1215904938478296 O
atom 9.7662048914363773 1.3684934365475843 17.9882833809538063 O
atom 11.2831559640410788 2.5412055526951058 17.4334296414187691 Mo
atom 7.1030443386197133 0.0182853184189016 19.8638679724245577 Mo
atom 7.3072298058882525 3.9478161173268442 21.5115410670479719 O
atom 1.2652878037525706 1.1465210965533446 17.9961627133851430 O
atom 10.1770007760303152 3.4816804737901870 21.4498758416515685 O
atom 8.4159778981341233 1.4617127040753273 20.5222409086430062 O
atom 10.0411474227270450 7.4490070685173659 19.6407942450993716 Mo
atom 8.4587403238635730 4.9179218007047814 17.5068267223132459 Mo
atom 8.7525472802641460 8.8498797458959064 19.0038505529048933 O
atom 11.1802929847924482 6.0577288082732030 20.4717659784906942 O
atom 0.3460643021261071 8.4728602626220013 19.0526053315893087 O
atom 9.7432870957458704 6.2746238661804830 18.0554760598316264 O
atom 0.0475482839375818 7.2987279445256767 17.4674654142371750 Mo
atom 7.2263681583787989 4.9242462260637776 19.6759050623250928 Mo
atom 7.4467966195753377 8.7002055058709171 21.5016234088640630 O
atom 1.3376047621778075 5.8992203891756327 18.1047762073102945 O
atom 10.1640101052939364 8.3900851914154444 21.5044274591976006 O
atom 8.4616301135361081 6.3644473371938339 20.4643696028226216 O
atom 3.0426602935358402 2.4008066999403614 22.1078122930677523 Mo
atom 1.5964058115883151 0.0160513795250918 19.6006341747085102 Mo
atom 1.7509356354867571 3.7938474432084717 21.5450505997706152 O
atom 7.0189726702225093 0.9917893181701239 18.0314646375978782 O
atom 4.5600638833969187 3.5720541384365347 21.5515718291598048 O
atom 2.7248717237323130 1.3718329233780928 20.4210116669190285 O
atom 4.2420425277736840 2.5430422897911127 19.8653400820016657 Mo
atom 2.8315144182364684 0.0132373747540344 17.4323445109126389 Mo
atom 3.0368798529436489 3.9443915569236210 19.0805913256386859 O
atom 5.5344688604537318 1.1509953986492383 20.4277088096653934 O
atom 5.9080981242623967 3.4765289819490985 19.0165508115274804 O
atom 4.1459958105361610 1.4566716423810953 18.0891242438979774 O
atom 3.0013764987082281 7.4560280207236396 22.0731026742214347 Mo
atom 1.4210968317376158 4.9234278929630877 19.9393685220766095 Mo
atom 1.7125025563075198 8.8534560973385332 21.4357344737226221 O
atom 6.9113383362083729 6.0526801693250185 18.0390289727643385 O
atom 4.6160671550003975 8.4787142297107430 21.4832422557942486 O
atom 2.7032148788712909 6.2802971943951720 20.4889298283369570 O
atom 4.3170761498828742 7.3033668743702735 19.8989654732506018 Mo
atom 0.1873329193501931 4.9297222843372612 22.1077384636583822 Mo
atom 3.1766902081321602 8.6955739147518454 19.0682503584351757 O
atom 5.6052095571805545 5.9033274561010574 20.5350292233394391 O
atom 5.8947832637954276 8.3853134324935752 19.0727653195805615 O
atom 4.1921284926556490 6.3603858748050230 18.0329251337577610 O
atom 7.3121452709236801 2.4055512655431825 24.5386273484546038 Mo
atom 3.0959167760524879 0.0300963240549160 26.8961150077495148 Mo
atom 6.0191507302117762 3.7979595848878147 23.9761916183335764 O
atom 8.5160367965956496 1.0052093716899826 25.3254906750209727 O
atom 8.8290531122246882 3.5769769708608319 23.9854584662723838 O
atom 6.9951842252269243 1.3771683930696537 22.8521513533783676 O
atom 8.5121352978316231 2.5498805092171750 22.2972976138433303 Mo
atom 4.3320236724102621 0.0269602749409706 24.7277359448491225 Mo
atom 4.5362091396787978 3.9564910738489139 26.3754090394725331 O
atom 9.8036588126585595 1.1551960530754135 22.8600306858097042 O
atom 7.4059801098208569 3.4903554303122561 26.3137438140761262 O
atom 5.6449572319246739 1.4703876605973965 25.3861088810675710 O
atom 7.2701267565175929 7.4576820250394356 24.5046622175239293 Mo
atom 5.6877196576541271 4.9265967572268501 22.3706946947378071 Mo
atom 5.9815266140546957 8.8585547024179760 23.8677185253294581 O
atom 8.4092723185830014 6.0664037647952718 25.3356339509152590 O
atom 8.8844353110320977 8.4815352191440709 23.9164733040138699 O
atom 6.9722664295364227 6.2832988227025517 22.9193440322561841 O
atom 8.5859192928435704 7.3074029010477455 22.3313333866617363 Mo
atom 4.4553474921693503 4.9329211825858472 24.5397730347496541 Mo
atom 4.6757759533658874 8.7088804623929867 26.3654913812886207 O
atom 9.8759757710837981 5.9078953456977015 22.9686441797348557 O
atom 7.3929894390844817 8.3987601479375140 26.3682954316221618 O
atom 5.6906094473266524 6.3731222937159027 25.3282375752471793 O
atom 0.2716396273263799 2.4094816564624306 26.9716802654923171 Mo
atom 10.1347768204943005 0.0247263360471608 24.4645021471330715 Mo
atom 10.2893066443927452 3.8025223997305408 26.4089185721951729 O
atom 4.2479520040130589 1.0004642746921930 22.8953326100224395 O
atom 1.7890432171874631 3.5807290949586035 26.4154398015843661 O
atom 11.2632427326382967 1.3805078799001618 25.2848796393435933 O
atom 1.4710218615642392 2.5517172463131819 24.7292080544262269 Mo
atom 0.0604937520270177 0.0219123312761034 22.2962124833372002 Mo
atom 0.2658591867341935 3.9530665134456902 23.9444592980632507 O
atom 2.7634481942442810 1.1596703551713072 25.2915767820899546 O
atom 3.1370774580529335 3.4852039384711673 23.8804187839520381 O
atom 1.3749751443267049 1.4653465989031644 22.9529922163225351 O
atom 0.2303558324987879 7.4647029772457083 26.9369706466459995 Mo
atom 9.9594678406435992 4.9321028494851582 24.8032364945011707 Mo
atom 10.2508735652135083 8.8621310538606028 26.2996024461471833 O
atom 4.1403176699989226 6.0613551258470872 22.9028969451888962 O
atom 1.8450464887909450 8.4873891862328144 26.3471102282188099 O
atom 11.2415858877772799 6.2889721509172416 25.3527978007615182 O
atom 1.5460554836734288 7.3120418308923441 24.7628334456751631 Mo
atom 8.7257039282561859 4.9383972408593300 26.9716064360829435 Mo
atom 0.4056695419227047 8.7042488712739150 23.9321183308597369 O
atom 2.8341888909711068 5.9120024126231270 25.3988971957640004 O
atom 3.1237625975859769 8.3939883890156448 23.9366332920051228 O
atom 1.4211078264461978 6.3690608313270927 22.8967931061823222 O
atom 4.5411246047142235 2.4142262220652522 29.4024953208791651 Mo
atom 3.2481300640023307 3.8066345414098834 28.8400595907581376 O
atom 6.0580324460152477 3.5856519273829006 28.8493264386969486 O
atom 4.2241635590174722 1.3858433495917224 27.7160193258029253 O
atom 5.7411146316221782 2.5585554657392442 27.1611655862678916 Mo
atom 7.0326381464491003 1.1638710095974827 27.7238986582342619 O
atom 4.4991060903081381 7.4663569815615043 29.3685301899484941 Mo
atom 2.9166989914446710 4.9352717137489188 27.2345626671623684 Mo
atom 3.2105059478452347 8.8672296589400439 28.7315864977540159 O
atom 6.1134146448226456 8.4902101756661406 28.7803412764384277 O
atom 4.2012457633269724 6.2919737792246213 27.7832120046807489 O
atom 5.8148986266341218 7.3160778575698142 27.1952013590862975 Mo
atom 1.6843268259598998 4.9415961391079177 29.4036410071742154 Mo
atom 7.1049551048743398 5.9165703022197702 27.8325121521594170 O
atom 7.3637561542848529 0.0334012925692298 29.3283701195576327 Mo
atom 1.4769313378036180 1.0091392312142620 27.7592005824469936 O
atom 8.5988647609330062 0.0305872877981724 27.1600804557617614 Mo
atom 8.8042301956401765 3.9617414699677589 28.8083272704878084 O
atom 0.3660567918434879 3.4938788949932365 28.7442867563765994 O
atom 9.9133461532326876 1.4740215554252336 27.8168601887470999 O
atom 1.3692970037894672 6.0700300823691569 27.7667649176134574 O
atom 8.9440405508286975 8.7129238277959828 28.7959863032842946 O
atom 0.3527419313765264 8.4026633455377127 28.8005012644296841 O
atom 9.9594788353521917 6.3777357878491614 27.7606610786068835 O
