#===============================================================================
# Created using the Atomic Simulation Environment (ASE)

# Mon Mar 23 14:01:05 2026

#=======================================================
lattice_vector 9.8126889492172058 0.0000000000000000 0.0000000000000000 
lattice_vector -0.0003216163056373 5.5978426502690191 0.0000000000000000 
lattice_vector 0.0000000000000000 0.0000000000000000 54.2699983839787308 
atom 1.0145722206078527 1.3559447154873387 15.1041172406903677 O
atom 1.1689578015417237 4.1731079983017789 15.0000000000000000 O
atom 6.0750869482437819 1.4239315217305368 15.0000640721409297 O
atom 5.9214944825287485 4.2389767946555494 15.1011844809668787 O
atom 2.4296001613016700 1.2692095058583539 18.5760245488805360 Mo
atom 0.0404691319671726 5.4008707738354955 16.0863368063912908 Mo
atom 3.8178032447395212 1.4228092162151527 17.1702261676324888 O
atom 1.0331742590939121 1.3547056597815428 20.0155214148958223 O
atom 3.6059445577033742 0.0395602609950581 19.6168991762759823 O
atom 1.3998720317220028 5.5569504473951392 17.4686887091009559 O
atom 2.5775029725305161 4.3258179266094015 18.5087632351931894 Mo
atom 0.0413463026520678 2.9049066984832752 16.0869845523327264 Mo
atom 3.9715193096857844 4.2417814962448341 17.0689400203908228 O
atom 1.1870189883892259 4.1732010941195519 19.9134370849271356 O
atom 3.5147032573854475 2.7668710133814245 19.5332104238102602 O
atom 1.4890287132655669 2.8293526419061323 17.5495984094536190 O
atom 7.4815678748796088 1.2686171471475589 18.5084503911170799 Mo
atom 4.9453584289010486 0.1936983557732654 16.0843189000760312 Mo
atom 8.8782495388027964 1.3553164947409364 17.0695635278804012 O
atom 6.0939953511962059 1.4245031582199963 19.9134998115174788 O
atom 8.5103351472995712 5.5579302105242521 19.6170350967494507 O
atom 6.3062238145177290 0.0367198985850373 17.4681975672241983 O
atom 7.3352398410578266 4.3265128364549188 18.5763000953272304 Mo
atom 4.9476817430116373 2.6884263948585820 16.0872533402929498 Mo
atom 8.7243367755982266 4.1717142623773498 17.1718908544266320 O
atom 5.9399280201772351 4.2394137413996491 20.0166302073676441 O
atom 8.4230399297562037 2.8285890899181791 19.5350807708107190 O
atom 6.3918857237882456 2.7643501405082977 17.5467868673956247 O
atom 2.4473900993433197 1.2700878015118588 23.4895602047876402 Mo
atom 0.0576302527859038 5.4015729750128205 20.9985698844292337 Mo
atom 3.8362297262328142 1.4227766927726992 22.0847020548925563 O
atom 1.0509682116497852 1.3554616887181308 24.9305988843050095 O
atom 3.6235578393838668 0.0375240230009660 24.5293455910989415 O
atom 1.4170683821101890 5.5579553644624387 22.3813463161268338 O
atom 2.5931972944947561 4.3260010464297283 23.4212111528375324 Mo
atom 0.0588262250216790 2.9061812635711424 20.9983935841170712 Mo
atom 3.9906264376994480 4.2429730634280576 21.9816537223504973 O
atom 1.2053537925836562 4.1726249715325716 24.8264816436146383 O
atom 3.5320881619394568 2.7652795214292585 24.4460107142780281 O
atom 1.5065205428368671 2.8284767100906953 22.4615636350190577 O
atom 7.5024507432952987 1.2684898395366171 23.4222471752690815 Mo
atom 4.9647333523739245 0.1927182731961010 21.0000839590775712 Mo
atom 8.8956869356773094 1.3549503385190842 21.9829219910001363 O
atom 6.1114829392857155 1.4234484949613289 24.8265457157555751 O
atom 8.5300522772979281 5.5561595395329801 24.5303397473184113 O
atom 6.3257580878526403 0.0377347352542227 22.3823033301165317 O
atom 7.3537403981006522 4.3257253014726720 23.4896227352434757 Mo
atom 4.9670221141464816 2.6875196854294594 21.0014585556054918 Mo
atom 8.7422376699509368 4.1706777618345088 22.0836199870491647 O
atom 5.9578904735706821 4.2384937678863412 24.9276661245815170 O
atom 8.4408035126983485 2.8286035438347148 24.4484214698785003 O
atom 6.4103587074081432 2.7646908862186175 22.4599945638821872 O
atom 2.4659961523436018 1.2687264790891457 28.4025061924951778 Mo
atom 0.0768651230091051 5.4003877470662882 25.9128184500059326 Mo
atom 3.8541992357814538 1.4223261894459447 26.9967078112471306 O
atom 1.0695702501358446 1.3542226330123348 29.8420030585104605 O
atom 3.6423405487453069 0.0390772342258501 29.4433808198906242 O
atom 1.4362680227639353 5.5564674206259319 27.2951703527155978 O
atom 2.6138989635724492 4.3253348998401924 28.3352448788078242 Mo
atom 0.0777422936940003 2.9044236717140679 25.9134661959473682 Mo
atom 4.0079153007277162 4.2412984694756259 26.8954216640054646 O
atom 1.2234149794311584 4.1727180673503454 29.7399187285417703 O
atom 3.5510992484273802 2.7663879866122172 29.3596920674248985 O
atom 1.5254247043074993 2.8288696151369246 27.3760800530682538 O
atom 7.5179638659215424 1.2681341203783507 28.3349320347317253 Mo
atom 4.9817544199429822 0.1932153290040575 25.9108005436906730 Mo
atom 8.9146455298447300 1.3548334679717282 26.8960451714950430 O
atom 6.1303913422381378 1.4240201314507881 29.7399814551321207 O
atom 8.5467311383415048 5.5574471837550439 29.4435167403640925 O
atom 6.3426198055596608 0.0362368718158293 27.2946792108388401 O
atom 7.3716358320997601 4.3260298096857106 28.4027817389418722 Mo
atom 4.9840777340535709 2.6879433680893743 25.9137349839075846 Mo
atom 8.7607327666401602 4.1712312356081425 26.9983724980412738 O
atom 5.9763240112191687 4.2389307146304418 29.8431118509822788 O
atom 8.4594359207981373 2.8281060631489718 29.3615624144253609 O
atom 6.4282817148301774 2.7638671137390900 27.3732685110102629 O
atom 2.4837860903852520 1.2696047747426504 33.3160418484022784 Mo
atom 0.0940262438278363 5.4010899482436123 30.8250515280438755 Mo
atom 3.8726257172747469 1.4222936660034911 31.9111836985071982 O
atom 1.0873642026917176 1.3549786619489226 34.7570805279196549 O
atom 3.6599538304257995 0.0370409962317581 34.3558272347135869 O
atom 1.4534643731521213 5.5574723376932305 32.2078279597414792 O
atom 2.6295932855366884 4.3255180196605201 33.2476927964521707 Mo
atom 0.0952222160636115 2.9056982368019342 30.8248752277317131 Mo
atom 4.0270224287413798 4.2424900366588503 31.8081353659651391 O
atom 1.2417497836255886 4.1721419447633634 34.6529632872292837 O
atom 3.5684841529813895 2.7647964946600503 34.2724923578926735 O
atom 1.5429165338787996 2.8279936833214876 32.2880452786336889 O
atom 7.5388467343372305 1.2680068127674091 33.2487288188837198 Mo
atom 5.0011293434158564 0.1922352464268930 30.8265656026922095 Mo
atom 8.9320829267192412 1.3544673117498760 31.8094036346147782 O
atom 6.1478789303276473 1.4229654681921209 34.6530273593702134 O
atom 8.5664482683398635 5.5556765127637728 34.3568213909330638 O
atom 6.3621540788945738 0.0372517084850148 32.2087849737311842 O
atom 7.3901363891425840 4.3252422747034638 33.3161043788581139 Mo
atom 5.0034181051884152 2.6870366586602517 30.8279401992201336 Mo
atom 8.7786336609928686 4.1701947350653006 31.9101016306638066 O
atom 5.9942864646126139 4.2380107411171339 34.7541477681961624 O
atom 8.4771995037402803 2.8281205170655062 34.2749031134931386 O
atom 6.4467546984500768 2.7642078594494102 32.2864762074968326 O
atom 2.5023921433855345 1.2682434523199380 38.2289878361098232 Mo
atom 0.1132611140510375 5.3999047202970800 35.7393000936205709 Mo
atom 3.8905952268233870 1.4218431626767367 36.8231894548617760 O
atom 3.6787365397872391 0.0385942074566422 39.2698624635052767 O
atom 1.4726640138058678 5.5559843938567237 37.1216519963302432 O
atom 2.6502949546143810 4.3248518730709851 38.1617265224224695 Mo
atom 0.1141382847359327 2.9039406449448597 35.7399478395620065 Mo
atom 4.0443112917696489 4.2408154427064186 36.7219033076201100 O
atom 3.5874952394693120 2.7659049598430090 39.1861737110395438 O
atom 1.5618206953494318 2.8283865883677168 37.2025616966829062 O
atom 7.5543598569634742 1.2676510936091425 38.1614136783463636 Mo
atom 5.0181504109849140 0.1927323022348495 35.7372821873053113 Mo
atom 8.9510415208866618 1.3543504412025202 36.7225268151096884 O
atom 8.5831271293834366 5.5569641569858366 39.2699983839787308 O
atom 6.3790157966015935 0.0357538450466214 37.1211608544534926 O
atom 7.4080318231416920 4.3255467829165024 38.2292633825565105 Mo
atom 5.0204737250955027 2.6874603413201665 35.7402166275222299 Mo
atom 8.7971287576820920 4.1707482088389343 36.8248541416559192 O
atom 8.4958319118400691 2.8276230363797641 39.1880440580400062 O
atom 6.4646777058721110 2.7633840869698822 37.1997501546249083 O
