#===============================================================================
# Created using the Atomic Simulation Environment (ASE)

# Mon Mar 23 14:01:06 2026

#=======================================================
lattice_vector 13.8613002900044648 0.0000000000000000 0.0000000000000000 
lattice_vector -0.0000317652287253 5.5978426594179016 0.0000000000000000 
lattice_vector 0.0000000000000000 0.0000000000000000 40.0352312718634309 
atom 0.0985083468689073 4.3293370785887175 16.5108123320114970 Mo
atom 11.9841205241493611 4.1758059146329147 16.5034351006124780 O
atom 2.1038769894789384 4.2437720746482261 16.5361373650284307 O
atom 0.0067739468184076 5.5590533861309144 18.0788129688437422 O
atom 0.0396132564055117 0.0415366482514989 15.0000000000000000 O
atom 13.8077046022038630 1.2727362972629719 16.5683483201463133 Mo
atom 11.8038040071779733 1.3568414475395079 16.5410849982677348 O
atom 1.9229038993314864 1.4252844569121870 16.5733155017813658 O
atom 0.0117026567071502 2.8317374240274735 17.9552165573672085 O
atom 0.0341847144712838 2.7691395408519024 15.1201585335872650 O
atom 10.4190895753300072 5.4049726743454185 16.5368416923738693 Mo
atom 10.4403368935416960 5.5620294384840587 18.4776144053636528 O
atom 10.4999788402143892 1.2722959667585543 19.9888120182581233 Mo
atom 10.4194442897521089 2.9102447748330245 16.5406599771288967 Mo
atom 8.5246558286285286 1.4271631401598481 19.9830356426605036 O
atom 10.4355381284981750 2.8344040953743872 18.5938810684083933 O
atom 3.5692395806814865 4.3284794998650602 19.9889115057507567 Mo
atom 3.4886790349630594 0.1968565756258570 16.5380628203444715 Mo
atom 1.5937690933428159 4.1758591928103765 19.9826486319630376 O
atom 3.5101406777676369 0.0405524128539536 18.4770590931199763 O
atom 3.4877974982041677 2.6922483466997771 16.5386846826471015 Mo
atom 3.5040129621581224 2.7700361673428726 18.5969386871399536 O
atom 6.8770474819619540 4.3298228892011812 16.5686825993735951 Mo
atom 4.8740442383321492 4.2434310706792617 16.5412244235565140 O
atom 8.8536115239523632 4.1747955340070764 16.5730546179943943 O
atom 6.9376800778340666 0.0422125796995017 18.0788703490772775 O
atom 6.9697730904784727 5.5605109123994092 15.0009913401512307 O
atom 7.0295890064254118 1.2725797539188501 16.5109037308093534 Mo
atom 5.0535592810699930 1.4276958544172604 16.5035783440317800 O
atom 9.0335270432558943 1.3597424621795371 16.5356049193161425 O
atom 6.9426486666720804 2.7697634714701604 17.9577130061018337 O
atom 6.9650862176591914 2.8335595999075083 15.1158722107852341 O
atom 7.0389772669495896 4.3298615804647822 23.4671732547976433 Mo
atom 6.9588966308308988 0.1980626006007810 20.0176890548851034 Mo
atom 5.0632891542255871 4.1763304165089785 23.4597960233986313 O
atom 9.0443459095596079 4.2442965765242917 23.4924982878145769 O
atom 6.9472428668990895 5.5595778880069799 25.0351738916298956 O
atom 6.9800821764861816 0.0420611501275637 21.9563609227861463 O
atom 6.8868732322800810 1.2732607991390366 23.5247092429324667 Mo
atom 6.9588241414899077 2.6940267218589842 20.0186660856620406 Mo
atom 4.8829726372541931 1.3573659494155728 23.4974459210538882 O
atom 8.8633728194121755 1.4258089587882514 23.5296764245675192 O
atom 6.9521715767878325 2.8322619259035382 24.9115774801533618 O
atom 6.9746536345519665 2.7696640427279666 22.0765194563734113 O
atom 10.3487814409619414 4.3301992001660112 20.0445675928996394 Mo
atom 3.4982582054062226 5.4054971762214832 23.4932026151600155 Mo
atom 8.3436588506371123 4.2435687189620364 20.0198611179816055 O
atom 12.3234830894646699 4.1742446738285857 20.0518762050918866 O
atom 10.4089406719756496 0.0409455915764426 21.5559289177136506 O
atom 3.4986129198283273 2.9107692767090887 23.4970208999150501 Mo
atom 12.5051584428005533 1.3593262744497225 20.0155074938011737 O
atom 10.4125059425411468 2.7702817125271366 21.4361309757578979 O
atom 10.4291479550437476 0.1973810775019218 23.4944237431306178 Mo
atom 5.5756984106297107 4.2430367690582544 20.0153268116647354 O
atom 3.4768576976969454 5.5611103272263707 21.5560185542737628 O
atom 3.4178424820289601 1.2725737779821760 20.0441946768601653 Mo
atom 10.4282664182848581 2.6927728485758418 23.4950456054332548 Mo
atom 1.4117232384263421 1.3556706643856842 20.0195382410497444 O
atom 5.3929027468447339 1.4258813235752086 20.0514545120306451 O
atom 3.4821983328219512 2.8333496082981284 21.4325098473707172 O
atom 13.8175164020426404 4.3303473910772459 23.5250435221597485 Mo
atom 0.0289831600293753 5.4059735675378171 20.0176367949263323 Mo
atom 11.8145131584128293 4.2439555725553264 23.4975853463426603 O
atom 1.9327801540285818 4.1753200358831410 23.5294155407805476 O
atom 0.0168487079102901 0.0427370815755665 25.0352312718634309 O
atom 0.0489417205546904 5.5610354142754739 21.9573522629373841 O
atom 0.1087576365016266 1.2731042557949150 23.4672646535955067 Mo
atom 0.0282564450959844 2.9111722867557210 20.0203304394920991 Mo
atom 11.9940282011506767 1.4282203562933253 23.4599392668179263 O
atom 2.1126956733321118 1.3602669640556018 23.4919658421022817 O
atom 0.0218172967483077 2.7702879733462251 24.9140739288879800 O
atom 0.0442548477354068 2.8340841017835730 22.0722331335713804 O
