#===============================================================================
# Created using the Atomic Simulation Environment (ASE)

# Mon Mar 23 14:01:05 2026

#=======================================================
lattice_vector 11.3093916751154389 0.0000000000000000 0.0000000000000000 
lattice_vector 0.0318583412982305 9.8126372326800713 0.0000000000000000 
lattice_vector 0.0000000000000000 0.0000000000000000 37.1074285238370152 
atom 7.3121452709236801 2.4055512655431825 17.2424148651174036 Mo
atom 3.0959167760524879 0.0300963240549160 19.5999025244123146 Mo
atom 6.0191507302117762 3.7979595848878147 16.6799791349963762 O
atom 8.5160367965956496 1.0052093716899826 18.0292781916837725 O
atom 8.8290531122246882 3.5769769708608319 16.6892459829351836 O
atom 6.9951842252269243 1.3771683930696537 15.5559388700411674 O
atom 8.5121352978316231 2.5498805092171750 15.0010851305061301 Mo
atom 4.3320236724102621 0.0269602749409706 17.4315234615119223 Mo
atom 4.5362091396787978 3.9564910738489139 19.0791965561353329 O
atom 9.8036588126585595 1.1551960530754135 15.5638182024725040 O
atom 7.4059801098208569 3.4903554303122561 19.0175313307389260 O
atom 5.6449572319246739 1.4703876605973965 18.0898963977303708 O
atom 7.2701267565175929 7.4576820250394356 17.2084497341867291 Mo
atom 5.6877196576541271 4.9265967572268501 15.0744822114006070 Mo
atom 5.9815266140546957 8.8585547024179760 16.5715060419922580 O
atom 8.4092723185830014 6.0664037647952718 18.0394214675780589 O
atom 8.8844353110320977 8.4815352191440709 16.6202608206766698 O
atom 6.9722664295364227 6.2832988227025517 15.6231315489189839 O
atom 8.5859192928435704 7.3074029010477455 15.0351209033245361 Mo
atom 4.4553474921693503 4.9329211825858472 17.2435605514124539 Mo
atom 4.6757759533658874 8.7088804623929867 19.0692788979514205 O
atom 9.8759757710837981 5.9078953456977015 15.6724316963976555 O
atom 7.3929894390844817 8.3987601479375140 19.0720829482849616 O
atom 5.6906094473266524 6.3731222937159027 18.0320250919099792 O
atom 0.2716396273263799 2.4094816564624306 19.6754677821551169 Mo
atom 10.1347768204943005 0.0247263360471608 17.1682896637958713 Mo
atom 10.2893066443927452 3.8025223997305408 19.1127060888579727 O
atom 4.2479520040130589 1.0004642746921930 15.5991201266852393 O
atom 1.7890432171874631 3.5807290949586035 19.1192273182471659 O
atom 11.2632427326382967 1.3805078799001618 17.9886671560063931 O
atom 1.4710218615642392 2.5517172463131819 17.4329955710890268 Mo
atom 0.0604937520270177 0.0219123312761034 15.0000000000000000 Mo
atom 0.2658591867341935 3.9530665134456902 16.6482468147260505 O
atom 2.7634481942442810 1.1596703551713072 17.9953642987527545 O
atom 3.1370774580529335 3.4852039384711673 16.5842063006148379 O
atom 1.3749751443267049 1.4653465989031644 15.6567797329853349 O
atom 0.2303558324987879 7.4647029772457083 19.6407581633087993 Mo
atom 9.9594678406435992 4.9321028494851582 17.5070240111639706 Mo
atom 10.2508735652135083 8.8621310538606028 19.0033899628099832 O
atom 4.1403176699989226 6.0613551258470872 15.6066844618516960 O
atom 1.8450464887909450 8.4873891862328144 19.0508977448816097 O
atom 11.2415858877772799 6.2889721509172416 18.0565853174243180 O
atom 1.5460554836734288 7.3120418308923441 17.4666209623379629 Mo
atom 8.7257039282561859 4.9383972408593300 19.6753939527457433 Mo
atom 0.4056695419227047 8.7042488712739150 16.6359058475225368 O
atom 2.8341888909711068 5.9120024126231270 18.1026847124268002 O
atom 3.1237625975859769 8.3939883890156448 16.6404208086679226 O
atom 1.4211078264461978 6.3690608313270927 15.6005806228451220 O
atom 4.5411246047142235 2.4142262220652522 22.1062828375419649 Mo
atom 3.2481300640023307 3.8066345414098834 21.5438471074209374 O
atom 6.0580324460152477 3.5856519273829006 21.5531139553597484 O
atom 4.2241635590174722 1.3858433495917224 20.4198068424657251 O
atom 5.7411146316221782 2.5585554657392442 19.8649531029306914 Mo
atom 7.0326381464491003 1.1638710095974827 20.4276861748970617 O
atom 4.4991060903081381 7.4663569815615043 22.0723177066112939 Mo
atom 2.9166989914446710 4.9352717137489188 19.9383501838251682 Mo
atom 3.2105059478452347 8.8672296589400439 21.4353740144168157 O
atom 6.1134146448226456 8.4902101756661406 21.4841287931012275 O
atom 4.2012457633269724 6.2919737792246213 20.4869995213435487 O
atom 5.8148986266341218 7.3160778575698142 19.8989888757490974 Mo
atom 1.6843268259598998 4.9415961391079177 22.1074285238370152 Mo
atom 7.1049551048743398 5.9165703022197702 20.5362996688222168 O
atom 7.3637561542848529 0.0334012925692298 22.0321576362204326 Mo
atom 1.4769313378036180 1.0091392312142620 20.4629880991097934 O
atom 8.5988647609330062 0.0305872877981724 19.8638679724245613 Mo
atom 8.8042301956401765 3.9617414699677589 21.5121147871506082 O
atom 0.3660567918434879 3.4938788949932365 21.4480742730393992 O
atom 9.9133461532326876 1.4740215554252336 20.5206477054098997 O
atom 1.3692970037894672 6.0700300823691569 20.4705524342762573 O
atom 8.9440405508286975 8.7129238277959828 21.4997738199470945 O
atom 0.3527419313765264 8.4026633455377127 21.5042887810924839 O
atom 9.9594788353521917 6.3777357878491614 20.4644485952696833 O
