#===============================================================================
# Created using the Atomic Simulation Environment (ASE)

# Mon Mar 23 14:01:06 2026

#=======================================================
lattice_vector 13.8613002900044648 0.0000000000000000 0.0000000000000000 
lattice_vector -0.0000317652287253 5.5978426594179016 0.0000000000000000 
lattice_vector 0.0000000000000000 0.0000000000000000 46.9915921946495843 
atom 7.0193397167926834 4.3288125767126528 16.5108123320114935 Mo
atom 5.0436516040686810 4.1752814127568501 16.5034351006124815 O
atom 9.0247083594027160 4.2432475727721615 16.5361373650284342 O
atom 6.9276053167421869 5.5585288842548506 18.0788129688437387 O
atom 6.9604446263292878 0.0410121463754341 15.0000000000000000 O
atom 6.8672356821231810 1.2722117953869068 16.5683483201463169 Mo
atom 4.8633350870972869 1.3563169456634427 16.5410849982677348 O
atom 8.8437352692552693 1.4247599550361219 16.5733155017813694 O
atom 6.9325340266309290 2.8312129221514084 17.9552165573672049 O
atom 6.9550160843950657 2.7686150389758373 15.1201585335872650 O
atom 3.4786206552493226 5.4044481724693538 16.5368416923738657 Mo
atom 3.4998679734610141 5.5615049366079941 18.4776144053636493 O
atom 3.5595099201337024 1.2717714648824894 19.9888120182581268 Mo
atom 3.4789753696714367 2.9097202729569589 16.5406599771289002 Mo
atom 1.5841869085478477 1.4266386382837832 19.9830356426605071 O
atom 3.4950692084174912 2.8338795934983225 18.5938810684083897 O
atom 10.4900709506052721 4.3279549979889955 19.9889115057507532 Mo
atom 10.4095104048868450 0.1963320737497922 16.5380628203444644 Mo
atom 8.5146004632665946 4.1753346909343110 19.9826486319630341 O
atom 10.4309720476914247 0.0400279109778887 18.4770590931199798 O
atom 10.4086288681279502 2.6917238448237124 16.5386846826471015 Mo
atom 10.4248443320819071 2.7695116654668075 18.5969386871399536 O
atom 13.7978788518857414 4.3292983873251165 16.5686825993735987 Mo
atom 11.7948756082559321 4.2429065688031971 16.5412244235565176 O
atom 1.9131426038716848 4.1742710321310117 16.5730546179943978 O
atom 13.8585114477578504 0.0416880778234369 18.0788703490772811 O
atom 0.0293041703977902 5.5599864105233445 15.0009913401512307 O
atom 0.0891200863447264 1.2720552520427852 16.5109037308093569 Mo
atom 11.9743906509937723 1.4271713525411955 16.5035783440317765 O
atom 2.0930581231752150 1.3592179603034720 16.5356049193161390 O
atom 0.0021797465914044 2.7692389695940958 17.9577130061018373 O
atom 0.0246172975785066 2.8330350980314432 15.1158722107852306 O
atom 0.0985083468689073 4.3293370785887175 23.4671732547976468 Mo
atom 0.0184277107502164 0.1975380987247161 20.0176890548851070 Mo
atom 11.9841205241493611 4.1758059146329147 23.4597960233986278 O
atom 2.1038769894789384 4.2437720746482261 23.4924982878145805 O
atom 0.0067739468184076 5.5590533861309144 25.0351738916298920 O
atom 0.0396132564055117 0.0415366482514989 21.9563609227861498 O
atom 13.8077046022038630 1.2727362972629719 23.5247092429324631 Mo
atom 0.0183552214092310 2.6935022199829191 20.0186660856620335 Mo
atom 11.8038040071779733 1.3568414475395079 23.4974459210538846 O
atom 1.9229038993314864 1.4252844569121870 23.5296764245675156 O
atom 0.0117026567071502 2.8317374240274735 24.9115774801533583 O
atom 0.0341847144712838 2.7691395408519024 22.0765194563734148 O
atom 3.4083125208812621 4.3296746982899466 20.0445675928996430 Mo
atom 10.4190895753300072 5.4049726743454185 23.4932026151600191 Mo
atom 1.4031899305564290 4.2430442170859717 20.0198611179816020 O
atom 5.3830141693839844 4.1737201719525210 20.0518762050918831 O
atom 3.4684717518949730 0.0404210897003778 21.5559289177136577 O
atom 10.4403368935416960 5.5620294384840587 25.4339753281498027 O
atom 10.4999788402143892 1.2722959667585543 26.9451729410442731 Mo
atom 10.4194442897521089 2.9102447748330245 23.4970208999150465 Mo
atom 8.5246558286285286 1.4271631401598481 26.9393965654466534 O
atom 5.5646895227198740 1.3588017725736581 20.0155074938011772 O
atom 3.4720370224604609 2.7697572106510724 21.4361309757579015 O
atom 10.4355381284981750 2.8344040953743872 25.5502419911945431 O
atom 3.5692395806814865 4.3284794998650602 26.9452724285369065 Mo
atom 3.4886790349630594 0.1968565756258570 23.4944237431306213 Mo
atom 1.5937690933428159 4.1758591928103765 26.9390095547491875 O
atom 12.4965297805534945 4.2425122671821898 20.0153268116647389 O
atom 10.3976890676207265 5.5605858253503051 21.5560185542737592 O
atom 3.5101406777676369 0.0405524128539536 25.4334200159061261 O
atom 10.3386738519527412 1.2720492761061108 20.0441946768601618 Mo
atom 3.4877974982041677 2.6922483466997771 23.4950456054332513 Mo
atom 8.3325546083501205 1.3551461625096193 20.0195382410497409 O
atom 12.3137341167685257 1.4253568216991437 20.0514545120306487 O
atom 10.4030297027457408 2.8328251064220633 21.4325098473707172 O
atom 3.5040129621581224 2.7700361673428726 25.5532996099261034 O
atom 6.8770474819619540 4.3298228892011812 23.5250435221597449 Mo
atom 6.9498145299531551 5.4054490656617524 20.0176367949263359 Mo
atom 4.8740442383321492 4.2434310706792617 23.4975853463426638 O
atom 8.8536115239523632 4.1747955340070764 23.5294155407805441 O
atom 6.9376800778340666 0.0422125796995017 25.0352312718634273 O
atom 6.9697730904784727 5.5605109123994092 21.9573522629373805 O
atom 7.0295890064254118 1.2725797539188501 23.4672646535955032 Mo
atom 6.9490878150197632 2.9106477848796559 20.0203304394920991 Mo
atom 5.0535592810699930 1.4276958544172604 23.4599392668179298 O
atom 9.0335270432558943 1.3597424621795371 23.4919658421022923 O
atom 6.9426486666720804 2.7697634714701604 24.9140739288879836 O
atom 6.9650862176591914 2.8335595999075083 22.0722331335713839 O
atom 7.0389772669495896 4.3298615804647822 30.4235341775837931 Mo
atom 6.9588966308308988 0.1980626006007810 26.9740499776712532 Mo
atom 5.0632891542255871 4.1763304165089785 30.4161569461847812 O
atom 9.0443459095596079 4.2442965765242917 30.4488592106007268 O
atom 6.9472428668990895 5.5595778880069799 31.9915348144160454 O
atom 6.9800821764861816 0.0420611501275637 28.9127218455722961 O
atom 6.8868732322800810 1.2732607991390366 30.4810701657186165 Mo
atom 6.9588241414899077 2.6940267218589842 26.9750270084481905 Mo
atom 4.8829726372541931 1.3573659494155728 30.4538068438400380 O
atom 8.8633728194121755 1.4258089587882514 30.4860373473536690 O
atom 6.9521715767878325 2.8322619259035382 31.8679384029395116 O
atom 6.9746536345519665 2.7696640427279666 29.0328803791595611 O
atom 10.3487814409619414 4.3301992001660112 27.0009285156857892 Mo
atom 3.4982582054062226 5.4054971762214832 30.4495635379461653 Mo
atom 8.3436588506371123 4.2435687189620364 26.9762220407677553 O
atom 12.3234830894646699 4.1742446738285857 27.0082371278780364 O
atom 10.4089406719756496 0.0409455915764426 28.5122898404998004 O
atom 3.4986129198283273 2.9107692767090887 30.4533818227011999 Mo
atom 12.5051584428005533 1.3593262744497225 26.9718684165873235 O
atom 10.4125059425411468 2.7702817125271366 28.3924918985440478 O
atom 10.4291479550437476 0.1973810775019218 30.4507846659167676 Mo
atom 5.5756984106297107 4.2430367690582544 26.9716877344508852 O
atom 3.4768576976969454 5.5611103272263707 28.5123794770599126 O
atom 3.4178424820289601 1.2725737779821760 27.0005555996463151 Mo
atom 10.4282664182848581 2.6927728485758418 30.4514065282194046 Mo
atom 1.4117232384263421 1.3556706643856842 26.9758991638358943 O
atom 5.3929027468447339 1.4258813235752086 27.0078154348167949 O
atom 3.4821983328219512 2.8333496082981284 28.3888707701568670 O
atom 13.8175164020426404 4.3303473910772459 30.4814044449458983 Mo
atom 0.0289831600293753 5.4059735675378171 26.9739977177124821 Mo
atom 11.8145131584128293 4.2439555725553264 30.4539462691288101 O
atom 1.9327801540285818 4.1753200358831410 30.4857764635666975 O
atom 0.0168487079102901 0.0427370815755665 31.9915921946495807 O
atom 0.0489417205546904 5.5610354142754739 28.9137131857235339 O
atom 0.1087576365016266 1.2731042557949150 30.4236255763816565 Mo
atom 0.0282564450959844 2.9111722867557210 26.9766913622782489 Mo
atom 11.9940282011506767 1.4282203562933253 30.4163001896040761 O
atom 2.1126956733321118 1.3602669640556018 30.4483267648884315 O
atom 0.0218172967483077 2.7702879733462251 31.8704348516741298 O
atom 0.0442548477354068 2.8340841017835730 29.0285940563575302 O
