#===============================================================================
# Created using the Atomic Simulation Environment (ASE)

# Mon Mar 23 14:01:05 2026

#=======================================================
lattice_vector 9.8126889492172058 0.0000000000000000 0.0000000000000000 
lattice_vector -0.0003216163056373 5.5978426502690191 0.0000000000000000 
lattice_vector 0.0000000000000000 0.0000000000000000 34.6170350967494471 
atom 1.0873642026917176 1.3549786619489226 15.1041172406903641 O
atom 1.2417497836255886 4.1721419447633634 15.0000000000000000 O
atom 6.1478789303276473 1.4229654681921209 15.0000640721409297 O
atom 5.9942864646126139 4.2380107411171339 15.1011844809668787 O
atom 2.5023921433855345 1.2682434523199380 18.5760245488805324 Mo
atom 0.1132611140510375 5.3999047202970800 16.0863368063912802 Mo
atom 3.8905952268233870 1.4218431626767367 17.1702261676324852 O
atom 3.6787365397872391 0.0385942074566422 19.6168991762759859 O
atom 1.4726640138058678 5.5559843938567237 17.4686887091009524 O
atom 2.6502949546143810 4.3248518730709851 18.5087632351931859 Mo
atom 0.1141382847359327 2.9039406449448597 16.0869845523327228 Mo
atom 4.0443112917696489 4.2408154427064186 17.0689400203908193 O
atom 3.5874952394693120 2.7659049598430090 19.5332104238102531 O
atom 1.5618206953494318 2.8283865883677168 17.5495984094536155 O
atom 7.5543598569634742 1.2676510936091425 18.5084503911170799 Mo
atom 5.0181504109849140 0.1927323022348495 16.0843189000760276 Mo
atom 8.9510415208866618 1.3543504412025202 17.0695635278803977 O
atom 8.5831271293834366 5.5569641569858366 19.6170350967494471 O
atom 6.3790157966015935 0.0357538450466214 17.4681975672242018 O
atom 7.4080318231416920 4.3255467829165024 18.5763000953272268 Mo
atom 5.0204737250955027 2.6874603413201665 16.0872533402929463 Mo
atom 8.7971287576820920 4.1707482088389343 17.1718908544266284 O
atom 8.4958319118400691 2.8276230363797641 19.5350807708107155 O
atom 6.4646777058721110 2.7633840869698822 17.5467868673956175 O
