#===============================================================================
# Created using the Atomic Simulation Environment (ASE)

# Mon Mar 23 14:01:05 2026

#=======================================================
lattice_vector 9.8126889492172058 0.0000000000000000 0.0000000000000000 
lattice_vector -0.0003216163056373 5.5978426502690191 0.0000000000000000 
lattice_vector 0.0000000000000000 0.0000000000000000 44.4435167403640961 
atom 1.0509682116497852 1.3554616887181308 15.1041172406903712 O
atom 1.2053537925836562 4.1726249715325716 15.0000000000000000 O
atom 6.1114829392857155 1.4234484949613289 15.0000640721409368 O
atom 5.9578904735706821 4.2384937678863412 15.1011844809668787 O
atom 2.4659961523436018 1.2687264790891457 18.5760245488805396 Mo
atom 0.0768651230091051 5.4003877470662882 16.0863368063912944 Mo
atom 3.8541992357814538 1.4223261894459447 17.1702261676324923 O
atom 1.0695702501358446 1.3542226330123348 20.0155214148958223 O
atom 3.6423405487453069 0.0390772342258501 19.6168991762759859 O
atom 1.4362680227639353 5.5564674206259319 17.4686887091009595 O
atom 2.6138989635724492 4.3253348998401924 18.5087632351931859 Mo
atom 0.0777422936940003 2.9044236717140679 16.0869845523327299 Mo
atom 4.0079153007277162 4.2412984694756259 17.0689400203908264 O
atom 1.2234149794311584 4.1727180673503454 19.9134370849271320 O
atom 3.5510992484273802 2.7663879866122172 19.5332104238102602 O
atom 1.5254247043074993 2.8288696151369246 17.5495984094536155 O
atom 7.5179638659215424 1.2681341203783507 18.5084503911170870 Mo
atom 4.9817544199429822 0.1932153290040575 16.0843189000760347 Mo
atom 8.9146455298447300 1.3548334679717282 17.0695635278804048 O
atom 6.1303913422381378 1.4240201314507881 19.9134998115174824 O
atom 8.5467311383415048 5.5574471837550439 19.6170350967494542 O
atom 6.3426198055596608 0.0362368718158293 17.4681975672242018 O
atom 7.3716358320997601 4.3260298096857106 18.5763000953272339 Mo
atom 4.9840777340535709 2.6879433680893743 16.0872533402929463 Mo
atom 8.7607327666401602 4.1712312356081425 17.1718908544266355 O
atom 5.9763240112191687 4.2389307146304418 20.0166302073676405 O
atom 8.4594359207981373 2.8281060631489718 19.5350807708107226 O
atom 6.4282817148301774 2.7638671137390900 17.5467868673956247 O
atom 2.4837860903852520 1.2696047747426504 23.4895602047876437 Mo
atom 0.0940262438278363 5.4010899482436123 20.9985698844292372 Mo
atom 3.8726257172747469 1.4222936660034911 22.0847020548925599 O
atom 1.0873642026917176 1.3549786619489226 24.9305988843050130 O
atom 3.6599538304257995 0.0370409962317581 24.5293455910989451 O
atom 1.4534643731521213 5.5574723376932305 22.3813463161268373 O
atom 2.6295932855366884 4.3255180196605201 23.4212111528375360 Mo
atom 0.0952222160636115 2.9056982368019342 20.9983935841170748 Mo
atom 4.0270224287413798 4.2424900366588503 21.9816537223505009 O
atom 1.2417497836255886 4.1721419447633634 24.8264816436146489 O
atom 3.5684841529813895 2.7647964946600503 24.4460107142780316 O
atom 1.5429165338787996 2.8279936833214876 22.4615636350190542 O
atom 7.5388467343372305 1.2680068127674091 23.4222471752690780 Mo
atom 5.0011293434158564 0.1922352464268930 21.0000839590775712 Mo
atom 8.9320829267192412 1.3544673117498760 21.9829219910001399 O
atom 6.1478789303276473 1.4229654681921209 24.8265457157555787 O
atom 8.5664482683398635 5.5556765127637728 24.5303397473184219 O
atom 6.3621540788945738 0.0372517084850148 22.3823033301165424 O
atom 7.3901363891425840 4.3252422747034638 23.4896227352434792 Mo
atom 5.0034181051884152 2.6870366586602517 21.0014585556054953 Mo
atom 8.7786336609928686 4.1701947350653006 22.0836199870491683 O
atom 5.9942864646126139 4.2380107411171339 24.9276661245815276 O
atom 8.4771995037402803 2.8281205170655062 24.4484214698785038 O
atom 6.4467546984500768 2.7642078594494102 22.4599945638821978 O
atom 2.5023921433855345 1.2682434523199380 28.4025061924951814 Mo
atom 0.1132611140510375 5.3999047202970800 25.9128184500059291 Mo
atom 3.8905952268233870 1.4218431626767367 26.9967078112471341 O
atom 3.6787365397872391 0.0385942074566422 29.4433808198906348 O
atom 1.4726640138058678 5.5559843938567237 27.2951703527156013 O
atom 2.6502949546143810 4.3248518730709851 28.3352448788078348 Mo
atom 0.1141382847359327 2.9039406449448597 25.9134661959473718 Mo
atom 4.0443112917696489 4.2408154427064186 26.8954216640054682 O
atom 3.5874952394693120 2.7659049598430090 29.3596920674249020 O
atom 1.5618206953494318 2.8283865883677168 27.3760800530682644 O
atom 7.5543598569634742 1.2676510936091425 28.3349320347317288 Mo
atom 5.0181504109849140 0.1927323022348495 25.9108005436906765 Mo
atom 8.9510415208866618 1.3543504412025202 26.8960451714950466 O
atom 8.5831271293834366 5.5569641569858366 29.4435167403640961 O
atom 6.3790157966015935 0.0357538450466214 27.2946792108388507 O
atom 7.4080318231416920 4.3255467829165024 28.4027817389418757 Mo
atom 5.0204737250955027 2.6874603413201665 25.9137349839075952 Mo
atom 8.7971287576820920 4.1707482088389343 26.9983724980412774 O
atom 8.4958319118400691 2.8276230363797641 29.3615624144253644 O
atom 6.4646777058721110 2.7633840869698822 27.3732685110102665 O
