#===============================================================================
# Created using the Atomic Simulation Environment (ASE)

# Mon Mar 23 14:01:05 2026

#=======================================================
lattice_vector 9.8126889492172058 0.0000000000000000 0.0000000000000000 
lattice_vector -0.0003216163056373 5.5978426502690191 0.0000000000000000 
lattice_vector 0.0000000000000000 0.0000000000000000 37.0621704242372587 
atom 2.4837860903852520 1.2696047747426504 16.1082138886608064 Mo
atom 1.0873642026917176 1.3549786619489226 17.5492525681781757 O
atom 3.6599538304257995 0.0370409962317581 17.1479992749721077 O
atom 1.4534643731521213 5.5574723376932305 15.0000000000000000 O
atom 2.6295932855366884 4.3255180196605201 16.0398648367106986 Mo
atom 1.2417497836255886 4.1721419447633634 17.4451353274878116 O
atom 3.5684841529813895 2.7647964946600503 17.0646643981511943 O
atom 1.5429165338787996 2.8279936833214876 15.0802173188922168 O
atom 7.5388467343372305 1.2680068127674091 16.0409008591422406 Mo
atom 6.1478789303276473 1.4229654681921209 17.4451993996287413 O
atom 8.5664482683398635 5.5556765127637728 17.1489934311915846 O
atom 6.3621540788945738 0.0372517084850148 15.0009570139897050 O
atom 7.3901363891425840 4.3252422747034638 16.1082764191166419 Mo
atom 5.9942864646126139 4.2380107411171339 17.5463198084546903 O
atom 8.4771995037402803 2.8281205170655062 17.0670751537516665 O
atom 6.4467546984500768 2.7642078594494102 15.0786482477553605 O
atom 2.5023921433855345 1.2682434523199380 21.0211598763683440 Mo
atom 0.1132611140510375 5.3999047202970800 18.5314721338790918 Mo
atom 3.8905952268233870 1.4218431626767367 19.6153614951202968 O
atom 3.6787365397872391 0.0385942074566422 22.0620345037637975 O
atom 1.4726640138058678 5.5559843938567237 19.9138240365887640 O
atom 2.6502949546143810 4.3248518730709851 20.9538985626809975 Mo
atom 0.1141382847359327 2.9039406449448597 18.5321198798205344 Mo
atom 4.0443112917696489 4.2408154427064186 19.5140753478786309 O
atom 3.5874952394693120 2.7659049598430090 21.9783457512980647 O
atom 1.5618206953494318 2.8283865883677168 19.9947337369414271 O
atom 7.5543598569634742 1.2676510936091425 20.9535857186048915 Mo
atom 5.0181504109849140 0.1927323022348495 18.5294542275638392 Mo
atom 8.9510415208866618 1.3543504412025202 19.5146988553682093 O
atom 8.5831271293834366 5.5569641569858366 22.0621704242372587 O
atom 6.3790157966015935 0.0357538450466214 19.9133328947120134 O
atom 7.4080318231416920 4.3255467829165024 21.0214354228150384 Mo
atom 5.0204737250955027 2.6874603413201665 18.5323886677807579 Mo
atom 8.7971287576820920 4.1707482088389343 19.6170261819144400 O
atom 8.4958319118400691 2.8276230363797641 21.9802160982985271 O
atom 6.4646777058721110 2.7633840869698822 19.9919221948834291 O
