#===============================================================================
# Created using the Atomic Simulation Environment (ASE)

# Mon Mar 23 14:01:04 2026

#=======================================================
lattice_vector 9.8265490582286468 0.0000000000000000 0.0000000000000000 
lattice_vector 0.0363446553796943 9.8126216415448742 0.0000000000000000 
lattice_vector 0.0000000000000000 0.0000000000000000 35.6755067471095515 
atom 0.0018528985206292 0.0034230689491665 17.5721121556720306 Mo
atom 1.3892226598996293 1.3576966587748864 17.7282597794038672 O
atom 2.4337123269183989 2.5314670254390181 16.4971783856106100 Mo
atom 0.0026265787330787 0.0042973800414468 15.0761481151756271 Mo
atom 0.9990663378938411 3.9308066639469703 16.4130711799490072 O
atom 3.8332339080521907 1.1357898603452086 16.3446306009149822 O
atom 1.4705961033237633 1.4465525553766256 15.0006659543764158 O
atom 3.5638902969645390 8.4601538652302342 17.7293451458241194 O
atom 2.5188705980675707 7.2889211136936565 16.4978766152713234 Mo
atom 1.1196235976287396 8.6832102026617424 16.3430090067779474 O
atom 3.9540270947994682 5.8882840917211094 16.4108483206366955 O
atom 3.4817473670508057 8.3731622954734188 15.0000000000000000 O
atom 4.9141158039699091 0.0023899340552312 17.5730558206965526 Mo
atom 6.3019102070290725 1.3566971808753217 17.7295061811859789 O
atom 7.3461846632236822 2.5289663059251364 16.4976029798393391 Mo
atom 4.9140665962381522 0.0035860967534769 15.0776641036034960 Mo
atom 5.9118170476169842 3.9317177428335617 16.4145042346042018 O
atom 8.7463126985587571 1.1359273949470512 16.3442959820655744 O
atom 6.3825924606048661 1.4458511187629217 15.0000314732436308 O
atom 8.4772343562037751 8.4616727525974138 17.7278159913568381 O
atom 7.4322280922096100 7.2892233699993589 16.4973305976961626 Mo
atom 6.0313853865910039 8.6829187024454324 16.3422139453126576 O
atom 8.8650958953859362 5.8880567177052656 16.4101697521253698 O
atom 8.3951201511624216 8.3727275159912864 15.0002559722103612 O
atom 2.5002992641331279 2.3829949519628246 19.0384159183298038 Mo
atom 1.0996446627891985 3.7763953972651332 19.1919465256141528 O
atom 3.9346099102066923 0.9812469739404924 19.1239828315063889 O
atom 3.5455841888972275 3.5554758198656375 17.8088178397866734 O
atom 0.0023502239947080 0.0039767851112227 20.6739907586816827 Mo
atom 3.4614240054359433 3.4645456119077904 20.5361244751058045 O
atom 1.4703197485853934 1.4462319604464016 20.5985085978824749 O
atom 2.4514372923231349 7.4351782967748452 19.0378202379703012 Mo
atom 9.8445306074977790 4.9079646530633294 17.9627822882154042 Mo
atom 1.0177291278263421 8.8371798067547118 19.1244488560873052 O
atom 3.8513300605944489 6.0424112372813248 19.1937753149256523 O
atom 1.4068988698898075 6.2636950068273558 17.8058718566266307 O
atom 0.0208019454892440 4.9102775367348857 20.4575104685309626 Mo
atom 3.4814710123124351 8.3728417005431925 20.5978426435060591 O
atom 1.4856708317038012 6.3490657427288824 20.5335059583600810 O
atom 7.4138670588993332 2.3825858054672548 19.0395357418593072 Mo
atom 6.0141550848862808 3.7766193072202316 19.1921555762664546 O
atom 8.8497195287766193 0.9808361312748211 19.1249804641079244 O
atom 8.4580622390093403 3.5548940520675347 17.8070230761297843 O
atom 4.9137902414997825 0.0032655018232528 20.6755067471095515 Mo
atom 8.3742550610305724 3.4637341579309857 20.5347744748852818 O
atom 6.3823161058664946 1.4455305238326972 20.5978741167496828 O
atom 7.3652777187007752 7.4378610920771342 19.0379344710724965 Mo
atom 4.9337846937207175 4.9091322234306816 17.9620438431041691 Mo
atom 5.9311184864351922 8.8364187775777960 19.1243242190329390 O
atom 8.7644070822100701 6.0417015565186816 19.1929621554712746 O
atom 6.3210432217617143 6.2650280720985405 17.8071282491956175 O
atom 4.9350451253699781 4.9114163324300710 20.4568453198926079 Mo
atom 8.3948437964240519 8.3724069210610619 20.5980986157164168 O
atom 6.3989132256161501 6.3493408517385861 20.5340882158260101 O
