#===============================================================================
# Created using the Atomic Simulation Environment (ASE)

# Mon Mar 23 14:01:05 2026

#=======================================================
lattice_vector 11.3093916751154389 0.0000000000000000 0.0000000000000000 
lattice_vector 0.0318583412982305 9.8126372326800713 0.0000000000000000 
lattice_vector 0.0000000000000000 0.0000000000000000 39.5397730347496577 
atom 5.8669374422619365 0.0214213675328470 17.1683790629003923 Mo
atom 11.2870574628050981 0.9965344151679135 15.5977547301718538 O
atom 7.1030443386197133 0.0182853184189016 15.0000000000000000 Mo
atom 7.3072298058882525 3.9478161173268442 16.6476730946234142 O
atom 10.1770007760303152 3.4816804737901870 16.5860078692270108 O
atom 8.4159778981341233 1.4617127040753273 15.6583729362184485 O
atom 11.1802929847924482 6.0577288082732030 15.6078980060661365 O
atom 7.4467966195753377 8.7002055058709171 16.6377554364395053 O
atom 10.1640101052939364 8.3900851914154444 16.6405594867730429 O
atom 8.4616301135361081 6.3644473371938339 15.6005016303980639 O
atom 3.0426602935358402 2.4008066999403614 17.2439443206431946 Mo
atom 1.7509356354867571 3.7938474432084717 16.6811826273460575 O
atom 4.5600638833969187 3.5720541384365347 16.6877038567352471 O
atom 2.7248717237323130 1.3718329233780928 15.5571436944944708 O
atom 4.2420425277736840 2.5430422897911127 15.0014721095771080 Mo
atom 5.5344688604537318 1.1509953986492383 15.5638408372408357 O
atom 3.0013764987082281 7.4560280207236396 17.2092347017968770 Mo
atom 1.4210968317376158 4.9234278929630877 15.0755005496520518 Mo
atom 1.7125025563075198 8.8534560973385332 16.5718665012980644 O
atom 4.6160671550003975 8.4787142297107430 16.6193742833696909 O
atom 2.7032148788712909 6.2802971943951720 15.6250618559123993 O
atom 4.3170761498828742 7.3033668743702735 15.0350975008260441 Mo
atom 0.1873329193501931 4.9297222843372612 17.2438704912338245 Mo
atom 5.6052095571805545 5.9033274561010574 15.6711612509148814 O
atom 7.3121452709236801 2.4055512655431825 19.6747593760300461 Mo
atom 3.0959167760524879 0.0300963240549160 22.0322470353249571 Mo
atom 6.0191507302117762 3.7979595848878147 19.1123236459090187 O
atom 8.5160367965956496 1.0052093716899826 20.4616227025964150 O
atom 8.8290531122246882 3.5769769708608319 19.1215904938478261 O
atom 6.9951842252269243 1.3771683930696537 17.9882833809538099 O
atom 8.5121352978316231 2.5498805092171750 17.4334296414187726 Mo
atom 4.3320236724102621 0.0269602749409706 19.8638679724245648 Mo
atom 4.5362091396787978 3.9564910738489139 21.5115410670479754 O
atom 9.8036588126585595 1.1551960530754135 17.9961627133851465 O
atom 7.4059801098208569 3.4903554303122561 21.4498758416515685 O
atom 5.6449572319246739 1.4703876605973965 20.5222409086430133 O
atom 7.2701267565175929 7.4576820250394356 19.6407942450993716 Mo
atom 5.6877196576541271 4.9265967572268501 17.5068267223132494 Mo
atom 5.9815266140546957 8.8585547024179760 19.0038505529049004 O
atom 8.4092723185830014 6.0664037647952718 20.4717659784907013 O
atom 8.8844353110320977 8.4815352191440709 19.0526053315893122 O
atom 6.9722664295364227 6.2832988227025517 18.0554760598316264 O
atom 8.5859192928435704 7.3074029010477455 17.4674654142371786 Mo
atom 4.4553474921693503 4.9329211825858472 19.6759050623250964 Mo
atom 4.6757759533658874 8.7088804623929867 21.5016234088640630 O
atom 9.8759757710837981 5.9078953456977015 18.1047762073102980 O
atom 7.3929894390844817 8.3987601479375140 21.5044274591976041 O
atom 5.6906094473266524 6.3731222937159027 20.4643696028226216 O
atom 0.2716396273263799 2.4094816564624306 22.1078122930677594 Mo
atom 10.1347768204943005 0.0247263360471608 19.6006341747085138 Mo
atom 10.2893066443927452 3.8025223997305408 21.5450505997706152 O
atom 4.2479520040130589 1.0004642746921930 18.0314646375978818 O
atom 1.7890432171874631 3.5807290949586035 21.5515718291598084 O
atom 11.2632427326382967 1.3805078799001618 20.4210116669190356 O
atom 1.4710218615642392 2.5517172463131819 19.8653400820016692 Mo
atom 0.0604937520270177 0.0219123312761034 17.4323445109126425 Mo
atom 0.2658591867341935 3.9530665134456902 19.0805913256386930 O
atom 2.7634481942442810 1.1596703551713072 20.4277088096653969 O
atom 3.1370774580529335 3.4852039384711673 19.0165508115274804 O
atom 1.3749751443267049 1.4653465989031644 18.0891242438979774 O
atom 0.2303558324987879 7.4647029772457083 22.0731026742214418 Mo
atom 9.9594678406435992 4.9321028494851582 19.9393685220766130 Mo
atom 10.2508735652135083 8.8621310538606028 21.4357344737226256 O
atom 4.1403176699989226 6.0613551258470872 18.0390289727643385 O
atom 1.8450464887909450 8.4873891862328144 21.4832422557942522 O
atom 11.2415858877772799 6.2889721509172416 20.4889298283369605 O
atom 1.5460554836734288 7.3120418308923441 19.8989654732506054 Mo
atom 8.7257039282561859 4.9383972408593300 22.1077384636583858 Mo
atom 0.4056695419227047 8.7042488712739150 19.0682503584351792 O
atom 2.8341888909711068 5.9120024126231270 20.5350292233394427 O
atom 3.1237625975859769 8.3939883890156448 19.0727653195805651 O
atom 1.4211078264461978 6.3690608313270927 18.0329251337577645 O
atom 4.5411246047142235 2.4142262220652522 24.5386273484546074 Mo
atom 3.2481300640023307 3.8066345414098834 23.9761916183335799 O
atom 6.0580324460152477 3.5856519273829006 23.9854584662723909 O
atom 4.2241635590174722 1.3858433495917224 22.8521513533783676 O
atom 5.7411146316221782 2.5585554657392442 22.2972976138433339 Mo
atom 7.0326381464491003 1.1638710095974827 22.8600306858097042 O
atom 4.4991060903081381 7.4663569815615043 24.5046622175239364 Mo
atom 2.9166989914446710 4.9352717137489188 22.3706946947378107 Mo
atom 3.2105059478452347 8.8672296589400439 23.8677185253294581 O
atom 6.1134146448226456 8.4902101756661406 23.9164733040138699 O
atom 4.2012457633269724 6.2919737792246213 22.9193440322561912 O
atom 5.8148986266341218 7.3160778575698142 22.3313333866617398 Mo
atom 1.6843268259598998 4.9415961391079177 24.5397730347496577 Mo
atom 7.1049551048743398 5.9165703022197702 22.9686441797348593 O
atom 7.3637561542848529 0.0334012925692298 24.4645021471330750 Mo
atom 1.4769313378036180 1.0091392312142620 22.8953326100224359 O
atom 8.5988647609330062 0.0305872877981724 22.2962124833372037 Mo
atom 8.8042301956401765 3.9617414699677589 23.9444592980632507 O
atom 0.3660567918434879 3.4938788949932365 23.8804187839520417 O
atom 9.9133461532326876 1.4740215554252336 22.9529922163225422 O
atom 1.3692970037894672 6.0700300823691569 22.9028969451888997 O
atom 8.9440405508286975 8.7129238277959828 23.9321183308597369 O
atom 0.3527419313765264 8.4026633455377127 23.9366332920051263 O
atom 9.9594788353521917 6.3777357878491614 22.8967931061823258 O
