#===============================================================================
# Created using the Atomic Simulation Environment (ASE)

# Mon Mar 23 14:01:03 2026

#=======================================================
lattice_vector 11.3093916751154389 0.0000000000000000 0.0000000000000000 
lattice_vector 2.8028790075076802 10.9441714152103149 0.0000000000000000 
lattice_vector 0.0000000000000000 0.0000000000000000 30.0584053681552987 
atom 7.3440036122219086 5.5833852603612950 15.0584053681553023 Mo
atom 7.3929894390844817 1.3487297808093754 15.0000000000000000 O
atom 1.8450464887909421 1.4375403214585538 15.0204109564202923 O
