#===============================================================================
# Created using the Atomic Simulation Environment (ASE)

# Mon Mar 23 14:01:04 2026

#=======================================================
lattice_vector 9.8265490582286468 0.0000000000000000 0.0000000000000000 
lattice_vector 0.0363446553796943 9.8126216415448742 0.0000000000000000 
lattice_vector 0.0000000000000000 0.0000000000000000 30.2186614272169436 
atom 0.0023502239947080 0.0039767851112227 15.2171454387890748 Mo
atom 3.4614240054359433 3.4645456119077904 15.0792791552131966 O
atom 1.4703197485853934 1.4462319604464016 15.1416632779898670 O
atom 0.0208019454892440 4.9102775367348857 15.0006651486383547 Mo
atom 3.4814710123124351 8.3728417005431925 15.1409973236134512 O
atom 1.4856708317038012 6.3490657427288824 15.0766606384674731 O
atom 4.9137902414997825 0.0032655018232528 15.2186614272169436 Mo
atom 8.3742550610305724 3.4637341579309857 15.0779291549926739 O
atom 6.3823161058664946 1.4455305238326972 15.1410287968570749 O
atom 4.9350451253699781 4.9114163324300710 15.0000000000000000 Mo
atom 8.3948437964240519 8.3724069210610619 15.1412532958238089 O
atom 6.3989132256161501 6.3493408517385861 15.0772428959334022 O
