#===============================================================================
# Created using the Atomic Simulation Environment (ASE)

# Mon Mar 23 14:01:04 2026

#=======================================================
lattice_vector 9.8265490582286468 0.0000000000000000 0.0000000000000000 
lattice_vector 0.0363446553796943 9.8126216415448742 0.0000000000000000 
lattice_vector 0.0000000000000000 0.0000000000000000 45.5289780888090121 
atom 0.0024056079973704 0.0040642588096147 16.2298982103593765 Mo
atom 1.3897753693763708 1.3583378486353346 16.3860458340912096 O
atom 2.4342650363951401 2.5321082152994663 15.1549644402979595 Mo
atom 0.9996190473705825 3.9314478538074185 15.0708572346363532 O
atom 3.8337866175289315 1.1364310502056567 15.0024166556023317 O
atom 3.5644430064412802 8.4607950550906832 16.3871312005114618 O
atom 2.5194233075443120 7.2895623035541055 15.1556626699586694 Mo
atom 1.1201763071054809 8.6838513925221896 15.0007950614652934 O
atom 3.9545798042762095 5.8889252815815567 15.0686343753240415 O
atom 4.9146685134466503 0.0030311239156795 16.2308418753838986 Mo
atom 6.3024629165058155 1.3573383707357698 16.3872922358733248 O
atom 7.3467373727004244 2.5296074957855850 15.1553890345266815 Mo
atom 5.9123697570937246 3.9323589326940094 15.0722902892915478 O
atom 8.7468654080354984 1.1365685848074993 15.0020820367529204 O
atom 8.4777870656805145 8.4623139424578611 16.3856020460441840 O
atom 7.4327808016863521 7.2898645598598080 15.1551166523835086 Mo
atom 6.0319380960677460 8.6835598923058814 15.0000000000000000 O
atom 8.8656486048626757 5.8886979075657129 15.0679558068127122 O
atom 2.5008519736098687 2.3836361418232732 17.6962019730171498 Mo
atom 0.0021292532589998 0.0037436638793906 21.8277408538654321 Mo
atom 1.1001973722659397 3.7770365871255809 17.8497325803014988 O
atom 3.9351626196834335 0.9818881638009406 17.7817688861937349 O
atom 3.5461368983739687 3.5561170097260866 16.4666038944740194 O
atom 1.3894990146380002 1.3580172537051103 21.9838884775972687 O
atom 2.4339886816567695 2.5317876203692431 20.7528070838040115 Mo
atom 0.0029029334714493 0.0046179749716709 19.3317768133690286 Mo
atom 0.9993426926322120 3.9311272588771948 20.6686998781424087 O
atom 3.8335102627905617 1.1361104552754326 20.6002592991083837 O
atom 3.4619767149126845 3.4651868017682390 19.1939105297931505 O
atom 1.4708724580621344 1.4468731503068495 19.2562946525698173 O
atom 2.4519900017998757 7.4358194866352934 17.6956062926576472 Mo
atom 0.0185342587458739 4.9086058429237767 16.6205683429027502 Mo
atom 1.0182818373030833 8.8378209966151609 17.7822349107746511 O
atom 3.8518827700711897 6.0430524271417729 17.8515613696129982 O
atom 3.5641666517029087 8.4604744601604587 21.9849738440175209 O
atom 1.4074515793665485 6.2643361966878022 16.4636579113139803 O
atom 2.5191469528059409 7.2892417086238810 20.7535053134647249 Mo
atom 0.0213546549659853 4.9109187265953338 19.1152965232183085 Mo
atom 1.1198999523671105 8.6835307975919651 20.5986377049713454 O
atom 3.9543034495378393 5.8886046866513322 20.6664770188300970 O
atom 3.4820237217891759 8.3734828904036416 19.2556286981934015 O
atom 1.4862235411805427 6.3497069325893314 19.1912920130474305 O
atom 7.4144197683760753 2.3832269953277034 17.6973217965466567 Mo
atom 4.9143921587082797 0.0027105289854553 21.8286845188899541 Mo
atom 6.0147077943630221 3.7772604970806793 17.8499416309538006 O
atom 8.8502722382533623 0.9814773211352692 17.7827665187952704 O
atom 8.4586149484860815 3.5555352419279829 16.4648091308171338 O
atom 6.3021865617674449 1.3570177758055457 21.9851348793793839 O
atom 7.3464610179620538 2.5292869008553609 20.7532316780327371 Mo
atom 4.9143429509765237 0.0039066916837011 19.3332928017968975 Mo
atom 5.9120934023553540 3.9320383377637858 20.6701329327976033 O
atom 8.7465890532971269 1.1362479898772750 20.5999246802589759 O
atom 8.3748077705073118 3.4643753477914339 19.1925605295726314 O
atom 6.3828688153432349 1.4461717136931456 19.2556601714370323 O
atom 7.3658304281775173 7.4385022819375823 17.6957205257598424 Mo
atom 4.9343374031974587 4.9097734132911297 16.6198298977915186 Mo
atom 5.9316711959119326 8.8370599674382451 17.7821102737202850 O
atom 8.7649597916868114 6.0423427463791288 17.8507482101586241 O
atom 8.4775107109421430 8.4619933475276383 21.9834446895502396 O
atom 6.3215959312384546 6.2656692619589887 16.4649143038829635 O
atom 7.4325044469479815 7.2895439649295835 20.7529592958895641 Mo
atom 4.9355978348467202 4.9120575222905183 19.1146313745799539 Mo
atom 6.0316617413293745 8.6832392973756569 20.5978426435060520 O
atom 8.8653722501243042 5.8883773126354892 20.6657984503187677 O
atom 8.3953965059007913 8.3730481109215109 19.2558846704037627 O
atom 6.3994659350928922 6.3499820415990333 19.1918742705133560 O
atom 2.5005756188714989 2.3833155468930487 23.2940446165232053 Mo
atom 0.0018528985206292 0.0034230689491665 27.4255834973714876 Mo
atom 1.0999210175275691 3.7767159921953564 23.4475752238075543 O
atom 3.9348862649450633 0.9815675688707166 23.3796115296997904 O
atom 3.5458605436355985 3.5557964147958621 22.0644465379800749 O
atom 1.3892226598996293 1.3576966587748864 27.5817311211033243 O
atom 2.4337123269183989 2.5314670254390181 26.3506497273100670 Mo
atom 0.0026265787330787 0.0042973800414468 24.9296194568750842 Mo
atom 0.9990663378938411 3.9308066639469703 26.2665425216484643 O
atom 3.8332339080521907 1.1357898603452086 26.1981019426144393 O
atom 3.4617003601743148 3.4648662068380145 24.7917531732992096 O
atom 1.4705961033237633 1.4465525553766256 24.8541372960758729 O
atom 2.4517136470615060 7.4354988917050688 23.2934489361637027 Mo
atom 0.0182579040075033 4.9082852479935539 22.2184109864088022 Mo
atom 1.0180054825647127 8.8375004016849363 23.3800775542807067 O
atom 3.8516064153328204 6.0427318322115484 23.4494040131190538 O
atom 3.5638902969645390 8.4601538652302342 27.5828164875235764 O
atom 1.4071752246281781 6.2640156017575785 22.0615005548200322 O
atom 2.5188705980675707 7.2889211136936565 26.3513479569707805 Mo
atom 0.0210783002276146 4.9105981316651093 24.7131391667243676 Mo
atom 1.1196235976287396 8.6832102026617424 26.1964803484774045 O
atom 3.9540270947994682 5.8882840917211094 26.2643196623361526 O
atom 3.4817473670508057 8.3731622954734188 24.8534713416994570 O
atom 1.4859471864421721 6.3493863376591069 24.7891346565534860 O
atom 7.4141434136377029 2.3829064003974789 23.2951644400527123 Mo
atom 4.9141158039699091 0.0023899340552312 27.4265271623960096 Mo
atom 6.0144314396246514 3.7769399021504553 23.4477842744598561 O
atom 8.8499958835149926 0.9811567262050451 23.3806091623013224 O
atom 8.4583385937477100 3.5552146469977584 22.0626517743231894 O
atom 6.3019102070290725 1.3566971808753217 27.5829775228854359 O
atom 7.3461846632236822 2.5289663059251364 26.3510743215387961 Mo
atom 4.9140665962381522 0.0035860967534769 24.9311354453029530 Mo
atom 5.9118170476169842 3.9317177428335617 26.2679755763036589 O
atom 8.7463126985587571 1.1359273949470512 26.1977673237650315 O
atom 8.3745314157689439 3.4640547528612098 24.7904031730786869 O
atom 6.3825924606048661 1.4458511187629217 24.8535028149430879 O
atom 7.3655540734391467 7.4381816870073578 23.2935631692658980 Mo
atom 4.9340610484590881 4.9094528183609052 22.2176725412975742 Mo
atom 5.9313948411735611 8.8367393725080206 23.3799529172263405 O
atom 8.7646834369484417 6.0420221514489043 23.4485908536646797 O
atom 8.4772343562037751 8.4616727525974138 27.5812873330562951 O
atom 6.3213195765000831 6.2653486670287650 22.0627569473890190 O
atom 7.4322280922096100 7.2892233699993589 26.3508019393956197 Mo
atom 4.9353214801083487 4.9117369273602938 24.7124740180860094 Mo
atom 6.0313853865910039 8.6829187024454324 26.1956852870121146 O
atom 8.8650958953859362 5.8880567177052656 26.2636410938248268 O
atom 8.3951201511624216 8.3727275159912864 24.8537273139098183 O
atom 6.3991895803545207 6.3496614466688097 24.7897169140194116 O
atom 2.5002992641331279 2.3829949519628246 28.8918872600292609 Mo
atom 1.0996446627891985 3.7763953972651332 29.0454178673136099 O
atom 3.9346099102066923 0.9812469739404924 28.9774541732058459 O
atom 3.5455841888972275 3.5554758198656375 27.6622891814861305 O
atom 0.0023502239947080 0.0039767851112227 30.5274621003811397 Mo
atom 3.4614240054359433 3.4645456119077904 30.3895958168052616 O
atom 1.4703197485853934 1.4462319604464016 30.4519799395819319 O
atom 2.4514372923231349 7.4351782967748452 28.8912915796697582 Mo
atom 9.8445306074977790 4.9079646530633294 27.8162536299148613 Mo
atom 1.0177291278263421 8.8371798067547118 28.9779201977867622 O
atom 3.8513300605944489 6.0424112372813248 29.0472466566251093 O
atom 1.4068988698898075 6.2636950068273558 27.6593431983260878 O
atom 0.0208019454892440 4.9102775367348857 30.3109818102304196 Mo
atom 3.4814710123124351 8.3728417005431925 30.4513139852055161 O
atom 1.4856708317038012 6.3490657427288824 30.3869773000595380 O
atom 7.4138670588993332 2.3825858054672548 28.8930070835587642 Mo
atom 6.0141550848862808 3.7766193072202316 29.0456269179659117 O
atom 8.8497195287766193 0.9808361312748211 28.9784518058073814 O
atom 8.4580622390093403 3.5548940520675347 27.6604944178292413 O
atom 4.9137902414997825 0.0032655018232528 30.5289780888090085 Mo
atom 8.3742550610305724 3.4637341579309857 30.3882458165847389 O
atom 6.3823161058664946 1.4455305238326972 30.4513454584491399 O
atom 7.3652777187007752 7.4378610920771342 28.8914058127719535 Mo
atom 4.9337846937207175 4.9091322234306816 27.8155151848036262 Mo
atom 5.9311184864351922 8.8364187775777960 28.9777955607323960 O
atom 8.7644070822100701 6.0417015565186816 29.0464334971707316 O
atom 6.3210432217617143 6.2650280720985405 27.6605995908950746 O
atom 4.9350451253699781 4.9114163324300710 30.3103166615920649 Mo
atom 8.3948437964240519 8.3724069210610619 30.4515699574158738 O
atom 6.3989132256161501 6.3493408517385861 30.3875595575254671 O
