#===============================================================================
# Created using the Atomic Simulation Environment (ASE)

# Mon Mar 23 14:01:05 2026

#=======================================================
lattice_vector 9.8126889492172058 0.0000000000000000 0.0000000000000000 
lattice_vector -0.0003216163056373 5.5978426502690191 0.0000000000000000 
lattice_vector 0.0000000000000000 0.0000000000000000 49.3565612990515987 
atom 1.0331742590939121 1.3547056597815428 15.1020843299686867 O
atom 1.1870189883892259 4.1732010941195519 15.0000000000000000 O
atom 6.0939953511962059 1.4245031582199963 15.0000627265903432 O
atom 5.9399280201772351 4.2394137413996491 15.1031931224405085 O
atom 2.4473900993433197 1.2700878015118588 18.5761231198605046 Mo
atom 0.0576302527859038 5.4015729750128205 16.0851327995020981 Mo
atom 3.8362297262328142 1.4227766927726992 17.1712649699654207 O
atom 1.0509682116497852 1.3554616887181308 20.0171617993778739 O
atom 3.6235578393838668 0.0375240230009660 19.6159085061718059 O
atom 1.4170683821101890 5.5579553644624387 17.4679092311996982 O
atom 2.5931972944947561 4.3260010464297283 18.5077740679103968 Mo
atom 0.0588262250216790 2.9061812635711424 16.0849564991899356 Mo
atom 3.9906264376994480 4.2429730634280576 17.0682166374233617 O
atom 1.2053537925836562 4.1726249715325716 19.9130445586875027 O
atom 3.5320881619394568 2.7652795214292585 19.5325736293508925 O
atom 1.5065205428368671 2.8284767100906953 17.5481265500919221 O
atom 7.5024507432952987 1.2684898395366171 18.5088100903419459 Mo
atom 4.9647333523739245 0.1927182731961010 16.0866468741504356 Mo
atom 8.8956869356773094 1.3549503385190842 17.0694849060730007 O
atom 6.1114829392857155 1.4234484949613289 19.9131086308284395 O
atom 8.5300522772979281 5.5561595395329801 19.6169026623912757 O
atom 6.3257580878526403 0.0377347352542227 17.4688662451893961 O
atom 7.3537403981006522 4.3257253014726720 18.5761856503163401 Mo
atom 4.9670221141464816 2.6875196854294594 16.0880214706783562 Mo
atom 8.7422376699509368 4.1706777618345088 17.1701829021220291 O
atom 5.9578904735706821 4.2384937678863412 20.0142290396543814 O
atom 8.4408035126983485 2.8286035438347148 19.5349843849513647 O
atom 6.4103587074081432 2.7646908862186175 17.5465574789550516 O
atom 2.4659961523436018 1.2687264790891457 23.4890691075680422 Mo
atom 0.0768651230091051 5.4003877470662882 20.9993813650787970 Mo
atom 3.8541992357814538 1.4223261894459447 22.0832707263199950 O
atom 1.0695702501358446 1.3542226330123348 24.9285659735833249 O
atom 3.6423405487453069 0.0390772342258501 24.5299437349634886 O
atom 1.4362680227639353 5.5564674206259319 22.3817332677884622 O
atom 2.6138989635724492 4.3253348998401924 23.4218077938806886 Mo
atom 0.0777422936940003 2.9044236717140679 21.0000291110202326 Mo
atom 4.0079153007277162 4.2412984694756259 21.9819845790783290 O
atom 1.2234149794311584 4.1727180673503454 24.8264816436146347 O
atom 3.5510992484273802 2.7663879866122172 24.4462549824977629 O
atom 1.5254247043074993 2.8288696151369246 22.4626429681411182 O
atom 7.5179638659215424 1.2681341203783507 23.4214949498045897 Mo
atom 4.9817544199429822 0.1932153290040575 20.9973634587635374 Mo
atom 8.9146455298447300 1.3548334679717282 21.9826080865679074 O
atom 6.1303913422381378 1.4240201314507881 24.8265443702049851 O
atom 8.5467311383415048 5.5574471837550439 24.5300796554369569 O
atom 6.3426198055596608 0.0362368718158293 22.3812421259117045 O
atom 7.3716358320997601 4.3260298096857106 23.4893446540147366 Mo
atom 4.9840777340535709 2.6879433680893743 21.0002978989804490 Mo
atom 8.7607327666401602 4.1712312356081425 22.0849354131141382 O
atom 5.9763240112191687 4.2389307146304418 24.9296747660551432 O
atom 8.4594359207981373 2.8281060631489718 24.4481253294982253 O
atom 6.4282817148301774 2.7638671137390900 22.4598314260831273 O
atom 2.4837860903852520 1.2696047747426504 28.4026047634751464 Mo
atom 0.0940262438278363 5.4010899482436123 25.9116144431167399 Mo
atom 3.8726257172747469 1.4222936660034911 26.9977466135800626 O
atom 1.0873642026917176 1.3549786619489226 29.8436434429925157 O
atom 3.6599538304257995 0.0370409962317581 29.4423901497864478 O
atom 1.4534643731521213 5.5574723376932305 27.2943908748143400 O
atom 2.6295932855366884 4.3255180196605201 28.3342557115250386 Mo
atom 0.0952222160636115 2.9056982368019342 25.9114381428045775 Mo
atom 4.0270224287413798 4.2424900366588503 26.8946982810380035 O
atom 1.2417497836255886 4.1721419447633634 29.7395262023021516 O
atom 3.5684841529813895 2.7647964946600503 29.3590552729655343 O
atom 1.5429165338787996 2.8279936833214876 27.3746081937065568 O
atom 7.5388467343372305 1.2680068127674091 28.3352917339565806 Mo
atom 5.0011293434158564 0.1922352464268930 25.9131285177650739 Mo
atom 8.9320829267192412 1.3544673117498760 26.8959665496876426 O
atom 6.1478789303276473 1.4229654681921209 29.7395902744430813 O
atom 8.5664482683398635 5.5556765127637728 29.4433843060059246 O
atom 6.3621540788945738 0.0372517084850148 27.2953478888040451 O
atom 7.3901363891425840 4.3252422747034638 28.4026672939309819 Mo
atom 5.0034181051884152 2.6870366586602517 25.9145031142929980 Mo
atom 8.7786336609928686 4.1701947350653006 26.9966645457366710 O
atom 5.9942864646126139 4.2380107411171339 29.8407106832690303 O
atom 8.4771995037402803 2.8281205170655062 29.3614660285660065 O
atom 6.4467546984500768 2.7642078594494102 27.3730391225697005 O
atom 2.5023921433855345 1.2682434523199380 33.3155507511826841 Mo
atom 0.1132611140510375 5.3999047202970800 30.8258630086934318 Mo
atom 3.8905952268233870 1.4218431626767367 31.9097523699346368 O
atom 3.6787365397872391 0.0385942074566422 34.3564253785781375 O
atom 1.4726640138058678 5.5559843938567237 32.2082149114031040 O
atom 2.6502949546143810 4.3248518730709851 33.2482894374953375 Mo
atom 0.1141382847359327 2.9039406449448597 30.8265107546348744 Mo
atom 4.0443112917696489 4.2408154427064186 31.8084662226929709 O
atom 3.5874952394693120 2.7659049598430090 34.2727366261124047 O
atom 1.5618206953494318 2.8283865883677168 32.2891246117557671 O
atom 7.5543598569634742 1.2676510936091425 33.2479765934192315 Mo
atom 5.0181504109849140 0.1927323022348495 30.8238451023781792 Mo
atom 8.9510415208866618 1.3543504412025202 31.8090897301825493 O
atom 8.5831271293834366 5.5569641569858366 34.3565612990515987 O
atom 6.3790157966015935 0.0357538450466214 32.2077237695263534 O
atom 7.4080318231416920 4.3255467829165024 33.3158262976293784 Mo
atom 5.0204737250955027 2.6874603413201665 30.8267795425950979 Mo
atom 8.7971287576820920 4.1707482088389343 31.9114170567287800 O
atom 8.4958319118400691 2.8276230363797641 34.2746069731128671 O
atom 6.4646777058721110 2.7633840869698822 32.2863130696977692 O
