#===============================================================================
# Created using the Atomic Simulation Environment (ASE)

# Mon Mar 23 14:01:04 2026

#=======================================================
lattice_vector 9.8265490582286468 0.0000000000000000 0.0000000000000000 
lattice_vector 0.0363446553796943 9.8126216415448742 0.0000000000000000 
lattice_vector 0.0000000000000000 0.0000000000000000 47.0121893577351102 
atom 0.0024056079973704 0.0040642588096147 17.7131094792854782 Mo
atom 1.3897753693763708 1.3583378486353346 17.8692571030173113 O
atom 2.4342650363951401 2.5321082152994663 16.6381757092240612 Mo
atom 0.0031792882098199 0.0049385699018951 15.2171454387890766 Mo
atom 0.9996190473705825 3.9314478538074185 16.5540685035624549 O
atom 3.8337866175289315 1.1364310502056567 16.4856279245284334 O
atom 3.4622530696510556 3.4655073966984626 15.0792791552131966 O
atom 1.4711488128005048 1.4471937452370738 15.1416632779898652 O
atom 3.5644430064412802 8.4607950550906832 17.8703424694375634 O
atom 2.5194233075443120 7.2895623035541055 16.6388739388847711 Mo
atom 0.0216310097043559 4.9112393215255583 15.0006651486383582 Mo
atom 1.1201763071054809 8.6838513925221896 16.4840063303913951 O
atom 3.9545798042762095 5.8889252815815567 16.5518456442501432 O
atom 3.4823000765275465 8.3738034853338661 15.1409973236134494 O
atom 1.4864998959189133 6.3500275275195541 15.0766606384674784 O
atom 4.9146685134466503 0.0030311239156795 17.7140531443100002 Mo
atom 6.3024629165058155 1.3573383707357698 17.8705035047994265 O
atom 7.3467373727004244 2.5296074957855850 16.6386003034527832 Mo
atom 4.9146193057148944 0.0042272866139252 15.2186614272169454 Mo
atom 5.9123697570937246 3.9323589326940094 16.5555015582176495 O
atom 8.7468654080354984 1.1365685848074993 16.4852933056790221 O
atom 8.3750841252456834 3.4646959427216579 15.0779291549926775 O
atom 6.3831451700816064 1.4464923086233701 15.1410287968570785 O
atom 8.4777870656805145 8.4623139424578611 17.8688133149702857 O
atom 7.4327808016863521 7.2898645598598080 16.6383279213096102 Mo
atom 4.9358741895850908 4.9123781172207419 15.0000000000000000 Mo
atom 6.0319380960677460 8.6835598923058814 16.4832112689261017 O
atom 8.8656486048626757 5.8886979075657129 16.5511670757388138 O
atom 8.3956728606391628 8.3733687058517337 15.1412532958238071 O
atom 6.3997422898312628 6.3503026365292570 15.0772428959334022 O
atom 2.5008519736098687 2.3836361418232732 19.1794132419432515 Mo
atom 0.0021292532589998 0.0037436638793906 23.3109521227915337 Mo
atom 1.1001973722659397 3.7770365871255809 19.3329438492276005 O
atom 3.9351626196834335 0.9818881638009406 19.2649801551198365 O
atom 3.5461368983739687 3.5561170097260866 17.9498151634001211 O
atom 1.3894990146380002 1.3580172537051103 23.4670997465233704 O
atom 2.4339886816567695 2.5317876203692431 22.2360183527301132 Mo
atom 0.0029029334714493 0.0046179749716709 20.8149880822951303 Mo
atom 0.9993426926322120 3.9311272588771948 22.1519111470685104 O
atom 3.8335102627905617 1.1361104552754326 22.0834705680344854 O
atom 3.4619767149126845 3.4651868017682390 20.6771217987192522 O
atom 1.4708724580621344 1.4468731503068495 20.7395059214959190 O
atom 2.4519900017998757 7.4358194866352934 19.1788175615837488 Mo
atom 0.0185342587458739 4.9086058429237767 18.1037796118288519 Mo
atom 1.0182818373030833 8.8378209966151609 19.2654461797007528 O
atom 3.8518827700711897 6.0430524271417729 19.3347726385390999 O
atom 3.5641666517029087 8.4604744601604587 23.4681851129436225 O
atom 1.4074515793665485 6.2643361966878022 17.9468691802400819 O
atom 2.5191469528059409 7.2892417086238810 22.2367165823908266 Mo
atom 0.0213546549659853 4.9109187265953338 20.5985077921444102 Mo
atom 1.1198999523671105 8.6835307975919651 22.0818489738974471 O
atom 3.9543034495378393 5.8886046866513322 22.1496882877561987 O
atom 3.4820237217891759 8.3734828904036416 20.7388399671195032 O
atom 1.4862235411805427 6.3497069325893314 20.6745032819735322 O
atom 7.4144197683760753 2.3832269953277034 19.1805330654727584 Mo
atom 4.9143921587082797 0.0027105289854553 23.3118957878160558 Mo
atom 6.0147077943630221 3.7772604970806793 19.3331528998799023 O
atom 8.8502722382533623 0.9814773211352692 19.2659777877213720 O
atom 8.4586149484860815 3.5555352419279829 17.9480203997432355 O
atom 6.3021865617674449 1.3570177758055457 23.4683461483054856 O
atom 7.3464610179620538 2.5292869008553609 22.2364429469588387 Mo
atom 4.9143429509765237 0.0039066916837011 20.8165040707229991 Mo
atom 5.9120934023553540 3.9320383377637858 22.1533442017237050 O
atom 8.7465890532971269 1.1362479898772750 22.0831359491850776 O
atom 8.3748077705073118 3.4643753477914339 20.6757717984987330 O
atom 6.3828688153432349 1.4461717136931456 20.7388714403631340 O
atom 7.3658304281775173 7.4385022819375823 19.1789317946859441 Mo
atom 4.9343374031974587 4.9097734132911297 18.1030411667176203 Mo
atom 5.9316711959119326 8.8370599674382451 19.2653215426463866 O
atom 8.7649597916868114 6.0423427463791288 19.3339594790847258 O
atom 8.4775107109421430 8.4619933475276383 23.4666559584763412 O
atom 6.3215959312384546 6.2656692619589887 17.9481255728090652 O
atom 7.4325044469479815 7.2895439649295835 22.2361705648156658 Mo
atom 4.9355978348467202 4.9120575222905183 20.5978426435060555 Mo
atom 6.0316617413293745 8.6832392973756569 22.0810539124321537 O
atom 8.8653722501243042 5.8883773126354892 22.1490097192448694 O
atom 8.3953965059007913 8.3730481109215109 20.7390959393298644 O
atom 6.3994659350928922 6.3499820415990333 20.6750855394394577 O
atom 2.5005756188714989 2.3833155468930487 24.7772558854493070 Mo
atom 0.0018528985206292 0.0034230689491665 28.9087947662975893 Mo
atom 1.0999210175275691 3.7767159921953564 24.9307864927336560 O
atom 3.9348862649450633 0.9815675688707166 24.8628227986258921 O
atom 3.5458605436355985 3.5557964147958621 23.5476578069061766 O
atom 1.3892226598996293 1.3576966587748864 29.0649423900294259 O
atom 2.4337123269183989 2.5314670254390181 27.8338609962361687 Mo
atom 0.0026265787330787 0.0042973800414468 26.4128307258011858 Mo
atom 0.9990663378938411 3.9308066639469703 27.7497537905745659 O
atom 3.8332339080521907 1.1357898603452086 27.6813132115405409 O
atom 3.4617003601743148 3.4648662068380145 26.2749644422253112 O
atom 1.4705961033237633 1.4465525553766256 26.3373485650019745 O
atom 2.4517136470615060 7.4354988917050688 24.7766602050898044 Mo
atom 0.0182579040075033 4.9082852479935539 23.7016222553349039 Mo
atom 1.0180054825647127 8.8375004016849363 24.8632888232068083 O
atom 3.8516064153328204 6.0427318322115484 24.9326152820451554 O
atom 3.5638902969645390 8.4601538652302342 29.0660277564496781 O
atom 1.4071752246281781 6.2640156017575785 23.5447118237461339 O
atom 2.5188705980675707 7.2889211136936565 27.8345592258968821 Mo
atom 0.0210783002276146 4.9105981316651093 26.1963504356504693 Mo
atom 1.1196235976287396 8.6832102026617424 27.6796916174035061 O
atom 3.9540270947994682 5.8882840917211094 27.7475309312622542 O
atom 3.4817473670508057 8.3731622954734188 26.3366826106255587 O
atom 1.4859471864421721 6.3493863376591069 26.2723459254795877 O
atom 7.4141434136377029 2.3829064003974789 24.7783757089788139 Mo
atom 4.9141158039699091 0.0023899340552312 28.9097384313221113 Mo
atom 6.0144314396246514 3.7769399021504553 24.9309955433859578 O
atom 8.8499958835149926 0.9811567262050451 24.8638204312274240 O
atom 8.4583385937477100 3.5552146469977584 23.5458630432492910 O
atom 6.3019102070290725 1.3566971808753217 29.0661887918115376 O
atom 7.3461846632236822 2.5289663059251364 27.8342855904648978 Mo
atom 4.9140665962381522 0.0035860967534769 26.4143467142290547 Mo
atom 5.9118170476169842 3.9317177428335617 27.7511868452297605 O
atom 8.7463126985587571 1.1359273949470512 27.6809785926911331 O
atom 8.3745314157689439 3.4640547528612098 26.2736144420047886 O
atom 6.3825924606048661 1.4458511187629217 26.3367140838691896 O
atom 7.3655540734391467 7.4381816870073578 24.7767744381919996 Mo
atom 4.9340610484590881 4.9094528183609052 23.7008838102236759 Mo
atom 5.9313948411735611 8.8367393725080206 24.8631641861524422 O
atom 8.7646834369484417 6.0420221514489043 24.9318021225907813 O
atom 8.4772343562037751 8.4616727525974138 29.0644986019823968 O
atom 6.3213195765000831 6.2653486670287650 23.5459682163151207 O
atom 7.4322280922096100 7.2892233699993589 27.8340132083217213 Mo
atom 4.9353214801083487 4.9117369273602938 26.1956852870121111 Mo
atom 6.0313853865910039 8.6829187024454324 27.6788965559382163 O
atom 8.8650958953859362 5.8880567177052656 27.7468523627509285 O
atom 8.3951201511624216 8.3727275159912864 26.3369385828359199 O
atom 6.3991895803545207 6.3496614466688097 26.2729281829455132 O
atom 2.5002992641331279 2.3829949519628246 30.3750985289553626 Mo
atom 1.0996446627891985 3.7763953972651332 30.5286291362397115 O
atom 3.9346099102066923 0.9812469739404924 30.4606654421319476 O
atom 3.5455841888972275 3.5554758198656375 29.1455004504122321 O
atom 0.0023502239947080 0.0039767851112227 32.0106733693072414 Mo
atom 3.4614240054359433 3.4645456119077904 31.8728070857313632 O
atom 1.4703197485853934 1.4462319604464016 31.9351912085080336 O
atom 2.4514372923231349 7.4351782967748452 30.3745028485958599 Mo
atom 9.8445306074977790 4.9079646530633294 29.2994648988409629 Mo
atom 1.0177291278263421 8.8371798067547118 30.4611314667128639 O
atom 3.8513300605944489 6.0424112372813248 30.5304579255512110 O
atom 1.4068988698898075 6.2636950068273558 29.1425544672521895 O
atom 0.0208019454892440 4.9102775367348857 31.7941930791565213 Mo
atom 3.4814710123124351 8.3728417005431925 31.9345252541316178 O
atom 1.4856708317038012 6.3490657427288824 31.8701885689856397 O
atom 7.4138670588993332 2.3825858054672548 30.3762183524848659 Mo
atom 6.0141550848862808 3.7766193072202316 30.5288381868920133 O
atom 8.8497195287766193 0.9808361312748211 30.4616630747334831 O
atom 8.4580622390093403 3.5548940520675347 29.1437056867553430 O
atom 4.9137902414997825 0.0032655018232528 32.0121893577351102 Mo
atom 8.3742550610305724 3.4637341579309857 31.8714570855108406 O
atom 6.3823161058664946 1.4455305238326972 31.9345567273752415 O
atom 7.3652777187007752 7.4378610920771342 30.3746170816980552 Mo
atom 4.9337846937207175 4.9091322234306816 29.2987264537297278 Mo
atom 5.9311184864351922 8.8364187775777960 30.4610068296584977 O
atom 8.7644070822100701 6.0417015565186816 30.5296447660968333 O
atom 6.3210432217617143 6.2650280720985405 29.1438108598211763 O
atom 4.9350451253699781 4.9114163324300710 31.7935279305181666 Mo
atom 8.3948437964240519 8.3724069210610619 31.9347812263419755 O
atom 6.3989132256161501 6.3493408517385861 31.8707708264515688 O
