#===============================================================================
# Created using the Atomic Simulation Environment (ASE)

# Mon Mar 23 14:01:04 2026

#=======================================================
lattice_vector 9.8265490582286468 0.0000000000000000 0.0000000000000000 
lattice_vector 0.0363446553796943 9.8126216415448742 0.0000000000000000 
lattice_vector 0.0000000000000000 0.0000000000000000 34.3332928017968939 
atom 0.0018528985206292 0.0034230689491665 16.2298982103593730 Mo
atom 1.3892226598996293 1.3576966587748864 16.3860458340912096 O
atom 2.4337123269183989 2.5314670254390181 15.1549644402979524 Mo
atom 0.9990663378938411 3.9308066639469703 15.0708572346363496 O
atom 3.8332339080521907 1.1357898603452086 15.0024166556023246 O
atom 3.5638902969645390 8.4601538652302342 16.3871312005114618 O
atom 2.5188705980675707 7.2889211136936565 15.1556626699586658 Mo
atom 1.1196235976287396 8.6832102026617424 15.0007950614652898 O
atom 3.9540270947994682 5.8882840917211094 15.0686343753240379 O
atom 4.9141158039699091 0.0023899340552312 16.2308418753838950 Mo
atom 6.3019102070290725 1.3566971808753217 16.3872922358733213 O
atom 7.3461846632236822 2.5289663059251364 15.1553890345266815 Mo
atom 5.9118170476169842 3.9317177428335617 15.0722902892915442 O
atom 8.7463126985587571 1.1359273949470512 15.0020820367529168 O
atom 8.4772343562037751 8.4616727525974138 16.3856020460441805 O
atom 7.4322280922096100 7.2892233699993589 15.1551166523835050 Mo
atom 6.0313853865910039 8.6829187024454324 15.0000000000000000 O
atom 8.8650958953859362 5.8880567177052656 15.0679558068127122 O
atom 2.5002992641331279 2.3829949519628246 17.6962019730171463 Mo
atom 1.0996446627891985 3.7763953972651332 17.8497325803014952 O
atom 3.9346099102066923 0.9812469739404924 17.7817688861937313 O
atom 3.5455841888972275 3.5554758198656375 16.4666038944740158 O
atom 0.0023502239947080 0.0039767851112227 19.3317768133690251 Mo
atom 3.4614240054359433 3.4645456119077904 19.1939105297931469 O
atom 1.4703197485853934 1.4462319604464016 19.2562946525698173 O
atom 2.4514372923231349 7.4351782967748452 17.6956062926576436 Mo
atom 9.8445306074977790 4.9079646530633294 16.6205683429027467 Mo
atom 1.0177291278263421 8.8371798067547118 17.7822349107746476 O
atom 3.8513300605944489 6.0424112372813248 17.8515613696129947 O
atom 1.4068988698898075 6.2636950068273558 16.4636579113139732 O
atom 0.0208019454892440 4.9102775367348857 19.1152965232183050 Mo
atom 3.4814710123124351 8.3728417005431925 19.2556286981934015 O
atom 1.4856708317038012 6.3490657427288824 19.1912920130474234 O
atom 7.4138670588993332 2.3825858054672548 17.6973217965466496 Mo
atom 6.0141550848862808 3.7766193072202316 17.8499416309537970 O
atom 8.8497195287766193 0.9808361312748211 17.7827665187952668 O
atom 8.4580622390093403 3.5548940520675347 16.4648091308171267 O
atom 4.9137902414997825 0.0032655018232528 19.3332928017968939 Mo
atom 8.3742550610305724 3.4637341579309857 19.1925605295726243 O
atom 6.3823161058664946 1.4455305238326972 19.2556601714370252 O
atom 7.3652777187007752 7.4378610920771342 17.6957205257598389 Mo
atom 4.9337846937207175 4.9091322234306816 16.6198298977915115 Mo
atom 5.9311184864351922 8.8364187775777960 17.7821102737202814 O
atom 8.7644070822100701 6.0417015565186816 17.8507482101586170 O
atom 6.3210432217617143 6.2650280720985405 16.4649143038829600 O
atom 4.9350451253699781 4.9114163324300710 19.1146313745799503 Mo
atom 8.3948437964240519 8.3724069210610619 19.2558846704037592 O
atom 6.3989132256161501 6.3493408517385861 19.1918742705133525 O
