#===============================================================================
# Created using the Atomic Simulation Environment (ASE)

# Mon Mar 23 14:01:05 2026

#=======================================================
lattice_vector 9.8126889492172058 0.0000000000000000 0.0000000000000000 
lattice_vector -0.0003216163056373 5.5978426502690191 0.0000000000000000 
lattice_vector 0.0000000000000000 0.0000000000000000 32.1488375295252453 
atom 2.5023921433855345 1.2682434523199380 16.1078269816563306 Mo
atom 3.6787365397872391 0.0385942074566422 17.1487016090517841 O
atom 1.4726640138058678 5.5559843938567237 15.0004911418767506 O
atom 2.6502949546143810 4.3248518730709851 16.0405656679689841 Mo
atom 3.5874952394693120 2.7659049598430090 17.0650128565860513 O
atom 1.5618206953494318 2.8283865883677168 15.0814008422294137 O
atom 7.5543598569634742 1.2676510936091425 16.0402528238928781 Mo
atom 8.5831271293834366 5.5569641569858366 17.1488375295252453 O
atom 6.3790157966015935 0.0357538450466214 15.0000000000000000 O
atom 7.4080318231416920 4.3255467829165024 16.1081025281030250 Mo
atom 8.4958319118400691 2.8276230363797641 17.0668832035865137 O
atom 6.4646777058721110 2.7633840869698822 15.0785893001714157 O
