#===============================================================================
# Created using the Atomic Simulation Environment (ASE)

# Mon Mar 23 14:01:04 2026

#=======================================================
lattice_vector 9.8265490582286468 0.0000000000000000 0.0000000000000000 
lattice_vector 0.0363446553796943 9.8126216415448742 0.0000000000000000 
lattice_vector 0.0000000000000000 0.0000000000000000 32.8696348904829208 
atom 2.5002992641331279 2.3829949519628246 16.2325440617031731 Mo
atom 1.0996446627891985 3.7763953972651332 16.3860746689875221 O
atom 3.9346099102066923 0.9812469739404924 16.3181109748797581 O
atom 3.5455841888972275 3.5554758198656375 15.0029459831600427 O
atom 0.0023502239947080 0.0039767851112227 17.8681189020550519 Mo
atom 3.4614240054359433 3.4645456119077904 17.7302526184791738 O
atom 1.4703197485853934 1.4462319604464016 17.7926367412558442 O
atom 2.4514372923231349 7.4351782967748452 16.2319483813436705 Mo
atom 9.8445306074977790 4.9079646530633294 15.1569104315887735 Mo
atom 1.0177291278263421 8.8371798067547118 16.3185769994606744 O
atom 3.8513300605944489 6.0424112372813248 16.3879034582990215 O
atom 1.4068988698898075 6.2636950068273558 15.0000000000000000 O
atom 0.0208019454892440 4.9102775367348857 17.6516386119043318 Mo
atom 3.4814710123124351 8.3728417005431925 17.7919707868794283 O
atom 1.4856708317038012 6.3490657427288824 17.7276341017334502 O
atom 7.4138670588993332 2.3825858054672548 16.2336638852326764 Mo
atom 6.0141550848862808 3.7766193072202316 16.3862837196398239 O
atom 8.8497195287766193 0.9808361312748211 16.3191086074812937 O
atom 8.4580622390093403 3.5548940520675347 15.0011512195031536 O
atom 4.9137902414997825 0.0032655018232528 17.8696348904829208 Mo
atom 8.3742550610305724 3.4637341579309857 17.7289026182586511 O
atom 6.3823161058664946 1.4455305238326972 17.7920022601230521 O
atom 7.3652777187007752 7.4378610920771342 16.2320626144458657 Mo
atom 4.9337846937207175 4.9091322234306816 15.1561719864775384 Mo
atom 5.9311184864351922 8.8364187775777960 16.3184523624063083 O
atom 8.7644070822100701 6.0417015565186816 16.3870902988446439 O
atom 6.3210432217617143 6.2650280720985405 15.0012563925689868 O
atom 4.9350451253699781 4.9114163324300710 17.6509734632659772 Mo
atom 8.3948437964240519 8.3724069210610619 17.7922267590897860 O
atom 6.3989132256161501 6.3493408517385861 17.7282163591993793 O
