#===============================================================================
# Created using the Atomic Simulation Environment (ASE)

# Mon Mar 23 14:01:05 2026

#=======================================================
lattice_vector 9.8126889492172058 0.0000000000000000 0.0000000000000000 
lattice_vector -0.0003216163056373 5.5978426502690191 0.0000000000000000 
lattice_vector 0.0000000000000000 0.0000000000000000 46.8886520678519005 
atom 2.4473900993433197 1.2700878015118588 16.1082138886608064 Mo
atom 1.0509682116497852 1.3554616887181308 17.5492525681781757 O
atom 3.6235578393838668 0.0375240230009660 17.1479992749721077 O
atom 1.4170683821101890 5.5579553644624387 15.0000000000000000 O
atom 2.5931972944947561 4.3260010464297283 16.0398648367106986 Mo
atom 1.2053537925836562 4.1726249715325716 17.4451353274878045 O
atom 3.5320881619394568 2.7652795214292585 17.0646643981511943 O
atom 1.5065205428368671 2.8284767100906953 15.0802173188922239 O
atom 7.5024507432952987 1.2684898395366171 16.0409008591422477 Mo
atom 6.1114829392857155 1.4234484949613289 17.4451993996287413 O
atom 8.5300522772979281 5.5561595395329801 17.1489934311915775 O
atom 6.3257580878526403 0.0377347352542227 15.0009570139896979 O
atom 7.3537403981006522 4.3257253014726720 16.1082764191166419 Mo
atom 5.9578904735706821 4.2384937678863412 17.5463198084546832 O
atom 8.4408035126983485 2.8286035438347148 17.0670751537516665 O
atom 6.4103587074081432 2.7646908862186175 15.0786482477553534 O
atom 2.4659961523436018 1.2687264790891457 21.0211598763683440 Mo
atom 0.0768651230091051 5.4003877470662882 18.5314721338790989 Mo
atom 3.8541992357814538 1.4223261894459447 19.6153614951202968 O
atom 1.0695702501358446 1.3542226330123348 22.4606567423836267 O
atom 3.6423405487453069 0.0390772342258501 22.0620345037637904 O
atom 1.4362680227639353 5.5564674206259319 19.9138240365887640 O
atom 2.6138989635724492 4.3253348998401924 20.9538985626809904 Mo
atom 0.0777422936940003 2.9044236717140679 18.5321198798205344 Mo
atom 4.0079153007277162 4.2412984694756259 19.5140753478786309 O
atom 1.2234149794311584 4.1727180673503454 22.3585724124149365 O
atom 3.5510992484273802 2.7663879866122172 21.9783457512980647 O
atom 1.5254247043074993 2.8288696151369246 19.9947337369414200 O
atom 7.5179638659215424 1.2681341203783507 20.9535857186048915 Mo
atom 4.9817544199429822 0.1932153290040575 18.5294542275638392 Mo
atom 8.9146455298447300 1.3548334679717282 19.5146988553682093 O
atom 6.1303913422381378 1.4240201314507881 22.3586351390052869 O
atom 8.5467311383415048 5.5574471837550439 22.0621704242372587 O
atom 6.3426198055596608 0.0362368718158293 19.9133328947120063 O
atom 7.3716358320997601 4.3260298096857106 21.0214354228150384 Mo
atom 4.9840777340535709 2.6879433680893743 18.5323886677807508 Mo
atom 8.7607327666401602 4.1712312356081425 19.6170261819144400 O
atom 5.9763240112191687 4.2389307146304418 22.4617655348554450 O
atom 8.4594359207981373 2.8281060631489718 21.9802160982985271 O
atom 6.4282817148301774 2.7638671137390900 19.9919221948834291 O
atom 2.4837860903852520 1.2696047747426504 25.9346955322754482 Mo
atom 0.0940262438278363 5.4010899482436123 23.4437052119170417 Mo
atom 3.8726257172747469 1.4222936660034911 24.5298373823803644 O
atom 1.0873642026917176 1.3549786619489226 27.3757342117928175 O
atom 3.6599538304257995 0.0370409962317581 26.9744809185867496 O
atom 1.4534643731521213 5.5574723376932305 24.8264816436146418 O
atom 2.6295932855366884 4.3255180196605201 25.8663464803253405 Mo
atom 0.0952222160636115 2.9056982368019342 23.4435289116048793 Mo
atom 4.0270224287413798 4.2424900366588503 24.4267890498383053 O
atom 1.2417497836255886 4.1721419447633634 27.2716169711024534 O
atom 3.5684841529813895 2.7647964946600503 26.8911460417658361 O
atom 1.5429165338787996 2.8279936833214876 24.9066989625068587 O
atom 7.5388467343372305 1.2680068127674091 25.8673825027568824 Mo
atom 5.0011293434158564 0.1922352464268930 23.4452192865653757 Mo
atom 8.9320829267192412 1.3544673117498760 24.4280573184879444 O
atom 6.1478789303276473 1.4229654681921209 27.2716810432433832 O
atom 8.5664482683398635 5.5556765127637728 26.9754750748062264 O
atom 6.3621540788945738 0.0372517084850148 24.8274386576043469 O
atom 7.3901363891425840 4.3252422747034638 25.9347580627312837 Mo
atom 5.0034181051884152 2.6870366586602517 23.4465938830932998 Mo
atom 8.7786336609928686 4.1701947350653006 24.5287553145369728 O
atom 5.9942864646126139 4.2380107411171339 27.3728014520693321 O
atom 8.4771995037402803 2.8281205170655062 26.8935567973663083 O
atom 6.4467546984500768 2.7642078594494102 24.9051298913700023 O
atom 2.5023921433855345 1.2682434523199380 30.8476415199829859 Mo
atom 0.1132611140510375 5.3999047202970800 28.3579537774937336 Mo
atom 3.8905952268233870 1.4218431626767367 29.4418431387349386 O
atom 3.6787365397872391 0.0385942074566422 31.8885161473784393 O
atom 1.4726640138058678 5.5559843938567237 29.7403056802034058 O
atom 2.6502949546143810 4.3248518730709851 30.7803802062956393 Mo
atom 0.1141382847359327 2.9039406449448597 28.3586015234351763 Mo
atom 4.0443112917696489 4.2408154427064186 29.3405569914932727 O
atom 3.5874952394693120 2.7659049598430090 31.8048273949127065 O
atom 1.5618206953494318 2.8283865883677168 29.8212153805560689 O
atom 7.5543598569634742 1.2676510936091425 30.7800673622195333 Mo
atom 5.0181504109849140 0.1927323022348495 28.3559358711784810 Mo
atom 8.9510415208866618 1.3543504412025202 29.3411804989828511 O
atom 8.5831271293834366 5.5569641569858366 31.8886520678519005 O
atom 6.3790157966015935 0.0357538450466214 29.7398145383266552 O
atom 7.4080318231416920 4.3255467829165024 30.8479170664296802 Mo
atom 5.0204737250955027 2.6874603413201665 28.3588703113953997 Mo
atom 8.7971287576820920 4.1707482088389343 29.4435078255290819 O
atom 8.4958319118400691 2.8276230363797641 31.8066977419131689 O
atom 6.4646777058721110 2.7633840869698822 29.8184038384980710 O
