#===============================================================================
# Created using the Atomic Simulation Environment (ASE)

# Mon Mar 23 14:01:04 2026

#=======================================================
lattice_vector 9.8265490582286468 0.0000000000000000 0.0000000000000000 
lattice_vector 0.0363446553796943 9.8126216415448742 0.0000000000000000 
lattice_vector 0.0000000000000000 0.0000000000000000 38.4674775339889763 
atom 2.5005756188714989 2.3833155468930487 16.2325440617031731 Mo
atom 0.0018528985206292 0.0034230689491665 20.3640829425514553 Mo
atom 1.0999210175275691 3.7767159921953564 16.3860746689875221 O
atom 3.9348862649450633 0.9815675688707166 16.3181109748797581 O
atom 3.5458605436355985 3.5557964147958621 15.0029459831600427 O
atom 1.3892226598996293 1.3576966587748864 20.5202305662832920 O
atom 2.4337123269183989 2.5314670254390181 19.2891491724900348 Mo
atom 0.0026265787330787 0.0042973800414468 17.8681189020550519 Mo
atom 0.9990663378938411 3.9308066639469703 19.2050419668284320 O
atom 3.8332339080521907 1.1357898603452086 19.1366013877944070 O
atom 3.4617003601743148 3.4648662068380145 17.7302526184791773 O
atom 1.4705961033237633 1.4465525553766256 17.7926367412558406 O
atom 2.4517136470615060 7.4354988917050688 16.2319483813436705 Mo
atom 0.0182579040075033 4.9082852479935539 15.1569104315887699 Mo
atom 1.0180054825647127 8.8375004016849363 16.3185769994606744 O
atom 3.8516064153328204 6.0427318322115484 16.3879034582990215 O
atom 3.5638902969645390 8.4601538652302342 20.5213159327035441 O
atom 1.4071752246281781 6.2640156017575785 15.0000000000000000 O
atom 2.5188705980675707 7.2889211136936565 19.2898474021507482 Mo
atom 0.0210783002276146 4.9105981316651093 17.6516386119043354 Mo
atom 1.1196235976287396 8.6832102026617424 19.1349797936573722 O
atom 3.9540270947994682 5.8882840917211094 19.2028191075161203 O
atom 3.4817473670508057 8.3731622954734188 17.7919707868794248 O
atom 1.4859471864421721 6.3493863376591069 17.7276341017334538 O
atom 7.4141434136377029 2.3829064003974789 16.2336638852326800 Mo
atom 4.9141158039699091 0.0023899340552312 20.3650266075759774 Mo
atom 6.0144314396246514 3.7769399021504553 16.3862837196398239 O
atom 8.8499958835149926 0.9811567262050451 16.3191086074812901 O
atom 8.4583385937477100 3.5552146469977584 15.0011512195031571 O
atom 6.3019102070290725 1.3566971808753217 20.5214769680654037 O
atom 7.3461846632236822 2.5289663059251364 19.2895737667187639 Mo
atom 4.9140665962381522 0.0035860967534769 17.8696348904829208 Mo
atom 5.9118170476169842 3.9317177428335617 19.2064750214836266 O
atom 8.7463126985587571 1.1359273949470512 19.1362667689449992 O
atom 8.3745314157689439 3.4640547528612098 17.7289026182586547 O
atom 6.3825924606048661 1.4458511187629217 17.7920022601230556 O
atom 7.3655540734391467 7.4381816870073578 16.2320626144458657 Mo
atom 4.9340610484590881 4.9094528183609052 15.1561719864775419 Mo
atom 5.9313948411735611 8.8367393725080206 16.3184523624063083 O
atom 8.7646834369484417 6.0420221514489043 16.3870902988446474 O
atom 8.4772343562037751 8.4616727525974138 20.5197867782362628 O
atom 6.3213195765000831 6.2653486670287650 15.0012563925689868 O
atom 7.4322280922096100 7.2892233699993589 19.2893013845755874 Mo
atom 4.9353214801083487 4.9117369273602938 17.6509734632659772 Mo
atom 6.0313853865910039 8.6829187024454324 19.1341847321920824 O
atom 8.8650958953859362 5.8880567177052656 19.2021405390047946 O
atom 8.3951201511624216 8.3727275159912864 17.7922267590897860 O
atom 6.3991895803545207 6.3496614466688097 17.7282163591993793 O
atom 2.5002992641331279 2.3829949519628246 21.8303867052092286 Mo
atom 1.0996446627891985 3.7763953972651332 21.9839173124935776 O
atom 3.9346099102066923 0.9812469739404924 21.9159536183858137 O
atom 3.5455841888972275 3.5554758198656375 20.6007886266660982 O
atom 0.0023502239947080 0.0039767851112227 23.4659615455611075 Mo
atom 3.4614240054359433 3.4645456119077904 23.3280952619852293 O
atom 1.4703197485853934 1.4462319604464016 23.3904793847618997 O
atom 2.4514372923231349 7.4351782967748452 21.8297910248497260 Mo
atom 9.8445306074977790 4.9079646530633294 20.7547530750948290 Mo
atom 1.0177291278263421 8.8371798067547118 21.9164196429667300 O
atom 3.8513300605944489 6.0424112372813248 21.9857461018050770 O
atom 1.4068988698898075 6.2636950068273558 20.5978426435060555 O
atom 0.0208019454892440 4.9102775367348857 23.2494812554103873 Mo
atom 3.4814710123124351 8.3728417005431925 23.3898134303854839 O
atom 1.4856708317038012 6.3490657427288824 23.3254767452395058 O
atom 7.4138670588993332 2.3825858054672548 21.8315065287387320 Mo
atom 6.0141550848862808 3.7766193072202316 21.9841263631458794 O
atom 8.8497195287766193 0.9808361312748211 21.9169512509873492 O
atom 8.4580622390093403 3.5548940520675347 20.5989938630092091 O
atom 4.9137902414997825 0.0032655018232528 23.4674775339889763 Mo
atom 8.3742550610305724 3.4637341579309857 23.3267452617647066 O
atom 6.3823161058664946 1.4455305238326972 23.3898449036291076 O
atom 7.3652777187007752 7.4378610920771342 21.8299052579519213 Mo
atom 4.9337846937207175 4.9091322234306816 20.7540146299835939 Mo
atom 5.9311184864351922 8.8364187775777960 21.9162950059123638 O
atom 8.7644070822100701 6.0417015565186816 21.9849329423506994 O
atom 6.3210432217617143 6.2650280720985405 20.5990990360750423 O
atom 4.9350451253699781 4.9114163324300710 23.2488161067720327 Mo
atom 8.3948437964240519 8.3724069210610619 23.3900694025958416 O
atom 6.3989132256161501 6.3493408517385861 23.3260590027054349 O
