#===============================================================================
# Created using the Atomic Simulation Environment (ASE)

# Mon Mar 23 14:01:06 2026

#=======================================================
lattice_vector 13.8613002900044648 0.0000000000000000 0.0000000000000000 
lattice_vector -0.0000317652287253 5.5978426594179016 0.0000000000000000 
lattice_vector 0.0000000000000000 0.0000000000000000 36.5581721787434546 
atom 10.4403368935416960 5.5620294384840587 15.0005553122436766 O
atom 10.4999788402143892 1.2722959667585543 16.5117529251381470 Mo
atom 8.5246558286285286 1.4271631401598481 16.5059765495405273 O
atom 10.4355381284981750 2.8344040953743872 15.1168219752884170 O
atom 3.5692395806814865 4.3284794998650602 16.5118524126307804 Mo
atom 1.5937690933428159 4.1758591928103765 16.5055895388430613 O
atom 3.5101406777676369 0.0405524128539536 15.0000000000000000 O
atom 3.5040129621581224 2.7700361673428726 15.1198795940199773 O
atom 7.0389772669495896 4.3298615804647822 19.9901141616776670 Mo
atom 6.9588966308308988 0.1980626006007810 16.5406299617651271 Mo
atom 5.0632891542255871 4.1763304165089785 19.9827369302786551 O
atom 9.0443459095596079 4.2442965765242917 20.0154391946946006 O
atom 6.9472428668990895 5.5595778880069799 21.5581147985099193 O
atom 6.9800821764861816 0.0420611501275637 18.4793018296661700 O
atom 6.8868732322800810 1.2732607991390366 20.0476501498124904 Mo
atom 6.9588241414899077 2.6940267218589842 16.5416069925420643 Mo
atom 4.8829726372541931 1.3573659494155728 20.0203868279339119 O
atom 8.8633728194121755 1.4258089587882514 20.0526173314475429 O
atom 6.9521715767878325 2.8322619259035382 21.4345183870333855 O
atom 6.9746536345519665 2.7696640427279666 18.5994603632534350 O
atom 10.3487814409619414 4.3301992001660112 16.5675084997796631 Mo
atom 3.4982582054062226 5.4054971762214832 20.0161435220400392 Mo
atom 8.3436588506371123 4.2435687189620364 16.5428020248616292 O
atom 12.3234830894646699 4.1742446738285857 16.5748171119719103 O
atom 10.4089406719756496 0.0409455915764426 18.0788698245936743 O
atom 3.4986129198283273 2.9107692767090887 20.0199618067950738 Mo
atom 12.5051584428005533 1.3593262744497225 16.5384484006811974 O
atom 10.4125059425411468 2.7702817125271366 17.9590718826379216 O
atom 10.4291479550437476 0.1973810775019218 20.0173646500106415 Mo
atom 5.5756984106297107 4.2430367690582544 16.5382677185447591 O
atom 3.4768576976969454 5.5611103272263707 18.0789594611537865 O
atom 3.4178424820289601 1.2725737779821760 16.5671355837401890 Mo
atom 10.4282664182848581 2.6927728485758418 20.0179865123132785 Mo
atom 1.4117232384263421 1.3556706643856842 16.5424791479297681 O
atom 5.3929027468447339 1.4258813235752086 16.5743954189106688 O
atom 3.4821983328219512 2.8333496082981284 17.9554507542507409 O
atom 13.8175164020426404 4.3303473910772459 20.0479844290397722 Mo
atom 0.0289831600293753 5.4059735675378171 16.5405777018063560 Mo
atom 11.8145131584128293 4.2439555725553264 20.0205262532226840 O
atom 1.9327801540285818 4.1753200358831410 20.0523564476605713 O
atom 0.0168487079102901 0.0427370815755665 21.5581721787434546 O
atom 0.0489417205546904 5.5610354142754739 18.4802931698174078 O
atom 0.1087576365016266 1.2731042557949150 19.9902055604755304 Mo
atom 0.0282564450959844 2.9111722867557210 16.5432713463721228 Mo
atom 11.9940282011506767 1.4282203562933253 19.9828801736979500 O
atom 2.1126956733321118 1.3602669640556018 20.0149067489823054 O
atom 0.0218172967483077 2.7702879733462251 21.4370148357680037 O
atom 0.0442548477354068 2.8340841017835730 18.5951740404514041 O
