#===============================================================================
# Created using the Atomic Simulation Environment (ASE)

# Mon Mar 23 14:01:05 2026

#=======================================================
lattice_vector 9.8126889492172058 0.0000000000000000 0.0000000000000000 
lattice_vector -0.0003216163056373 5.5978426502690191 0.0000000000000000 
lattice_vector 0.0000000000000000 0.0000000000000000 56.7151337114665424 
atom 2.4109941083013871 1.2705708282810668 16.1082138886608028 Mo
atom 1.0145722206078527 1.3559447154873387 17.5492525681781757 O
atom 3.5871618483419354 0.0380070497701740 17.1479992749721077 O
atom 1.3806723910682563 5.5584383912316460 15.0000000000000000 O
atom 2.5568013034528234 4.3264840731989365 16.0398648367106951 Mo
atom 1.1689578015417237 4.1731079983017789 17.4451353274878080 O
atom 3.4956921708975246 2.7657625481984662 17.0646643981511943 O
atom 1.4701245517949346 2.8289597368599031 15.0802173188922239 O
atom 7.4660547522533651 1.2689728663058251 16.0409008591422477 Mo
atom 6.0750869482437819 1.4239315217305368 17.4451993996287378 O
atom 8.4936562862559963 5.5566425663021883 17.1489934311915775 O
atom 6.2893620968107076 0.0382177620234307 15.0009570139897015 O
atom 7.3173444070587186 4.3262083282418793 16.1082764191166419 Mo
atom 5.9214944825287485 4.2389767946555494 17.5463198084546868 O
atom 8.4044075216564149 2.8290865706039221 17.0670751537516665 O
atom 6.3739627163662114 2.7651739129878252 15.0786482477553534 O
atom 2.4296001613016700 1.2692095058583539 21.0211598763683440 Mo
atom 0.0404691319671726 5.4008707738354955 18.5314721338790989 Mo
atom 3.8178032447395212 1.4228092162151527 19.6153614951202968 O
atom 1.0331742590939121 1.3547056597815428 22.4606567423836303 O
atom 3.6059445577033742 0.0395602609950581 22.0620345037637904 O
atom 1.3998720317220028 5.5569504473951392 19.9138240365887640 O
atom 2.5775029725305161 4.3258179266094015 20.9538985626809975 Mo
atom 0.0413463026520678 2.9049066984832752 18.5321198798205344 Mo
atom 3.9715193096857844 4.2417814962448341 19.5140753478786309 O
atom 1.1870189883892259 4.1732010941195519 22.3585724124149436 O
atom 3.5147032573854475 2.7668710133814245 21.9783457512980682 O
atom 1.4890287132655669 2.8293526419061323 19.9947337369414271 O
atom 7.4815678748796088 1.2686171471475589 20.9535857186048879 Mo
atom 4.9453584289010486 0.1936983557732654 18.5294542275638392 Mo
atom 8.8782495388027964 1.3553164947409364 19.5146988553682093 O
atom 6.0939953511962059 1.4245031582199963 22.3586351390052869 O
atom 8.5103351472995712 5.5579302105242521 22.0621704242372587 O
atom 6.3062238145177290 0.0367198985850373 19.9133328947120063 O
atom 7.3352398410578266 4.3265128364549188 21.0214354228150384 Mo
atom 4.9476817430116373 2.6884263948585820 18.5323886677807579 Mo
atom 8.7243367755982266 4.1717142623773498 19.6170261819144400 O
atom 5.9399280201772351 4.2394137413996491 22.4617655348554521 O
atom 8.4230399297562037 2.8285890899181791 21.9802160982985271 O
atom 6.3918857237882456 2.7643501405082977 19.9919221948834327 O
atom 2.4473900993433197 1.2700878015118588 25.9346955322754482 Mo
atom 0.0576302527859038 5.4015729750128205 23.4437052119170417 Mo
atom 3.8362297262328142 1.4227766927726992 24.5298373823803644 O
atom 1.0509682116497852 1.3554616887181308 27.3757342117928175 O
atom 3.6235578393838668 0.0375240230009660 26.9744809185867496 O
atom 1.4170683821101890 5.5579553644624387 24.8264816436146418 O
atom 2.5931972944947561 4.3260010464297283 25.8663464803253405 Mo
atom 0.0588262250216790 2.9061812635711424 23.4435289116048793 Mo
atom 3.9906264376994480 4.2429730634280576 24.4267890498383053 O
atom 1.2053537925836562 4.1726249715325716 27.2716169711024463 O
atom 3.5320881619394568 2.7652795214292585 26.8911460417658361 O
atom 1.5065205428368671 2.8284767100906953 24.9066989625068658 O
atom 7.5024507432952987 1.2684898395366171 25.8673825027568896 Mo
atom 4.9647333523739245 0.1927182731961010 23.4452192865653792 Mo
atom 8.8956869356773094 1.3549503385190842 24.4280573184879444 O
atom 6.1114829392857155 1.4234484949613289 27.2716810432433832 O
atom 8.5300522772979281 5.5561595395329801 26.9754750748062193 O
atom 6.3257580878526403 0.0377347352542227 24.8274386576043398 O
atom 7.3537403981006522 4.3257253014726720 25.9347580627312837 Mo
atom 4.9670221141464816 2.6875196854294594 23.4465938830932998 Mo
atom 8.7422376699509368 4.1706777618345088 24.5287553145369728 O
atom 5.9578904735706821 4.2384937678863412 27.3728014520693250 O
atom 8.4408035126983485 2.8286035438347148 26.8935567973663083 O
atom 6.4103587074081432 2.7646908862186175 24.9051298913699952 O
atom 2.4659961523436018 1.2687264790891457 30.8476415199829859 Mo
atom 0.0768651230091051 5.4003877470662882 28.3579537774937407 Mo
atom 3.8541992357814538 1.4223261894459447 29.4418431387349386 O
atom 1.0695702501358446 1.3542226330123348 32.2871383859982686 O
atom 3.6423405487453069 0.0390772342258501 31.8885161473784322 O
atom 1.4362680227639353 5.5564674206259319 29.7403056802034058 O
atom 2.6138989635724492 4.3253348998401924 30.7803802062956322 Mo
atom 0.0777422936940003 2.9044236717140679 28.3586015234351763 Mo
atom 4.0079153007277162 4.2412984694756259 29.3405569914932727 O
atom 1.2234149794311584 4.1727180673503454 32.1850540560295784 O
atom 3.5510992484273802 2.7663879866122172 31.8048273949127065 O
atom 1.5254247043074993 2.8288696151369246 29.8212153805560618 O
atom 7.5179638659215424 1.2681341203783507 30.7800673622195333 Mo
atom 4.9817544199429822 0.1932153290040575 28.3559358711784810 Mo
atom 8.9146455298447300 1.3548334679717282 29.3411804989828511 O
atom 6.1303913422381378 1.4240201314507881 32.1851167826199287 O
atom 8.5467311383415048 5.5574471837550439 31.8886520678519005 O
atom 6.3426198055596608 0.0362368718158293 29.7398145383266481 O
atom 7.3716358320997601 4.3260298096857106 30.8479170664296802 Mo
atom 4.9840777340535709 2.6879433680893743 28.3588703113953926 Mo
atom 8.7607327666401602 4.1712312356081425 29.4435078255290819 O
atom 5.9763240112191687 4.2389307146304418 32.2882471784700869 O
atom 8.4594359207981373 2.8281060631489718 31.8066977419131689 O
atom 6.4282817148301774 2.7638671137390900 29.8184038384980710 O
atom 2.4837860903852520 1.2696047747426504 35.7611771758900900 Mo
atom 0.0940262438278363 5.4010899482436123 33.2701868555316835 Mo
atom 3.8726257172747469 1.4222936660034911 34.3563190259950062 O
atom 1.0873642026917176 1.3549786619489226 37.2022158554074593 O
atom 3.6599538304257995 0.0370409962317581 36.8009625622013914 O
atom 1.4534643731521213 5.5574723376932305 34.6529632872292837 O
atom 2.6295932855366884 4.3255180196605201 35.6928281239399823 Mo
atom 0.0952222160636115 2.9056982368019342 33.2700105552195211 Mo
atom 4.0270224287413798 4.2424900366588503 34.2532706934529472 O
atom 1.2417497836255886 4.1721419447633634 37.0980986147170952 O
atom 3.5684841529813895 2.7647964946600503 36.7176276853804779 O
atom 1.5429165338787996 2.8279936833214876 34.7331806061215005 O
atom 7.5388467343372305 1.2680068127674091 35.6938641463715243 Mo
atom 5.0011293434158564 0.1922352464268930 33.2717009301800175 Mo
atom 8.9320829267192412 1.3544673117498760 34.2545389621025862 O
atom 6.1478789303276473 1.4229654681921209 37.0981626868580250 O
atom 8.5664482683398635 5.5556765127637728 36.8019567184208682 O
atom 6.3621540788945738 0.0372517084850148 34.6539203012189887 O
atom 7.3901363891425840 4.3252422747034638 35.7612397063459255 Mo
atom 5.0034181051884152 2.6870366586602517 33.2730755267079417 Mo
atom 8.7786336609928686 4.1701947350653006 34.3552369581516146 O
atom 5.9942864646126139 4.2380107411171339 37.1992830956839740 O
atom 8.4771995037402803 2.8281205170655062 36.7200384409809502 O
atom 6.4467546984500768 2.7642078594494102 34.7316115349846442 O
atom 2.5023921433855345 1.2682434523199380 40.6741231635976277 Mo
atom 0.1132611140510375 5.3999047202970800 38.1844354211083754 Mo
atom 3.8905952268233870 1.4218431626767367 39.2683247823495805 O
atom 3.6787365397872391 0.0385942074566422 41.7149977909930811 O
atom 1.4726640138058678 5.5559843938567237 39.5667873238180476 O
atom 2.6502949546143810 4.3248518730709851 40.6068618499102811 Mo
atom 0.1141382847359327 2.9039406449448597 38.1850831670498181 Mo
atom 4.0443112917696489 4.2408154427064186 39.1670386351079145 O
atom 3.5874952394693120 2.7659049598430090 41.6313090385273483 O
atom 1.5618206953494318 2.8283865883677168 39.6476970241707107 O
atom 7.5543598569634742 1.2676510936091425 40.6065490058341751 Mo
atom 5.0181504109849140 0.1927323022348495 38.1824175147931228 Mo
atom 8.9510415208866618 1.3543504412025202 39.1676621425974929 O
atom 8.5831271293834366 5.5569641569858366 41.7151337114665424 O
atom 6.3790157966015935 0.0357538450466214 39.5662961819412970 O
atom 7.4080318231416920 4.3255467829165024 40.6743987100443221 Mo
atom 5.0204737250955027 2.6874603413201665 38.1853519550100415 Mo
atom 8.7971287576820920 4.1707482088389343 39.2699894691437237 O
atom 8.4958319118400691 2.8276230363797641 41.6331793855278107 O
atom 6.4646777058721110 2.7633840869698822 39.6448854821127128 O
