#===============================================================================
# Created using the Atomic Simulation Environment (ASE)

# Mon Mar 23 14:01:05 2026

#=======================================================
lattice_vector 9.8126889492172058 0.0000000000000000 0.0000000000000000 
lattice_vector -0.0003216163056373 5.5978426502690191 0.0000000000000000 
lattice_vector 0.0000000000000000 0.0000000000000000 59.1830429426662405 
atom 0.9967782680519797 1.3551886865507508 15.1020843299686831 O
atom 1.1506229973472935 4.1736841208887610 15.0000000000000000 O
atom 6.0575993601542724 1.4249861849892043 15.0000627265903397 O
atom 5.9035320291353033 4.2398967681688573 15.1031931224405049 O
atom 2.4109941083013871 1.2705708282810668 18.5761231198605010 Mo
atom 0.0212342617439714 5.4020560017820278 16.0851327995020981 Mo
atom 3.7998337351908829 1.4232597195419072 17.1712649699654207 O
atom 1.0145722206078527 1.3559447154873387 20.0171617993778739 O
atom 3.5871618483419354 0.0380070497701740 19.6159085061718059 O
atom 1.3806723910682563 5.5584383912316460 17.4679092311996982 O
atom 2.5568013034528234 4.3264840731989365 18.5077740679103933 Mo
atom 0.0224302339797466 2.9066642903403497 16.0849564991899356 Mo
atom 3.9542304466575158 4.2434560901972658 17.0682166374233617 O
atom 1.1689578015417237 4.1731079983017789 19.9130445586875062 O
atom 3.4956921708975246 2.7657625481984662 19.5325736293508925 O
atom 1.4701245517949346 2.8289597368599031 17.5481265500919221 O
atom 7.4660547522533651 1.2689728663058251 18.5088100903419459 Mo
atom 4.9283373613319919 0.1932012999653090 16.0866468741504356 Mo
atom 8.8592909446353776 1.3554333652882922 17.0694849060730007 O
atom 6.0750869482437819 1.4239315217305368 19.9131086308284360 O
atom 8.4936562862559963 5.5566425663021883 19.6169026623912757 O
atom 6.2893620968107076 0.0382177620234307 17.4688662451893997 O
atom 7.3173444070587186 4.3262083282418793 18.5761856503163401 Mo
atom 4.9306261231045498 2.6880027121986672 16.0880214706783562 Mo
atom 8.7058416789090067 4.1711607886037161 17.1701829021220291 O
atom 5.9214944825287485 4.2389767946555494 20.0142290396543849 O
atom 8.4044075216564149 2.8290865706039221 19.5349843849513647 O
atom 6.3739627163662114 2.7651739129878252 17.5465574789550516 O
atom 2.4296001613016700 1.2692095058583539 23.4890691075680422 Mo
atom 0.0404691319671726 5.4008707738354955 20.9993813650787970 Mo
atom 3.8178032447395212 1.4228092162151527 22.0832707263199950 O
atom 1.0331742590939121 1.3547056597815428 24.9285659735833285 O
atom 3.6059445577033742 0.0395602609950581 24.5299437349634886 O
atom 1.3998720317220028 5.5569504473951392 22.3817332677884622 O
atom 2.5775029725305161 4.3258179266094015 23.4218077938806957 Mo
atom 0.0413463026520678 2.9049066984832752 21.0000291110202326 Mo
atom 3.9715193096857844 4.2417814962448341 21.9819845790783290 O
atom 1.1870189883892259 4.1732010941195519 24.8264816436146418 O
atom 3.5147032573854475 2.7668710133814245 24.4462549824977664 O
atom 1.4890287132655669 2.8293526419061323 22.4626429681411253 O
atom 7.4815678748796088 1.2686171471475589 23.4214949498045861 Mo
atom 4.9453584289010486 0.1936983557732654 20.9973634587635374 Mo
atom 8.8782495388027964 1.3553164947409364 21.9826080865679074 O
atom 6.0939953511962059 1.4245031582199963 24.8265443702049851 O
atom 8.5103351472995712 5.5579302105242521 24.5300796554369569 O
atom 6.3062238145177290 0.0367198985850373 22.3812421259117045 O
atom 7.3352398410578266 4.3265128364549188 23.4893446540147366 Mo
atom 4.9476817430116373 2.6884263948585820 21.0002978989804561 Mo
atom 8.7243367755982266 4.1717142623773498 22.0849354131141382 O
atom 5.9399280201772351 4.2394137413996491 24.9296747660551503 O
atom 8.4230399297562037 2.8285890899181791 24.4481253294982253 O
atom 6.3918857237882456 2.7643501405082977 22.4598314260831309 O
atom 2.4473900993433197 1.2700878015118588 28.4026047634751464 Mo
atom 0.0576302527859038 5.4015729750128205 25.9116144431167399 Mo
atom 3.8362297262328142 1.4227766927726992 26.9977466135800626 O
atom 1.0509682116497852 1.3554616887181308 29.8436434429925157 O
atom 3.6235578393838668 0.0375240230009660 29.4423901497864478 O
atom 1.4170683821101890 5.5579553644624387 27.2943908748143400 O
atom 2.5931972944947561 4.3260010464297283 28.3342557115250386 Mo
atom 0.0588262250216790 2.9061812635711424 25.9114381428045775 Mo
atom 3.9906264376994480 4.2429730634280576 26.8946982810380035 O
atom 1.2053537925836562 4.1726249715325716 29.7395262023021445 O
atom 3.5320881619394568 2.7652795214292585 29.3590552729655343 O
atom 1.5065205428368671 2.8284767100906953 27.3746081937065640 O
atom 7.5024507432952987 1.2684898395366171 28.3352917339565877 Mo
atom 4.9647333523739245 0.1927182731961010 25.9131285177650774 Mo
atom 8.8956869356773094 1.3549503385190842 26.8959665496876426 O
atom 6.1114829392857155 1.4234484949613289 29.7395902744430813 O
atom 8.5300522772979281 5.5561595395329801 29.4433843060059175 O
atom 6.3257580878526403 0.0377347352542227 27.2953478888040380 O
atom 7.3537403981006522 4.3257253014726720 28.4026672939309819 Mo
atom 4.9670221141464816 2.6875196854294594 25.9145031142929980 Mo
atom 8.7422376699509368 4.1706777618345088 26.9966645457366710 O
atom 5.9578904735706821 4.2384937678863412 29.8407106832690232 O
atom 8.4408035126983485 2.8286035438347148 29.3614660285660065 O
atom 6.4103587074081432 2.7646908862186175 27.3730391225696934 O
atom 2.4659961523436018 1.2687264790891457 33.3155507511826841 Mo
atom 0.0768651230091051 5.4003877470662882 30.8258630086934389 Mo
atom 3.8541992357814538 1.4223261894459447 31.9097523699346368 O
atom 1.0695702501358446 1.3542226330123348 34.7550476171979668 O
atom 3.6423405487453069 0.0390772342258501 34.3564253785781304 O
atom 1.4362680227639353 5.5564674206259319 32.2082149114031040 O
atom 2.6138989635724492 4.3253348998401924 33.2482894374953304 Mo
atom 0.0777422936940003 2.9044236717140679 30.8265107546348744 Mo
atom 4.0079153007277162 4.2412984694756259 31.8084662226929709 O
atom 1.2234149794311584 4.1727180673503454 34.6529632872292765 O
atom 3.5510992484273802 2.7663879866122172 34.2727366261124047 O
atom 1.5254247043074993 2.8288696151369246 32.2891246117557600 O
atom 7.5179638659215424 1.2681341203783507 33.2479765934192315 Mo
atom 4.9817544199429822 0.1932153290040575 30.8238451023781792 Mo
atom 8.9146455298447300 1.3548334679717282 31.8090897301825493 O
atom 6.1303913422381378 1.4240201314507881 34.6530260138196269 O
atom 8.5467311383415048 5.5574471837550439 34.3565612990515987 O
atom 6.3426198055596608 0.0362368718158293 32.2077237695263463 O
atom 7.3716358320997601 4.3260298096857106 33.3158262976293784 Mo
atom 4.9840777340535709 2.6879433680893743 30.8267795425950908 Mo
atom 8.7607327666401602 4.1712312356081425 31.9114170567287800 O
atom 5.9763240112191687 4.2389307146304418 34.7561564096697850 O
atom 8.4594359207981373 2.8281060631489718 34.2746069731128671 O
atom 6.4282817148301774 2.7638671137390900 32.2863130696977692 O
atom 2.4837860903852520 1.2696047747426504 38.2290864070897882 Mo
atom 0.0940262438278363 5.4010899482436123 35.7380960867313817 Mo
atom 3.8726257172747469 1.4222936660034911 36.8242282571947044 O
atom 1.0873642026917176 1.3549786619489226 39.6701250866071575 O
atom 3.6599538304257995 0.0370409962317581 39.2688717934010896 O
atom 1.4534643731521213 5.5574723376932305 37.1208725184289818 O
atom 2.6295932855366884 4.3255180196605201 38.1607373551396805 Mo
atom 0.0952222160636115 2.9056982368019342 35.7379197864192193 Mo
atom 4.0270224287413798 4.2424900366588503 36.7211799246526454 O
atom 1.2417497836255886 4.1721419447633634 39.5660078459167934 O
atom 3.5684841529813895 2.7647964946600503 39.1855369165801761 O
atom 1.5429165338787996 2.8279936833214876 37.2010898373211987 O
atom 7.5388467343372305 1.2680068127674091 38.1617733775712225 Mo
atom 5.0011293434158564 0.1922352464268930 35.7396101613797157 Mo
atom 8.9320829267192412 1.3544673117498760 36.7224481933022844 O
atom 6.1478789303276473 1.4229654681921209 39.5660719180577232 O
atom 8.5664482683398635 5.5556765127637728 39.2698659496205664 O
atom 6.3621540788945738 0.0372517084850148 37.1218295324186869 O
atom 7.3901363891425840 4.3252422747034638 38.2291489375456237 Mo
atom 5.0034181051884152 2.6870366586602517 35.7409847579076398 Mo
atom 8.7786336609928686 4.1701947350653006 36.8231461893513128 O
atom 5.9942864646126139 4.2380107411171339 39.6671923268836721 O
atom 8.4771995037402803 2.8281205170655062 39.1879476721806483 O
atom 6.4467546984500768 2.7642078594494102 37.1995207661843423 O
atom 2.5023921433855345 1.2682434523199380 43.1420323947973259 Mo
atom 0.1132611140510375 5.3999047202970800 40.6523446523080736 Mo
atom 3.8905952268233870 1.4218431626767367 41.7362340135492786 O
atom 3.6787365397872391 0.0385942074566422 44.1829070221927793 O
atom 1.4726640138058678 5.5559843938567237 42.0346965550177458 O
atom 2.6502949546143810 4.3248518730709851 43.0747710811099793 Mo
atom 0.1141382847359327 2.9039406449448597 40.6529923982495163 Mo
atom 4.0443112917696489 4.2408154427064186 41.6349478663076127 O
atom 3.5874952394693120 2.7659049598430090 44.0992182697270465 O
atom 1.5618206953494318 2.8283865883677168 42.1156062553704089 O
atom 7.5543598569634742 1.2676510936091425 43.0744582370338733 Mo
atom 5.0181504109849140 0.1927323022348495 40.6503267459928210 Mo
atom 8.9510415208866618 1.3543504412025202 41.6355713737971911 O
atom 8.5831271293834366 5.5569641569858366 44.1830429426662405 O
atom 6.3790157966015935 0.0357538450466214 42.0342054131409952 O
atom 7.4080318231416920 4.3255467829165024 43.1423079412440202 Mo
atom 5.0204737250955027 2.6874603413201665 40.6532611862097397 Mo
atom 8.7971287576820920 4.1707482088389343 41.7378987003434219 O
atom 8.4958319118400691 2.8276230363797641 44.1010886167275089 O
atom 6.4646777058721110 2.7633840869698822 42.1127947133124110 O
