#===============================================================================
# Created using the Atomic Simulation Environment (ASE)

# Mon Mar 23 14:01:06 2026

#=======================================================
lattice_vector 13.8613002900044648 0.0000000000000000 0.0000000000000000 
lattice_vector -0.0000317652287253 5.5978426594179016 0.0000000000000000 
lattice_vector 0.0000000000000000 0.0000000000000000 43.5145331015296009 
atom 3.4998679734610141 5.5615049366079941 15.0005553122436694 O
atom 3.5595099201337024 1.2717714648824894 16.5117529251381470 Mo
atom 1.5841869085478477 1.4266386382837832 16.5059765495405273 O
atom 3.4950692084174912 2.8338795934983225 15.1168219752884099 O
atom 10.4900709506052721 4.3279549979889955 16.5118524126307733 Mo
atom 8.5146004632665946 4.1753346909343110 16.5055895388430542 O
atom 10.4309720476914247 0.0400279109778887 15.0000000000000000 O
atom 10.4248443320819071 2.7695116654668075 15.1198795940199737 O
atom 0.0985083468689073 4.3293370785887175 19.9901141616776670 Mo
atom 0.0184277107502164 0.1975380987247161 16.5406299617651271 Mo
atom 11.9841205241493611 4.1758059146329147 19.9827369302786479 O
atom 2.1038769894789384 4.2437720746482261 20.0154391946946006 O
atom 0.0067739468184076 5.5590533861309144 21.5581147985099122 O
atom 0.0396132564055117 0.0415366482514989 18.4793018296661700 O
atom 13.8077046022038630 1.2727362972629719 20.0476501498124833 Mo
atom 0.0183552214092310 2.6935022199829191 16.5416069925420537 Mo
atom 11.8038040071779733 1.3568414475395079 20.0203868279339048 O
atom 1.9229038993314864 1.4252844569121870 20.0526173314475358 O
atom 0.0117026567071502 2.8317374240274735 21.4345183870333784 O
atom 0.0341847144712838 2.7691395408519024 18.5994603632534350 O
atom 3.4083125208812621 4.3296746982899466 16.5675084997796631 Mo
atom 10.4190895753300072 5.4049726743454185 20.0161435220400392 Mo
atom 1.4031899305564290 4.2430442170859717 16.5428020248616221 O
atom 5.3830141693839844 4.1737201719525210 16.5748171119719032 O
atom 3.4684717518949730 0.0404210897003778 18.0788698245936779 O
atom 10.4403368935416960 5.5620294384840587 21.9569162350298228 O
atom 10.4999788402143892 1.2722959667585543 23.4681138479242932 Mo
atom 10.4194442897521089 2.9102447748330245 20.0199618067950667 Mo
atom 8.5246558286285286 1.4271631401598481 23.4623374723266735 O
atom 5.5646895227198740 1.3588017725736581 16.5384484006811974 O
atom 3.4720370224604609 2.7697572106510724 17.9590718826379216 O
atom 10.4355381284981750 2.8344040953743872 22.0731828980745632 O
atom 3.5692395806814865 4.3284794998650602 23.4682133354169267 Mo
atom 3.4886790349630594 0.1968565756258570 20.0173646500106415 Mo
atom 1.5937690933428159 4.1758591928103765 23.4619504616292076 O
atom 12.4965297805534945 4.2425122671821898 16.5382677185447591 O
atom 10.3976890676207265 5.5605858253503051 18.0789594611537794 O
atom 3.5101406777676369 0.0405524128539536 21.9563609227861463 O
atom 10.3386738519527412 1.2720492761061108 16.5671355837401819 Mo
atom 3.4877974982041677 2.6922483466997771 20.0179865123132714 Mo
atom 8.3325546083501205 1.3551461625096193 16.5424791479297610 O
atom 12.3137341167685257 1.4253568216991437 16.5743954189106688 O
atom 10.4030297027457408 2.8328251064220633 17.9554507542507373 O
atom 3.5040129621581224 2.7700361673428726 22.0762405168061235 O
atom 6.8770474819619540 4.3298228892011812 20.0479844290397651 Mo
atom 6.9498145299531551 5.4054490656617524 16.5405777018063560 Mo
atom 4.8740442383321492 4.2434310706792617 20.0205262532226840 O
atom 8.8536115239523632 4.1747955340070764 20.0523564476605642 O
atom 6.9376800778340666 0.0422125796995017 21.5581721787434475 O
atom 6.9697730904784727 5.5605109123994092 18.4802931698174007 O
atom 7.0295890064254118 1.2725797539188501 19.9902055604755233 Mo
atom 6.9490878150197632 2.9106477848796559 16.5432713463721193 Mo
atom 5.0535592810699930 1.4276958544172604 19.9828801736979500 O
atom 9.0335270432558943 1.3597424621795371 20.0149067489823125 O
atom 6.9426486666720804 2.7697634714701604 21.4370148357680037 O
atom 6.9650862176591914 2.8335595999075083 18.5951740404514041 O
atom 7.0389772669495896 4.3298615804647822 26.9464750844638132 Mo
atom 6.9588966308308988 0.1980626006007810 23.4969908845512734 Mo
atom 5.0632891542255871 4.1763304165089785 26.9390978530648013 O
atom 9.0443459095596079 4.2442965765242917 26.9718001174807469 O
atom 6.9472428668990895 5.5595778880069799 28.5144757212960656 O
atom 6.9800821764861816 0.0420611501275637 25.4356627524523162 O
atom 6.8868732322800810 1.2732607991390366 27.0040110725986366 Mo
atom 6.9588241414899077 2.6940267218589842 23.4979679153282106 Mo
atom 4.8829726372541931 1.3573659494155728 26.9767477507200581 O
atom 8.8633728194121755 1.4258089587882514 27.0089782542336891 O
atom 6.9521715767878325 2.8322619259035382 28.3908793098195318 O
atom 6.9746536345519665 2.7696640427279666 25.5558212860395813 O
atom 10.3487814409619414 4.3301992001660112 23.5238694225658094 Mo
atom 3.4982582054062226 5.4054971762214832 26.9725044448261855 Mo
atom 8.3436588506371123 4.2435687189620364 23.4991629476477755 O
atom 12.3234830894646699 4.1742446738285857 23.5311780347580566 O
atom 10.4089406719756496 0.0409455915764426 25.0352307473798206 O
atom 3.4986129198283273 2.9107692767090887 26.9763227295812200 Mo
atom 12.5051584428005533 1.3593262744497225 23.4948093234673436 O
atom 10.4125059425411468 2.7702817125271366 24.9154328054240679 O
atom 10.4291479550437476 0.1973810775019218 26.9737255727967877 Mo
atom 5.5756984106297107 4.2430367690582544 23.4946286413309053 O
atom 3.4768576976969454 5.5611103272263707 25.0353203839399328 O
atom 3.4178424820289601 1.2725737779821760 23.5234965065263353 Mo
atom 10.4282664182848581 2.6927728485758418 26.9743474350994248 Mo
atom 1.4117232384263421 1.3556706643856842 23.4988400707159144 O
atom 5.3929027468447339 1.4258813235752086 23.5307563416968151 O
atom 3.4821983328219512 2.8333496082981284 24.9118116770368871 O
atom 13.8175164020426404 4.3303473910772459 27.0043453518259184 Mo
atom 0.0289831600293753 5.4059735675378171 23.4969386245925023 Mo
atom 11.8145131584128293 4.2439555725553264 26.9768871760088302 O
atom 1.9327801540285818 4.1753200358831410 27.0087173704467176 O
atom 0.0168487079102901 0.0427370815755665 28.5145331015296009 O
atom 0.0489417205546904 5.5610354142754739 25.4366540926035540 O
atom 0.1087576365016266 1.2731042557949150 26.9465664832616767 Mo
atom 0.0282564450959844 2.9111722867557210 23.4996322691582691 Mo
atom 11.9940282011506767 1.4282203562933253 26.9392410964840963 O
atom 2.1126956733321118 1.3602669640556018 26.9712676717684516 O
atom 0.0218172967483077 2.7702879733462251 28.3933757585541500 O
atom 0.0442548477354068 2.8340841017835730 25.5515349632375504 O
