#===============================================================================
# Created using the Atomic Simulation Environment (ASE)

# Mon Mar 23 14:01:06 2026

#=======================================================
lattice_vector 13.8613002900044648 0.0000000000000000 0.0000000000000000 
lattice_vector -0.0000317652287253 5.5978426594179016 0.0000000000000000 
lattice_vector 0.0000000000000000 0.0000000000000000 53.9479531174357305 
atom 0.0788707967120072 4.3282880748365882 16.5108123320114970 Mo
atom 11.9644829739924603 4.1747569108807854 16.5034351006124851 O
atom 2.0842394393220323 4.2427230708960968 16.5361373650284378 O
atom 13.8484366866659752 5.5580043823787850 18.0788129688437422 O
atom 0.0199757062486085 0.0404876444993692 15.0000000000000000 O
atom 13.7880670520469639 1.2716872935108421 16.5683483201463169 Mo
atom 11.7841664570210725 1.3557924437873783 16.5410849982677384 O
atom 1.9032663491745865 1.4242354531600572 16.5733155017813694 O
atom 13.8533653965547146 2.8306884202753442 17.9552165573672085 O
atom 0.0145471643143867 2.7680905370997726 15.1201585335872668 O
atom 10.3994520251731046 5.4039236705932892 16.5368416923738657 Mo
atom 10.4206993433848005 5.5609804347319294 18.4776144053636528 O
atom 10.4803412900574884 1.2712469630064245 19.9888120182581268 Mo
atom 10.3998067395952152 2.9091957710808947 16.5406599771289038 Mo
atom 8.5050182784716277 1.4261141364077188 19.9830356426605071 O
atom 10.4159005783412706 2.8333550916222574 18.5938810684083933 O
atom 3.5496020305245866 4.3274304961129308 19.9889115057507567 Mo
atom 3.4690414848061630 0.1958075718737274 16.5380628203444680 Mo
atom 1.5741315431859126 4.1748101890582463 19.9826486319630341 O
atom 3.4905031276107459 0.0395034091018239 18.4770590931199798 O
atom 3.4681599480472709 2.6911993429476477 16.5386846826471015 Mo
atom 3.4843754120012256 2.7689871635907428 18.5969386871399571 O
atom 6.8574099318050585 4.3287738854490518 16.5686825993735951 Mo
atom 4.8544066881752483 4.2423820669271324 16.5412244235565140 O
atom 8.8339739737954694 4.1737465302549470 16.5730546179943978 O
atom 6.9180425276771675 0.0411635759473720 18.0788703490772811 O
atom 6.9501355403215719 5.5594619086472798 15.0009913401512307 O
atom 7.0099514562685101 1.2715307501667206 16.5109037308093569 Mo
atom 5.0339217309130895 1.4266468506651309 16.5035783440317800 O
atom 9.0138894930989970 1.3586934584274073 16.5356049193161425 O
atom 6.9230111165151840 2.7687144677180311 17.9577130061018337 O
atom 6.9454486675022880 2.8325105961553785 15.1158722107852341 O
atom 7.0193397167926834 4.3288125767126528 23.4671732547976433 Mo
atom 6.9392590806739927 0.1970135968486513 20.0176890548851070 Mo
atom 5.0436516040686810 4.1752814127568501 23.4597960233986313 O
atom 9.0247083594027160 4.2432475727721615 23.4924982878145840 O
atom 6.9276053167421869 5.5585288842548506 25.0351738916298885 O
atom 6.9604446263292878 0.0410121463754341 21.9563609227861498 O
atom 6.8672356821231810 1.2722117953869068 23.5247092429324667 Mo
atom 6.9391865913330104 2.6929777181068544 20.0186660856620371 Mo
atom 4.8633350870972869 1.3563169456634427 23.4974459210538846 O
atom 8.8437352692552693 1.4247599550361219 23.5296764245675192 O
atom 6.9325340266309290 2.8312129221514084 24.9115774801533547 O
atom 6.9550160843950657 2.7686150389758373 22.0765194563734148 O
atom 10.3291438908050406 4.3291501964138819 20.0445675928996394 Mo
atom 3.4786206552493226 5.4044481724693538 23.4932026151600155 Mo
atom 8.3240213004802150 4.2425197152099070 20.0198611179816055 O
atom 12.3038455393077708 4.1731956700764563 20.0518762050918866 O
atom 10.3893031218187524 0.0398965878243129 21.5559289177136577 O
atom 3.4998679734610141 5.5615049366079941 25.4339753281497991 O
atom 3.5595099201337024 1.2717714648824894 26.9451729410442766 Mo
atom 3.4789753696714367 2.9097202729569589 23.4970208999150501 Mo
atom 1.5841869085478477 1.4266386382837832 26.9393965654466570 O
atom 12.4855208926436543 1.3582772706975932 20.0155074938011772 O
atom 10.3928683923842478 2.7692327087750077 21.4361309757578979 O
atom 3.4950692084174912 2.8338795934983225 25.5502419911945395 O
atom 10.4900709506052721 4.3279549979889955 26.9452724285369030 Mo
atom 10.4095104048868450 0.1963320737497922 23.4944237431306142 Mo
atom 8.5146004632665946 4.1753346909343110 26.9390095547491839 O
atom 5.5560608604728143 4.2419877653061251 20.0153268116647354 O
atom 3.4572201475400450 5.5600613234742404 21.5560185542737557 O
atom 10.4309720476914247 0.0400279109778887 25.4334200159061297 O
atom 3.3982049318720602 1.2715247742300462 20.0441946768601653 Mo
atom 10.4086288681279502 2.6917238448237124 23.4950456054332513 Mo
atom 1.3920856882694388 1.3546216606335542 20.0195382410497444 O
atom 5.3732651966878402 1.4248323198230788 20.0514545120306451 O
atom 3.4625607826650606 2.8323006045459991 21.4325098473707172 O
atom 10.4248443320819071 2.7695116654668075 25.5532996099261034 O
atom 13.7978788518857414 4.3292983873251165 23.5250435221597485 Mo
atom 0.0093456098724720 5.4049245637856878 20.0176367949263359 Mo
atom 11.7948756082559321 4.2429065688031971 23.4975853463426674 O
atom 1.9131426038716848 4.1742710321310117 23.5294155407805476 O
atom 13.8585114477578504 0.0416880778234369 25.0352312718634309 O
atom 0.0293041703977902 5.5599864105233445 21.9573522629373805 O
atom 0.0891200863447264 1.2720552520427852 23.4672646535955067 Mo
atom 0.0086188949390843 2.9101232830035908 20.0203304394920991 Mo
atom 11.9743906509937723 1.4271713525411955 23.4599392668179263 O
atom 2.0930581231752150 1.3592179603034720 23.4919658421022888 O
atom 0.0021797465914044 2.7692389695940958 24.9140739288879871 O
atom 0.0246172975785066 2.8330350980314432 22.0722331335713804 O
atom 0.0985083468689073 4.3293370785887175 30.4235341775837966 Mo
atom 0.0184277107502164 0.1975380987247161 26.9740499776712568 Mo
atom 11.9841205241493611 4.1758059146329147 30.4161569461847776 O
atom 2.1038769894789384 4.2437720746482261 30.4488592106007303 O
atom 0.0067739468184076 5.5590533861309144 31.9915348144160419 O
atom 0.0396132564055117 0.0415366482514989 28.9127218455722996 O
atom 13.8077046022038630 1.2727362972629719 30.4810701657186129 Mo
atom 0.0183552214092310 2.6935022199829191 26.9750270084481834 Mo
atom 11.8038040071779733 1.3568414475395079 30.4538068438400344 O
atom 1.9229038993314864 1.4252844569121870 30.4860373473536654 O
atom 0.0117026567071502 2.8317374240274735 31.8679384029395081 O
atom 0.0341847144712838 2.7691395408519024 29.0328803791595647 O
atom 3.4083125208812621 4.3296746982899466 27.0009285156857928 Mo
atom 10.4190895753300072 5.4049726743454185 30.4495635379461689 Mo
atom 1.4031899305564290 4.2430442170859717 26.9762220407677518 O
atom 5.3830141693839844 4.1737201719525210 27.0082371278780329 O
atom 3.4684717518949730 0.0404210897003778 28.5122898404998075 O
atom 10.4403368935416960 5.5620294384840587 32.3903362509359525 O
atom 10.4999788402143892 1.2722959667585543 33.9015338638304229 Mo
atom 10.4194442897521089 2.9102447748330245 30.4533818227011963 Mo
atom 8.5246558286285286 1.4271631401598481 33.8957574882328032 O
atom 5.5646895227198740 1.3588017725736581 26.9718684165873270 O
atom 3.4720370224604609 2.7697572106510724 28.3924918985440513 O
atom 10.4355381284981750 2.8344040953743872 32.5066029139806929 O
atom 3.5692395806814865 4.3284794998650602 33.9016333513230563 Mo
atom 3.4886790349630594 0.1968565756258570 30.4507846659167711 Mo
atom 1.5937690933428159 4.1758591928103765 33.8953704775353373 O
atom 12.4965297805534945 4.2425122671821898 26.9716877344508887 O
atom 10.3976890676207265 5.5605858253503051 28.5123794770599090 O
atom 3.5101406777676369 0.0405524128539536 32.3897809386922759 O
atom 10.3386738519527412 1.2720492761061108 27.0005555996463116 Mo
atom 3.4877974982041677 2.6922483466997771 30.4514065282194011 Mo
atom 8.3325546083501205 1.3551461625096193 26.9758991638358907 O
atom 12.3137341167685257 1.4253568216991437 27.0078154348167985 O
atom 10.4030297027457408 2.8328251064220633 28.3888707701568670 O
atom 3.5040129621581224 2.7700361673428726 32.5096605327122532 O
atom 6.8770474819619540 4.3298228892011812 30.4814044449458947 Mo
atom 6.9498145299531551 5.4054490656617524 26.9739977177124857 Mo
atom 4.8740442383321492 4.2434310706792617 30.4539462691288136 O
atom 8.8536115239523632 4.1747955340070764 30.4857764635666939 O
atom 6.9376800778340666 0.0422125796995017 31.9915921946495772 O
atom 6.9697730904784727 5.5605109123994092 28.9137131857235303 O
atom 7.0295890064254118 1.2725797539188501 30.4236255763816530 Mo
atom 6.9490878150197632 2.9106477848796559 26.9766913622782489 Mo
atom 5.0535592810699930 1.4276958544172604 30.4163001896040797 O
atom 9.0335270432558943 1.3597424621795371 30.4483267648884421 O
atom 6.9426486666720804 2.7697634714701604 31.8704348516741334 O
atom 6.9650862176591914 2.8335595999075083 29.0285940563575338 O
atom 7.0389772669495896 4.3298615804647822 37.3798951003699429 Mo
atom 6.9588966308308988 0.1980626006007810 33.9304109004574030 Mo
atom 5.0632891542255871 4.1763304165089785 37.3725178689709310 O
atom 9.0443459095596079 4.2442965765242917 37.4052201333868766 O
atom 6.9472428668990895 5.5595778880069799 38.9478957372021952 O
atom 6.9800821764861816 0.0420611501275637 35.8690827683584459 O
atom 6.8868732322800810 1.2732607991390366 37.4374310885047663 Mo
atom 6.9588241414899077 2.6940267218589842 33.9313879312343403 Mo
atom 4.8829726372541931 1.3573659494155728 37.4101677666261878 O
atom 8.8633728194121755 1.4258089587882514 37.4423982701398188 O
atom 6.9521715767878325 2.8322619259035382 38.8242993257256614 O
atom 6.9746536345519665 2.7696640427279666 35.9892413019457109 O
atom 10.3487814409619414 4.3301992001660112 33.9572894384719390 Mo
atom 3.4982582054062226 5.4054971762214832 37.4059244607323151 Mo
atom 8.3436588506371123 4.2435687189620364 33.9325829635539051 O
atom 12.3234830894646699 4.1742446738285857 33.9645980506641862 O
atom 10.4089406719756496 0.0409455915764426 35.4686507632859502 O
atom 3.4986129198283273 2.9107692767090887 37.4097427454873497 Mo
atom 12.5051584428005533 1.3593262744497225 33.9282293393734733 O
atom 10.4125059425411468 2.7702817125271366 35.3488528213301976 O
atom 10.4291479550437476 0.1973810775019218 37.4071455887029174 Mo
atom 5.5756984106297107 4.2430367690582544 33.9280486572370350 O
atom 3.4768576976969454 5.5611103272263707 35.4687403998460624 O
atom 3.4178424820289601 1.2725737779821760 33.9569165224324649 Mo
atom 10.4282664182848581 2.6927728485758418 37.4077674510055544 Mo
atom 1.4117232384263421 1.3556706643856842 33.9322600866220441 O
atom 5.3929027468447339 1.4258813235752086 33.9641763576029447 O
atom 3.4821983328219512 2.8333496082981284 35.3452316929430168 O
atom 13.8175164020426404 4.3303473910772459 37.4377653677320481 Mo
atom 0.0289831600293753 5.4059735675378171 33.9303586404986319 Mo
atom 11.8145131584128293 4.2439555725553264 37.4103071919149599 O
atom 1.9327801540285818 4.1753200358831410 37.4421373863528473 O
atom 0.0168487079102901 0.0427370815755665 38.9479531174357305 O
atom 0.0489417205546904 5.5610354142754739 35.8700741085096837 O
atom 0.1087576365016266 1.2731042557949150 37.3799864991678064 Mo
atom 0.0282564450959844 2.9111722867557210 33.9330522850643987 Mo
atom 11.9940282011506767 1.4282203562933253 37.3726611123902259 O
atom 2.1126956733321118 1.3602669640556018 37.4046876876745813 O
atom 0.0218172967483077 2.7702879733462251 38.8267957744602796 O
atom 0.0442548477354068 2.8340841017835730 35.9849549791436800 O
