#===============================================================================
# Created using the Atomic Simulation Environment (ASE)

# Mon Mar 23 14:01:05 2026

#=======================================================
lattice_vector 9.8126889492172058 0.0000000000000000 0.0000000000000000 
lattice_vector -0.0003216163056373 5.5978426502690191 0.0000000000000000 
lattice_vector 0.0000000000000000 0.0000000000000000 39.5300796554369640 
atom 1.0695702501358446 1.3542226330123348 15.1020843299686902 O
atom 1.2234149794311584 4.1727180673503454 15.0000000000000000 O
atom 6.1303913422381378 1.4240201314507881 15.0000627265903503 O
atom 5.9763240112191687 4.2389307146304418 15.1031931224405085 O
atom 2.4837860903852520 1.2696047747426504 18.5761231198605117 Mo
atom 0.0940262438278363 5.4010899482436123 16.0851327995021052 Mo
atom 3.8726257172747469 1.4222936660034911 17.1712649699654278 O
atom 1.0873642026917176 1.3549786619489226 20.0171617993778810 O
atom 3.6599538304257995 0.0370409962317581 19.6159085061718130 O
atom 1.4534643731521213 5.5574723376932305 17.4679092311997053 O
atom 2.6295932855366884 4.3255180196605201 18.5077740679104039 Mo
atom 0.0952222160636115 2.9056982368019342 16.0849564991899427 Mo
atom 4.0270224287413798 4.2424900366588503 17.0682166374233688 O
atom 1.2417497836255886 4.1721419447633634 19.9130445586875169 O
atom 3.5684841529813895 2.7647964946600503 19.5325736293508996 O
atom 1.5429165338787996 2.8279936833214876 17.5481265500919221 O
atom 7.5388467343372305 1.2680068127674091 18.5088100903419459 Mo
atom 5.0011293434158564 0.1922352464268930 16.0866468741504391 Mo
atom 8.9320829267192412 1.3544673117498760 17.0694849060730078 O
atom 6.1478789303276473 1.4229654681921209 19.9131086308284466 O
atom 8.5664482683398635 5.5556765127637728 19.6169026623912899 O
atom 6.3621540788945738 0.0372517084850148 17.4688662451894103 O
atom 7.3901363891425840 4.3252422747034638 18.5761856503163472 Mo
atom 5.0034181051884152 2.6870366586602517 16.0880214706783633 Mo
atom 8.7786336609928686 4.1701947350653006 17.1701829021220362 O
atom 5.9942864646126139 4.2380107411171339 20.0142290396543956 O
atom 8.4771995037402803 2.8281205170655062 19.5349843849513718 O
atom 6.4467546984500768 2.7642078594494102 17.5465574789550658 O
atom 2.5023921433855345 1.2682434523199380 23.4890691075680493 Mo
atom 0.1132611140510375 5.3999047202970800 20.9993813650787970 Mo
atom 3.8905952268233870 1.4218431626767367 22.0832707263200021 O
atom 3.6787365397872391 0.0385942074566422 24.5299437349635028 O
atom 1.4726640138058678 5.5559843938567237 22.3817332677884693 O
atom 2.6502949546143810 4.3248518730709851 23.4218077938807028 Mo
atom 0.1141382847359327 2.9039406449448597 21.0000291110202397 Mo
atom 4.0443112917696489 4.2408154427064186 21.9819845790783361 O
atom 3.5874952394693120 2.7659049598430090 24.4462549824977700 O
atom 1.5618206953494318 2.8283865883677168 22.4626429681411324 O
atom 7.5543598569634742 1.2676510936091425 23.4214949498045968 Mo
atom 5.0181504109849140 0.1927323022348495 20.9973634587635445 Mo
atom 8.9510415208866618 1.3543504412025202 21.9826080865679145 O
atom 8.5831271293834366 5.5569641569858366 24.5300796554369640 O
atom 6.3790157966015935 0.0357538450466214 22.3812421259117187 O
atom 7.4080318231416920 4.3255467829165024 23.4893446540147437 Mo
atom 5.0204737250955027 2.6874603413201665 21.0002978989804632 Mo
atom 8.7971287576820920 4.1707482088389343 22.0849354131141453 O
atom 8.4958319118400691 2.8276230363797641 24.4481253294982324 O
atom 6.4646777058721110 2.7633840869698822 22.4598314260831344 O
