#===============================================================================
# Created using the Atomic Simulation Environment (ASE)

# Mon Mar 23 14:01:05 2026

#=======================================================
lattice_vector 9.8126889492172058 0.0000000000000000 0.0000000000000000 
lattice_vector -0.0003216163056373 5.5978426502690191 0.0000000000000000 
lattice_vector 0.0000000000000000 0.0000000000000000 41.9753191731398942 
atom 2.4659961523436018 1.2687264790891457 16.1078269816563378 Mo
atom 1.0695702501358446 1.3542226330123348 17.5473238476716205 O
atom 3.6423405487453069 0.0390772342258501 17.1487016090517841 O
atom 1.4362680227639353 5.5564674206259319 15.0004911418767577 O
atom 2.6138989635724492 4.3253348998401924 16.0405656679689841 Mo
atom 1.2234149794311584 4.1727180673503454 17.4452395177029302 O
atom 3.5510992484273802 2.7663879866122172 17.0650128565860584 O
atom 1.5254247043074993 2.8288696151369246 15.0814008422294137 O
atom 7.5179638659215424 1.2681341203783507 16.0402528238928852 Mo
atom 6.1303913422381378 1.4240201314507881 17.4453022442932806 O
atom 8.5467311383415048 5.5574471837550439 17.1488375295252524 O
atom 6.3426198055596608 0.0362368718158293 15.0000000000000000 O
atom 7.3716358320997601 4.3260298096857106 16.1081025281030321 Mo
atom 5.9763240112191687 4.2389307146304418 17.5484326401434387 O
atom 8.4594359207981373 2.8281060631489718 17.0668832035865208 O
atom 6.4282817148301774 2.7638671137390900 15.0785893001714228 O
atom 2.4837860903852520 1.2696047747426504 21.0213626375634419 Mo
atom 0.0940262438278363 5.4010899482436123 18.5303723172050354 Mo
atom 3.8726257172747469 1.4222936660034911 19.6165044876683581 O
atom 1.0873642026917176 1.3549786619489226 22.4624013170808112 O
atom 3.6599538304257995 0.0370409962317581 22.0611480238747433 O
atom 1.4534643731521213 5.5574723376932305 19.9131487489026355 O
atom 2.6295932855366884 4.3255180196605201 20.9530135856133342 Mo
atom 0.0952222160636115 2.9056982368019342 18.5301960168928730 Mo
atom 4.0270224287413798 4.2424900366588503 19.5134561551262991 O
atom 1.2417497836255886 4.1721419447633634 22.3582840763904471 O
atom 3.5684841529813895 2.7647964946600503 21.9778131470538298 O
atom 1.5429165338787996 2.8279936833214876 19.9933660677948524 O
atom 7.5388467343372305 1.2680068127674091 20.9540496080448762 Mo
atom 5.0011293434158564 0.1922352464268930 18.5318863918533694 Mo
atom 8.9320829267192412 1.3544673117498760 19.5147244237759381 O
atom 6.1478789303276473 1.4229654681921209 22.3583481485313769 O
atom 8.5664482683398635 5.5556765127637728 22.0621421800942201 O
atom 6.3621540788945738 0.0372517084850148 19.9141057628923406 O
atom 7.3901363891425840 4.3252422747034638 21.0214251680192774 Mo
atom 5.0034181051884152 2.6870366586602517 18.5332609883812935 Mo
atom 8.7786336609928686 4.1701947350653006 19.6154224198249665 O
atom 5.9942864646126139 4.2380107411171339 22.4594685573573258 O
atom 8.4771995037402803 2.8281205170655062 21.9802239026543020 O
atom 6.4467546984500768 2.7642078594494102 19.9917969966579960 O
atom 2.5023921433855345 1.2682434523199380 25.9343086252709796 Mo
atom 0.1132611140510375 5.3999047202970800 23.4446208827817273 Mo
atom 3.8905952268233870 1.4218431626767367 24.5285102440229323 O
atom 3.6787365397872391 0.0385942074566422 26.9751832526664330 O
atom 1.4726640138058678 5.5559843938567237 24.8269727854913995 O
atom 2.6502949546143810 4.3248518730709851 25.8670473115836330 Mo
atom 0.1141382847359327 2.9039406449448597 23.4452686287231700 Mo
atom 4.0443112917696489 4.2408154427064186 24.4272240967812664 O
atom 3.5874952394693120 2.7659049598430090 26.8914945002007002 O
atom 1.5618206953494318 2.8283865883677168 24.9078824858440626 O
atom 7.5543598569634742 1.2676510936091425 25.8667344675075270 Mo
atom 5.0181504109849140 0.1927323022348495 23.4426029764664747 Mo
atom 8.9510415208866618 1.3543504412025202 24.4278476042708448 O
atom 8.5831271293834366 5.5569641569858366 26.9753191731398942 O
atom 6.3790157966015935 0.0357538450466214 24.8264816436146489 O
atom 7.4080318231416920 4.3255467829165024 25.9345841717176739 Mo
atom 5.0204737250955027 2.6874603413201665 23.4455374166833934 Mo
atom 8.7971287576820920 4.1707482088389343 24.5301749308170756 O
atom 8.4958319118400691 2.8276230363797641 26.8933648472011626 O
atom 6.4646777058721110 2.7633840869698822 24.9050709437860647 O
