#===============================================================================
# Created using the Atomic Simulation Environment (ASE)

# Mon Mar 23 14:01:05 2026

#=======================================================
lattice_vector 11.3093916751154389 0.0000000000000000 0.0000000000000000 
lattice_vector 0.0318583412982305 9.8126372326800713 0.0000000000000000 
lattice_vector 0.0000000000000000 0.0000000000000000 34.6759050623250928 
atom 3.0959167760524879 0.0300963240549160 17.1683790629003923 Mo
atom 8.5160367965956496 1.0052093716899826 15.5977547301718502 O
atom 4.3320236724102621 0.0269602749409706 15.0000000000000000 Mo
atom 4.5362091396787978 3.9564910738489139 16.6476730946234106 O
atom 7.4059801098208569 3.4903554303122561 16.5860078692270037 O
atom 5.6449572319246739 1.4703876605973965 15.6583729362184485 O
atom 8.4092723185830014 6.0664037647952718 15.6078980060661365 O
atom 4.6757759533658874 8.7088804623929867 16.6377554364394982 O
atom 7.3929894390844817 8.3987601479375140 16.6405594867730393 O
atom 5.6906094473266524 6.3731222937159027 15.6005016303980568 O
atom 0.2716396273263799 2.4094816564624306 17.2439443206431946 Mo
atom 10.2893066443927452 3.8025223997305408 16.6811826273460504 O
atom 1.7890432171874631 3.5807290949586035 16.6877038567352436 O
atom 11.2632427326382967 1.3805078799001618 15.5571436944944708 O
atom 1.4710218615642392 2.5517172463131819 15.0014721095771044 Mo
atom 2.7634481942442810 1.1596703551713072 15.5638408372408321 O
atom 0.2303558324987879 7.4647029772457083 17.2092347017968770 Mo
atom 9.9594678406435992 4.9321028494851582 15.0755005496520482 Mo
atom 10.2508735652135083 8.8621310538606028 16.5718665012980608 O
atom 1.8450464887909450 8.4873891862328144 16.6193742833696874 O
atom 11.2415858877772799 6.2889721509172416 15.6250618559123957 O
atom 1.5460554836734288 7.3120418308923441 15.0350975008260406 Mo
atom 8.7257039282561859 4.9383972408593300 17.2438704912338210 Mo
atom 2.8341888909711068 5.9120024126231270 15.6711612509148779 O
atom 4.5411246047142235 2.4142262220652522 19.6747593760300425 Mo
atom 3.2481300640023307 3.8066345414098834 19.1123236459090151 O
atom 6.0580324460152477 3.5856519273829006 19.1215904938478261 O
atom 4.2241635590174722 1.3858433495917224 17.9882833809538027 O
atom 5.7411146316221782 2.5585554657392442 17.4334296414187691 Mo
atom 7.0326381464491003 1.1638710095974827 17.9961627133851394 O
atom 4.4991060903081381 7.4663569815615043 19.6407942450993716 Mo
atom 2.9166989914446710 4.9352717137489188 17.5068267223132459 Mo
atom 3.2105059478452347 8.8672296589400439 19.0038505529048933 O
atom 6.1134146448226456 8.4902101756661406 19.0526053315893051 O
atom 4.2012457633269724 6.2919737792246213 18.0554760598316264 O
atom 5.8148986266341218 7.3160778575698142 17.4674654142371750 Mo
atom 1.6843268259598998 4.9415961391079177 19.6759050623250928 Mo
atom 7.1049551048743398 5.9165703022197702 18.1047762073102945 O
atom 7.3637561542848529 0.0334012925692298 19.6006341747085102 Mo
atom 1.4769313378036180 1.0091392312142620 18.0314646375978711 O
atom 8.5988647609330062 0.0305872877981724 17.4323445109126389 Mo
atom 8.8042301956401765 3.9617414699677589 19.0805913256386859 O
atom 0.3660567918434879 3.4938788949932365 19.0165508115274768 O
atom 9.9133461532326876 1.4740215554252336 18.0891242438979774 O
atom 1.3692970037894672 6.0700300823691569 18.0390289727643349 O
atom 8.9440405508286975 8.7129238277959828 19.0682503584351721 O
atom 0.3527419313765264 8.4026633455377127 19.0727653195805615 O
atom 9.9594788353521917 6.3777357878491614 18.0329251337577610 O
