#===============================================================================
# Created using the Atomic Simulation Environment (ASE)

# Mon Mar 23 14:01:04 2026

#=======================================================
lattice_vector 9.8265490582286468 0.0000000000000000 0.0000000000000000 
lattice_vector 0.0363446553796943 9.8126216415448742 0.0000000000000000 
lattice_vector 0.0000000000000000 0.0000000000000000 30.0776641036034924 
atom 0.0023502239947080 0.0039767851112227 15.0761481151756236 Mo
atom 1.4703197485853934 1.4462319604464016 15.0006659543764158 O
atom 3.4814710123124351 8.3728417005431925 15.0000000000000000 O
atom 4.9137902414997825 0.0032655018232528 15.0776641036034924 Mo
atom 6.3823161058664946 1.4455305238326972 15.0000314732436237 O
atom 8.3948437964240519 8.3724069210610619 15.0002559722103577 O
