#===============================================================================
# Created using the Atomic Simulation Environment (ASE)

# Mon Mar 23 14:01:04 2026

#=======================================================
lattice_vector 9.8265490582286468 0.0000000000000000 0.0000000000000000 
lattice_vector 0.0363446553796943 9.8126216415448742 0.0000000000000000 
lattice_vector 0.0000000000000000 0.0000000000000000 39.9311354453029566 
atom 0.0021292532589998 0.0037436638793906 16.2298982103593801 Mo
atom 1.3894990146380002 1.3580172537051103 16.3860458340912167 O
atom 2.4339886816567695 2.5317876203692431 15.1549644402979595 Mo
atom 0.9993426926322120 3.9311272588771948 15.0708572346363567 O
atom 3.8335102627905617 1.1361104552754326 15.0024166556023317 O
atom 3.5641666517029087 8.4604744601604587 16.3871312005114689 O
atom 2.5191469528059409 7.2892417086238810 15.1556626699586730 Mo
atom 1.1198999523671105 8.6835307975919651 15.0007950614652934 O
atom 3.9543034495378393 5.8886046866513322 15.0686343753240450 O
atom 4.9143921587082797 0.0027105289854553 16.2308418753839021 Mo
atom 6.3021865617674449 1.3570177758055457 16.3872922358733319 O
atom 7.3464610179620538 2.5292869008553609 15.1553890345266851 Mo
atom 5.9120934023553540 3.9320383377637858 15.0722902892915513 O
atom 8.7465890532971269 1.1362479898772750 15.0020820367529240 O
atom 8.4775107109421430 8.4619933475276383 16.3856020460441876 O
atom 7.4325044469479815 7.2895439649295835 15.1551166523835121 Mo
atom 6.0316617413293745 8.6832392973756569 15.0000000000000000 O
atom 8.8653722501243042 5.8883773126354892 15.0679558068127157 O
atom 2.5005756188714989 2.3833155468930487 17.6962019730171534 Mo
atom 0.0018528985206292 0.0034230689491665 21.8277408538654356 Mo
atom 1.0999210175275691 3.7767159921953564 17.8497325803015023 O
atom 3.9348862649450633 0.9815675688707166 17.7817688861937384 O
atom 3.5458605436355985 3.5557964147958621 16.4666038944740230 O
atom 1.3892226598996293 1.3576966587748864 21.9838884775972723 O
atom 2.4337123269183989 2.5314670254390181 20.7528070838040151 Mo
atom 0.0026265787330787 0.0042973800414468 19.3317768133690322 Mo
atom 0.9990663378938411 3.9308066639469703 20.6686998781424123 O
atom 3.8332339080521907 1.1357898603452086 20.6002592991083873 O
atom 3.4617003601743148 3.4648662068380145 19.1939105297931576 O
atom 1.4705961033237633 1.4465525553766256 19.2562946525698209 O
atom 2.4517136470615060 7.4354988917050688 17.6956062926576507 Mo
atom 0.0182579040075033 4.9082852479935539 16.6205683429027502 Mo
atom 1.0180054825647127 8.8375004016849363 17.7822349107746547 O
atom 3.8516064153328204 6.0427318322115484 17.8515613696130018 O
atom 3.5638902969645390 8.4601538652302342 21.9849738440175244 O
atom 1.4071752246281781 6.2640156017575785 16.4636579113139803 O
atom 2.5188705980675707 7.2889211136936565 20.7535053134647285 Mo
atom 0.0210783002276146 4.9105981316651093 19.1152965232183156 Mo
atom 1.1196235976287396 8.6832102026617424 20.5986377049713525 O
atom 3.9540270947994682 5.8882840917211094 20.6664770188301006 O
atom 3.4817473670508057 8.3731622954734188 19.2556286981934051 O
atom 1.4859471864421721 6.3493863376591069 19.1912920130474340 O
atom 7.4141434136377029 2.3829064003974789 17.6973217965466603 Mo
atom 4.9141158039699091 0.0023899340552312 21.8286845188899576 Mo
atom 6.0144314396246514 3.7769399021504553 17.8499416309538042 O
atom 8.8499958835149926 0.9811567262050451 17.7827665187952704 O
atom 8.4583385937477100 3.5552146469977584 16.4648091308171374 O
atom 6.3019102070290725 1.3566971808753217 21.9851348793793839 O
atom 7.3461846632236822 2.5289663059251364 20.7532316780327442 Mo
atom 4.9140665962381522 0.0035860967534769 19.3332928017969010 Mo
atom 5.9118170476169842 3.9317177428335617 20.6701329327976069 O
atom 8.7463126985587571 1.1359273949470512 20.5999246802589795 O
atom 8.3745314157689439 3.4640547528612098 19.1925605295726349 O
atom 6.3825924606048661 1.4458511187629217 19.2556601714370359 O
atom 7.3655540734391467 7.4381816870073578 17.6957205257598460 Mo
atom 4.9340610484590881 4.9094528183609052 16.6198298977915222 Mo
atom 5.9313948411735611 8.8367393725080206 17.7821102737202885 O
atom 8.7646834369484417 6.0420221514489043 17.8507482101586277 O
atom 8.4772343562037751 8.4616727525974138 21.9834446895502431 O
atom 6.3213195765000831 6.2653486670287650 16.4649143038829671 O
atom 7.4322280922096100 7.2892233699993589 20.7529592958895677 Mo
atom 4.9353214801083487 4.9117369273602938 19.1146313745799574 Mo
atom 6.0313853865910039 8.6829187024454324 20.5978426435060626 O
atom 8.8650958953859362 5.8880567177052656 20.6657984503187748 O
atom 8.3951201511624216 8.3727275159912864 19.2558846704037663 O
atom 6.3991895803545207 6.3496614466688097 19.1918742705133596 O
atom 2.5002992641331279 2.3829949519628246 23.2940446165232089 Mo
atom 1.0996446627891985 3.7763953972651332 23.4475752238075579 O
atom 3.9346099102066923 0.9812469739404924 23.3796115296997939 O
atom 3.5455841888972275 3.5554758198656375 22.0644465379800785 O
atom 0.0023502239947080 0.0039767851112227 24.9296194568750877 Mo
atom 3.4614240054359433 3.4645456119077904 24.7917531732992096 O
atom 1.4703197485853934 1.4462319604464016 24.8541372960758800 O
atom 2.4514372923231349 7.4351782967748452 23.2934489361637063 Mo
atom 9.8445306074977790 4.9079646530633294 22.2184109864088093 Mo
atom 1.0177291278263421 8.8371798067547118 23.3800775542807102 O
atom 3.8513300605944489 6.0424112372813248 23.4494040131190573 O
atom 1.4068988698898075 6.2636950068273558 22.0615005548200358 O
atom 0.0208019454892440 4.9102775367348857 24.7131391667243676 Mo
atom 3.4814710123124351 8.3728417005431925 24.8534713416994641 O
atom 1.4856708317038012 6.3490657427288824 24.7891346565534860 O
atom 7.4138670588993332 2.3825858054672548 23.2951644400527123 Mo
atom 6.0141550848862808 3.7766193072202316 23.4477842744598597 O
atom 8.8497195287766193 0.9808361312748211 23.3806091623013295 O
atom 8.4580622390093403 3.5548940520675347 22.0626517743231894 O
atom 4.9137902414997825 0.0032655018232528 24.9311354453029566 Mo
atom 8.3742550610305724 3.4637341579309857 24.7904031730786869 O
atom 6.3823161058664946 1.4455305238326972 24.8535028149430879 O
atom 7.3652777187007752 7.4378610920771342 23.2935631692659015 Mo
atom 4.9337846937207175 4.9091322234306816 22.2176725412975742 Mo
atom 5.9311184864351922 8.8364187775777960 23.3799529172263441 O
atom 8.7644070822100701 6.0417015565186816 23.4485908536646797 O
atom 6.3210432217617143 6.2650280720985405 22.0627569473890226 O
atom 4.9350451253699781 4.9114163324300710 24.7124740180860130 Mo
atom 8.3948437964240519 8.3724069210610619 24.8537273139098218 O
atom 6.3989132256161501 6.3493408517385861 24.7897169140194151 O
