#===============================================================================
# Created using the Atomic Simulation Environment (ASE)

# Mon Mar 23 14:01:05 2026

#=======================================================
lattice_vector 11.3093916751154389 0.0000000000000000 0.0000000000000000 
lattice_vector 0.0318583412982305 9.8126372326800713 0.0000000000000000 
lattice_vector 0.0000000000000000 0.0000000000000000 32.2435605514124575 
atom 4.5411246047142235 2.4142262220652522 17.2424148651174036 Mo
atom 3.2481300640023307 3.8066345414098834 16.6799791349963762 O
atom 6.0580324460152477 3.5856519273829006 16.6892459829351871 O
atom 4.2241635590174722 1.3858433495917224 15.5559388700411638 O
atom 5.7411146316221782 2.5585554657392442 15.0010851305061301 Mo
atom 7.0326381464491003 1.1638710095974827 15.5638182024725005 O
atom 4.4991060903081381 7.4663569815615043 17.2084497341867326 Mo
atom 2.9166989914446710 4.9352717137489188 15.0744822114006070 Mo
atom 3.2105059478452347 8.8672296589400439 16.5715060419922544 O
atom 6.1134146448226456 8.4902101756661406 16.6202608206766662 O
atom 4.2012457633269724 6.2919737792246213 15.6231315489189875 O
atom 5.8148986266341218 7.3160778575698142 15.0351209033245361 Mo
atom 1.6843268259598998 4.9415961391079177 17.2435605514124539 Mo
atom 7.1049551048743398 5.9165703022197702 15.6724316963976555 O
atom 7.3637561542848529 0.0334012925692298 17.1682896637958713 Mo
atom 1.4769313378036180 1.0091392312142620 15.5991201266852322 O
atom 8.5988647609330062 0.0305872877981724 15.0000000000000000 Mo
atom 8.8042301956401765 3.9617414699677589 16.6482468147260469 O
atom 0.3660567918434879 3.4938788949932365 16.5842063006148379 O
atom 9.9133461532326876 1.4740215554252336 15.6567797329853384 O
atom 1.3692970037894672 6.0700300823691569 15.6066844618516960 O
atom 8.9440405508286975 8.7129238277959828 16.6359058475225332 O
atom 0.3527419313765264 8.4026633455377127 16.6404208086679226 O
atom 9.9594788353521917 6.3777357878491614 15.6005806228451220 O
