#===============================================================================
# Created using the Atomic Simulation Environment (ASE)

# Mon Mar 23 14:01:04 2026

#=======================================================
lattice_vector 9.8265490582286468 0.0000000000000000 0.0000000000000000 
lattice_vector 0.0363446553796943 9.8126216415448742 0.0000000000000000 
lattice_vector 0.0000000000000000 0.0000000000000000 46.8711920341216626 
atom 0.0024056079973704 0.0040642588096147 17.5721121556720306 Mo
atom 1.3897753693763708 1.3583378486353346 17.7282597794038637 O
atom 2.4342650363951401 2.5321082152994663 16.4971783856106100 Mo
atom 0.0031792882098199 0.0049385699018951 15.0761481151756271 Mo
atom 0.9996190473705825 3.9314478538074185 16.4130711799490072 O
atom 3.8337866175289315 1.1364310502056567 16.3446306009149822 O
atom 1.4711488128005048 1.4471937452370738 15.0006659543764158 O
atom 3.5644430064412802 8.4607950550906832 17.7293451458241123 O
atom 2.5194233075443120 7.2895623035541055 16.4978766152713234 Mo
atom 1.1201763071054809 8.6838513925221896 16.3430090067779474 O
atom 3.9545798042762095 5.8889252815815567 16.4108483206366955 O
atom 3.4823000765275465 8.3738034853338661 15.0000000000000000 O
atom 4.9146685134466503 0.0030311239156795 17.5730558206965526 Mo
atom 6.3024629165058155 1.3573383707357698 17.7295061811859753 O
atom 7.3467373727004244 2.5296074957855850 16.4976029798393355 Mo
atom 4.9146193057148944 0.0042272866139252 15.0776641036034960 Mo
atom 5.9123697570937246 3.9323589326940094 16.4145042346042018 O
atom 8.7468654080354984 1.1365685848074993 16.3442959820655744 O
atom 6.3831451700816064 1.4464923086233701 15.0000314732436291 O
atom 8.4777870656805145 8.4623139424578611 17.7278159913568345 O
atom 7.4327808016863521 7.2898645598598080 16.4973305976961626 Mo
atom 6.0319380960677460 8.6835598923058814 16.3422139453126505 O
atom 8.8656486048626757 5.8886979075657129 16.4101697521253627 O
atom 8.3956728606391628 8.3733687058517337 15.0002559722103577 O
atom 2.5008519736098687 2.3836361418232732 19.0384159183298038 Mo
atom 0.0021292532589998 0.0037436638793906 23.1699547991780861 Mo
atom 1.1001973722659397 3.7770365871255809 19.1919465256141493 O
atom 3.9351626196834335 0.9818881638009406 19.1239828315063889 O
atom 3.5461368983739687 3.5561170097260866 17.8088178397866699 O
atom 1.3894990146380002 1.3580172537051103 23.3261024229099192 O
atom 2.4339886816567695 2.5317876203692431 22.0950210291166655 Mo
atom 0.0029029334714493 0.0046179749716709 20.6739907586816827 Mo
atom 0.9993426926322120 3.9311272588771948 22.0109138234550628 O
atom 3.8335102627905617 1.1361104552754326 21.9424732444210377 O
atom 3.4619767149126845 3.4651868017682390 20.5361244751058010 O
atom 1.4708724580621344 1.4468731503068495 20.5985085978824713 O
atom 2.4519900017998757 7.4358194866352934 19.0378202379703012 Mo
atom 0.0185342587458739 4.9086058429237767 17.9627822882154007 Mo
atom 1.0182818373030833 8.8378209966151609 19.1244488560873052 O
atom 3.8518827700711897 6.0430524271417729 19.1937753149256523 O
atom 3.5641666517029087 8.4604744601604587 23.3271877893301749 O
atom 1.4074515793665485 6.2643361966878022 17.8058718566266307 O
atom 2.5191469528059409 7.2892417086238810 22.0957192587773790 Mo
atom 0.0213546549659853 4.9109187265953338 20.4575104685309626 Mo
atom 1.1198999523671105 8.6835307975919651 21.9408516502839959 O
atom 3.9543034495378393 5.8886046866513322 22.0086909641427511 O
atom 3.4820237217891759 8.3734828904036416 20.5978426435060555 O
atom 1.4862235411805427 6.3497069325893314 20.5335059583600810 O
atom 7.4144197683760753 2.3832269953277034 19.0395357418593107 Mo
atom 4.9143921587082797 0.0027105289854553 23.1708984642026081 Mo
atom 6.0147077943630221 3.7772604970806793 19.1921555762664511 O
atom 8.8502722382533623 0.9814773211352692 19.1249804641079209 O
atom 8.4586149484860815 3.5555352419279829 17.8070230761297879 O
atom 6.3021865617674449 1.3570177758055457 23.3273488246920380 O
atom 7.3464610179620538 2.5292869008553609 22.0954456233453911 Mo
atom 4.9143429509765237 0.0039066916837011 20.6755067471095515 Mo
atom 5.9120934023553540 3.9320383377637858 22.0123468781102574 O
atom 8.7465890532971269 1.1362479898772750 21.9421386255716300 O
atom 8.3748077705073118 3.4643753477914339 20.5347744748852818 O
atom 6.3828688153432349 1.4461717136931456 20.5978741167496864 O
atom 7.3658304281775173 7.4385022819375823 19.0379344710724965 Mo
atom 4.9343374031974587 4.9097734132911297 17.9620438431041691 Mo
atom 5.9316711959119326 8.8370599674382451 19.1243242190329354 O
atom 8.7649597916868114 6.0423427463791288 19.1929621554712782 O
atom 8.4775107109421430 8.4619933475276383 23.3256586348628900 O
atom 6.3215959312384546 6.2656692619589887 17.8071282491956140 O
atom 7.4325044469479815 7.2895439649295835 22.0951732412022182 Mo
atom 4.9355978348467202 4.9120575222905183 20.4568453198926079 Mo
atom 6.0316617413293745 8.6832392973756569 21.9400565888187060 O
atom 8.8653722501243042 5.8883773126354892 22.0080123956314182 O
atom 8.3953965059007913 8.3730481109215109 20.5980986157164168 O
atom 6.3994659350928922 6.3499820415990333 20.5340882158260101 O
atom 2.5005756188714989 2.3833155468930487 24.6362585618358594 Mo
atom 0.0018528985206292 0.0034230689491665 28.7677974426841416 Mo
atom 1.0999210175275691 3.7767159921953564 24.7897891691202048 O
atom 3.9348862649450633 0.9815675688707166 24.7218254750124444 O
atom 3.5458605436355985 3.5557964147958621 23.4066604832927254 O
atom 1.3892226598996293 1.3576966587748864 28.9239450664159747 O
atom 2.4337123269183989 2.5314670254390181 27.6928636726227211 Mo
atom 0.0026265787330787 0.0042973800414468 26.2718334021877382 Mo
atom 0.9990663378938411 3.9308066639469703 27.6087564669611183 O
atom 3.8332339080521907 1.1357898603452086 27.5403158879270933 O
atom 3.4617003601743148 3.4648662068380145 26.1339671186118636 O
atom 1.4705961033237633 1.4465525553766256 26.1963512413885269 O
atom 2.4517136470615060 7.4354988917050688 24.6356628814763567 Mo
atom 0.0182579040075033 4.9082852479935539 23.5606249317214562 Mo
atom 1.0180054825647127 8.8375004016849363 24.7222914995933607 O
atom 3.8516064153328204 6.0427318322115484 24.7916179584317078 O
atom 3.5638902969645390 8.4601538652302342 28.9250304328362304 O
atom 1.4071752246281781 6.2640156017575785 23.4037145001326863 O
atom 2.5188705980675707 7.2889211136936565 27.6935619022834345 Mo
atom 0.0210783002276146 4.9105981316651093 26.0553531120370181 Mo
atom 1.1196235976287396 8.6832102026617424 27.5386942937900585 O
atom 3.9540270947994682 5.8882840917211094 27.6065336076488066 O
atom 3.4817473670508057 8.3731622954734188 26.1956852870121111 O
atom 1.4859471864421721 6.3493863376591069 26.1313486018661365 O
atom 7.4141434136377029 2.3829064003974789 24.6373783853653663 Mo
atom 4.9141158039699091 0.0023899340552312 28.7687411077086637 Mo
atom 6.0144314396246514 3.7769399021504553 24.7899982197725066 O
atom 8.8499958835149926 0.9811567262050451 24.7228231076139764 O
atom 8.4583385937477100 3.5552146469977584 23.4048657196358434 O
atom 6.3019102070290725 1.3566971808753217 28.9251914681980864 O
atom 7.3461846632236822 2.5289663059251364 27.6932882668514466 Mo
atom 4.9140665962381522 0.0035860967534769 26.2733493906156070 Mo
atom 5.9118170476169842 3.9317177428335617 27.6101895216163129 O
atom 8.7463126985587571 1.1359273949470512 27.5399812690776855 O
atom 8.3745314157689439 3.4640547528612098 26.1326171183913374 O
atom 6.3825924606048661 1.4458511187629217 26.1957167602557419 O
atom 7.3655540734391467 7.4381816870073578 24.6357771145785520 Mo
atom 4.9340610484590881 4.9094528183609052 23.5598864866102247 Mo
atom 5.9313948411735611 8.8367393725080206 24.7221668625389910 O
atom 8.7646834369484417 6.0420221514489043 24.7908047989773337 O
atom 8.4772343562037751 8.4616727525974138 28.9235012783689456 O
atom 6.3213195765000831 6.2653486670287650 23.4049708927016695 O
atom 7.4322280922096100 7.2892233699993589 27.6930158847082737 Mo
atom 4.9353214801083487 4.9117369273602938 26.0546879633986634 Mo
atom 6.0313853865910039 8.6829187024454324 27.5378992323247687 O
atom 8.8650958953859362 5.8880567177052656 27.6058550391374808 O
atom 8.3951201511624216 8.3727275159912864 26.1959412592224723 O
atom 6.3991895803545207 6.3496614466688097 26.1319308593320656 O
atom 2.5002992641331279 2.3829949519628246 30.2341012053419149 Mo
atom 1.0996446627891985 3.7763953972651332 30.3876318126262603 O
atom 3.9346099102066923 0.9812469739404924 30.3196681185185000 O
atom 3.5455841888972275 3.5554758198656375 29.0045031267987810 O
atom 0.0023502239947080 0.0039767851112227 31.8696760456937938 Mo
atom 3.4614240054359433 3.4645456119077904 31.7318097621179120 O
atom 1.4703197485853934 1.4462319604464016 31.7941938848945824 O
atom 2.4514372923231349 7.4351782967748452 30.2335055249824123 Mo
atom 9.8445306074977790 4.9079646530633294 29.1584675752275118 Mo
atom 1.0177291278263421 8.8371798067547118 30.3201341430994162 O
atom 3.8513300605944489 6.0424112372813248 30.3894606019377633 O
atom 1.4068988698898075 6.2636950068273558 29.0015571436387418 O
atom 0.0208019454892440 4.9102775367348857 31.6531957555430736 Mo
atom 3.4814710123124351 8.3728417005431925 31.7935279305181666 O
atom 1.4856708317038012 6.3490657427288824 31.7291912453721920 O
atom 7.4138670588993332 2.3825858054672548 30.2352210288714147 Mo
atom 6.0141550848862808 3.7766193072202316 30.3878408632785622 O
atom 8.8497195287766193 0.9808361312748211 30.3206657511200319 O
atom 8.4580622390093403 3.5548940520675347 29.0027083631418918 O
atom 4.9137902414997825 0.0032655018232528 31.8711920341216626 Mo
atom 8.3742550610305724 3.4637341579309857 31.7304597618973929 O
atom 6.3823161058664946 1.4455305238326972 31.7935594037617903 O
atom 7.3652777187007752 7.4378610920771342 30.2336197580846076 Mo
atom 4.9337846937207175 4.9091322234306816 29.1577291301162802 Mo
atom 5.9311184864351922 8.8364187775777960 30.3200095060450465 O
atom 8.7644070822100701 6.0417015565186816 30.3886474424833821 O
atom 6.3210432217617143 6.2650280720985405 29.0028135362077251 O
atom 4.9350451253699781 4.9114163324300710 31.6525306069047190 Mo
atom 8.3948437964240519 8.3724069210610619 31.7937839027285278 O
atom 6.3989132256161501 6.3493408517385861 31.7297735028381211 O
