#===============================================================================
# Created using the Atomic Simulation Environment (ASE)

# Mon Mar 23 14:01:05 2026

#=======================================================
lattice_vector 9.8126889492172058 0.0000000000000000 0.0000000000000000 
lattice_vector -0.0003216163056373 5.5978426502690191 0.0000000000000000 
lattice_vector 0.0000000000000000 0.0000000000000000 51.8018008167545361 
atom 2.4296001613016700 1.2692095058583539 16.1078269816563378 Mo
atom 1.0331742590939121 1.3547056597815428 17.5473238476716240 O
atom 3.6059445577033742 0.0395602609950581 17.1487016090517841 O
atom 1.3998720317220028 5.5569504473951392 15.0004911418767577 O
atom 2.5775029725305161 4.3258179266094015 16.0405656679689912 Mo
atom 1.1870189883892259 4.1732010941195519 17.4452395177029373 O
atom 3.5147032573854475 2.7668710133814245 17.0650128565860619 O
atom 1.4890287132655669 2.8293526419061323 15.0814008422294208 O
atom 7.4815678748796088 1.2686171471475589 16.0402528238928817 Mo
atom 6.0939953511962059 1.4245031582199963 17.4453022442932806 O
atom 8.5103351472995712 5.5579302105242521 17.1488375295252524 O
atom 6.3062238145177290 0.0367198985850373 15.0000000000000000 O
atom 7.3352398410578266 4.3265128364549188 16.1081025281030321 Mo
atom 5.9399280201772351 4.2394137413996491 17.5484326401434458 O
atom 8.4230399297562037 2.8285890899181791 17.0668832035865208 O
atom 6.3918857237882456 2.7643501405082977 15.0785893001714264 O
atom 2.4473900993433197 1.2700878015118588 21.0213626375634419 Mo
atom 0.0576302527859038 5.4015729750128205 18.5303723172050354 Mo
atom 3.8362297262328142 1.4227766927726992 19.6165044876683581 O
atom 1.0509682116497852 1.3554616887181308 22.4624013170808112 O
atom 3.6235578393838668 0.0375240230009660 22.0611480238747433 O
atom 1.4170683821101890 5.5579553644624387 19.9131487489026355 O
atom 2.5931972944947561 4.3260010464297283 20.9530135856133342 Mo
atom 0.0588262250216790 2.9061812635711424 18.5301960168928730 Mo
atom 3.9906264376994480 4.2429730634280576 19.5134561551262991 O
atom 1.2053537925836562 4.1726249715325716 22.3582840763904400 O
atom 3.5320881619394568 2.7652795214292585 21.9778131470538298 O
atom 1.5065205428368671 2.8284767100906953 19.9933660677948595 O
atom 7.5024507432952987 1.2684898395366171 20.9540496080448833 Mo
atom 4.9647333523739245 0.1927182731961010 18.5318863918533729 Mo
atom 8.8956869356773094 1.3549503385190842 19.5147244237759381 O
atom 6.1114829392857155 1.4234484949613289 22.3583481485313769 O
atom 8.5300522772979281 5.5561595395329801 22.0621421800942130 O
atom 6.3257580878526403 0.0377347352542227 19.9141057628923335 O
atom 7.3537403981006522 4.3257253014726720 21.0214251680192774 Mo
atom 4.9670221141464816 2.6875196854294594 18.5332609883812935 Mo
atom 8.7422376699509368 4.1706777618345088 19.6154224198249665 O
atom 5.9578904735706821 4.2384937678863412 22.4594685573573187 O
atom 8.4408035126983485 2.8286035438347148 21.9802239026543020 O
atom 6.4103587074081432 2.7646908862186175 19.9917969966579889 O
atom 2.4659961523436018 1.2687264790891457 25.9343086252709796 Mo
atom 0.0768651230091051 5.4003877470662882 23.4446208827817344 Mo
atom 3.8541992357814538 1.4223261894459447 24.5285102440229323 O
atom 1.0695702501358446 1.3542226330123348 27.3738054912862623 O
atom 3.6423405487453069 0.0390772342258501 26.9751832526664259 O
atom 1.4362680227639353 5.5564674206259319 24.8269727854913995 O
atom 2.6138989635724492 4.3253348998401924 25.8670473115836259 Mo
atom 0.0777422936940003 2.9044236717140679 23.4452686287231700 Mo
atom 4.0079153007277162 4.2412984694756259 24.4272240967812664 O
atom 1.2234149794311584 4.1727180673503454 27.2717211613175721 O
atom 3.5510992484273802 2.7663879866122172 26.8914945002007002 O
atom 1.5254247043074993 2.8288696151369246 24.9078824858440555 O
atom 7.5179638659215424 1.2681341203783507 25.8667344675075270 Mo
atom 4.9817544199429822 0.1932153290040575 23.4426029764664747 Mo
atom 8.9146455298447300 1.3548334679717282 24.4278476042708448 O
atom 6.1303913422381378 1.4240201314507881 27.2717838879079224 O
atom 8.5467311383415048 5.5574471837550439 26.9753191731398942 O
atom 6.3426198055596608 0.0362368718158293 24.8264816436146418 O
atom 7.3716358320997601 4.3260298096857106 25.9345841717176739 Mo
atom 4.9840777340535709 2.6879433680893743 23.4455374166833863 Mo
atom 8.7607327666401602 4.1712312356081425 24.5301749308170756 O
atom 5.9763240112191687 4.2389307146304418 27.3749142837580806 O
atom 8.4594359207981373 2.8281060631489718 26.8933648472011626 O
atom 6.4282817148301774 2.7638671137390900 24.9050709437860647 O
atom 2.4837860903852520 1.2696047747426504 30.8478442811780837 Mo
atom 0.0940262438278363 5.4010899482436123 28.3568539608196772 Mo
atom 3.8726257172747469 1.4222936660034911 29.4429861312829999 O
atom 1.0873642026917176 1.3549786619489226 32.2888829606954531 O
atom 3.6599538304257995 0.0370409962317581 31.8876296674893851 O
atom 1.4534643731521213 5.5574723376932305 29.7396303925172774 O
atom 2.6295932855366884 4.3255180196605201 30.7794952292279760 Mo
atom 0.0952222160636115 2.9056982368019342 28.3566776605075148 Mo
atom 4.0270224287413798 4.2424900366588503 29.3399377987409409 O
atom 1.2417497836255886 4.1721419447633634 32.1847657200050890 O
atom 3.5684841529813895 2.7647964946600503 31.8042947906684716 O
atom 1.5429165338787996 2.8279936833214876 29.8198477114094942 O
atom 7.5388467343372305 1.2680068127674091 30.7805312516595180 Mo
atom 5.0011293434158564 0.1922352464268930 28.3583680354680112 Mo
atom 8.9320829267192412 1.3544673117498760 29.3412060673905799 O
atom 6.1478789303276473 1.4229654681921209 32.1848297921460187 O
atom 8.5664482683398635 5.5556765127637728 31.8886238237088619 O
atom 6.3621540788945738 0.0372517084850148 29.7405874065069824 O
atom 7.3901363891425840 4.3252422747034638 30.8479068116339192 Mo
atom 5.0034181051884152 2.6870366586602517 28.3597426319959354 Mo
atom 8.7786336609928686 4.1701947350653006 29.4419040634396083 O
atom 5.9942864646126139 4.2380107411171339 32.2859502009719677 O
atom 8.4771995037402803 2.8281205170655062 31.8067055462689439 O
atom 6.4467546984500768 2.7642078594494102 29.8182786402726379 O
atom 2.5023921433855345 1.2682434523199380 35.7607902688856214 Mo
atom 0.1132611140510375 5.3999047202970800 33.2711025263963691 Mo
atom 3.8905952268233870 1.4218431626767367 34.3549918876375742 O
atom 3.6787365397872391 0.0385942074566422 36.8016648962810748 O
atom 1.4726640138058678 5.5559843938567237 34.6534544291060413 O
atom 2.6502949546143810 4.3248518730709851 35.6935289551982748 Mo
atom 0.1141382847359327 2.9039406449448597 33.2717502723378118 Mo
atom 4.0443112917696489 4.2408154427064186 34.2537057403959082 O
atom 3.5874952394693120 2.7659049598430090 36.7179761438153420 O
atom 1.5618206953494318 2.8283865883677168 34.7343641294587044 O
atom 7.5543598569634742 1.2676510936091425 35.6932161111221689 Mo
atom 5.0181504109849140 0.1927323022348495 33.2690846200811166 Mo
atom 8.9510415208866618 1.3543504412025202 34.2543292478854866 O
atom 8.5831271293834366 5.5569641569858366 36.8018008167545361 O
atom 6.3790157966015935 0.0357538450466214 34.6529632872292908 O
atom 7.4080318231416920 4.3255467829165024 35.7610658153323158 Mo
atom 5.0204737250955027 2.6874603413201665 33.2720190602980352 Mo
atom 8.7971287576820920 4.1707482088389343 34.3566565744317174 O
atom 8.4958319118400691 2.8276230363797641 36.7198464908158044 O
atom 6.4646777058721110 2.7633840869698822 34.7315525874007065 O
