#===============================================================================
# Created using the Atomic Simulation Environment (ASE)

# Mon Mar 23 14:01:06 2026

#=======================================================
lattice_vector 13.8613002900044648 0.0000000000000000 0.0000000000000000 
lattice_vector -0.0000317652287253 5.5978426594179016 0.0000000000000000 
lattice_vector 0.0000000000000000 0.0000000000000000 50.4708940243157542 
atom 10.4206993433848005 5.5609804347319294 15.0005553122436730 O
atom 10.4803412900574884 1.2712469630064245 16.5117529251381470 Mo
atom 8.5050182784716277 1.4261141364077188 16.5059765495405273 O
atom 10.4159005783412706 2.8333550916222574 15.1168219752884134 O
atom 3.5496020305245866 4.3274304961129308 16.5118524126307769 Mo
atom 1.5741315431859126 4.1748101890582463 16.5055895388430542 O
atom 3.4905031276107459 0.0395034091018239 15.0000000000000000 O
atom 3.4843754120012256 2.7689871635907428 15.1198795940199773 O
atom 7.0193397167926834 4.3288125767126528 19.9901141616776634 Mo
atom 6.9392590806739927 0.1970135968486513 16.5406299617651271 Mo
atom 5.0436516040686810 4.1752814127568501 19.9827369302786515 O
atom 9.0247083594027160 4.2432475727721615 20.0154391946946042 O
atom 6.9276053167421869 5.5585288842548506 21.5581147985099086 O
atom 6.9604446263292878 0.0410121463754341 18.4793018296661700 O
atom 6.8672356821231810 1.2722117953869068 20.0476501498124868 Mo
atom 6.9391865913330104 2.6929777181068544 16.5416069925420572 Mo
atom 4.8633350870972869 1.3563169456634427 20.0203868279339048 O
atom 8.8437352692552693 1.4247599550361219 20.0526173314475393 O
atom 6.9325340266309290 2.8312129221514084 21.4345183870333749 O
atom 6.9550160843950657 2.7686150389758373 18.5994603632534350 O
atom 10.3291438908050406 4.3291501964138819 16.5675084997796596 Mo
atom 3.4786206552493226 5.4044481724693538 20.0161435220400357 Mo
atom 8.3240213004802150 4.2425197152099070 16.5428020248616257 O
atom 12.3038455393077708 4.1731956700764563 16.5748171119719068 O
atom 10.3893031218187524 0.0398965878243129 18.0788698245936779 O
atom 3.4998679734610141 5.5615049366079941 21.9569162350298193 O
atom 3.5595099201337024 1.2717714648824894 23.4681138479242968 Mo
atom 3.4789753696714367 2.9097202729569589 20.0199618067950702 Mo
atom 1.5841869085478477 1.4266386382837832 23.4623374723266771 O
atom 12.4855208926436543 1.3582772706975932 16.5384484006811974 O
atom 10.3928683923842478 2.7692327087750077 17.9590718826379181 O
atom 3.4950692084174912 2.8338795934983225 22.0731828980745597 O
atom 10.4900709506052721 4.3279549979889955 23.4682133354169231 Mo
atom 10.4095104048868450 0.1963320737497922 20.0173646500106344 Mo
atom 8.5146004632665946 4.1753346909343110 23.4619504616292041 O
atom 5.5560608604728143 4.2419877653061251 16.5382677185447555 O
atom 3.4572201475400450 5.5600613234742404 18.0789594611537758 O
atom 10.4309720476914247 0.0400279109778887 21.9563609227861498 O
atom 3.3982049318720602 1.2715247742300462 16.5671355837401855 Mo
atom 10.4086288681279502 2.6917238448237124 20.0179865123132714 Mo
atom 1.3920856882694388 1.3546216606335542 16.5424791479297646 O
atom 5.3732651966878402 1.4248323198230788 16.5743954189106653 O
atom 3.4625607826650606 2.8323006045459991 17.9554507542507373 O
atom 10.4248443320819071 2.7695116654668075 22.0762405168061235 O
atom 13.7978788518857414 4.3292983873251165 20.0479844290397686 Mo
atom 0.0093456098724720 5.4049245637856878 16.5405777018063560 Mo
atom 11.7948756082559321 4.2429065688031971 20.0205262532226875 O
atom 1.9131426038716848 4.1742710321310117 20.0523564476605678 O
atom 13.8585114477578504 0.0416880778234369 21.5581721787434510 O
atom 0.0293041703977902 5.5599864105233445 18.4802931698174007 O
atom 0.0891200863447264 1.2720552520427852 19.9902055604755269 Mo
atom 0.0086188949390843 2.9101232830035908 16.5432713463721193 Mo
atom 11.9743906509937723 1.4271713525411955 19.9828801736979464 O
atom 2.0930581231752150 1.3592179603034720 20.0149067489823089 O
atom 0.0021797465914044 2.7692389695940958 21.4370148357680073 O
atom 0.0246172975785066 2.8330350980314432 18.5951740404514005 O
atom 0.0985083468689073 4.3293370785887175 26.9464750844638168 Mo
atom 0.0184277107502164 0.1975380987247161 23.4969908845512769 Mo
atom 11.9841205241493611 4.1758059146329147 26.9390978530647978 O
atom 2.1038769894789384 4.2437720746482261 26.9718001174807505 O
atom 0.0067739468184076 5.5590533861309144 28.5144757212960620 O
atom 0.0396132564055117 0.0415366482514989 25.4356627524523198 O
atom 13.8077046022038630 1.2727362972629719 27.0040110725986331 Mo
atom 0.0183552214092310 2.6935022199829191 23.4979679153282035 Mo
atom 11.8038040071779733 1.3568414475395079 26.9767477507200546 O
atom 1.9229038993314864 1.4252844569121870 27.0089782542336856 O
atom 0.0117026567071502 2.8317374240274735 28.3908793098195282 O
atom 0.0341847144712838 2.7691395408519024 25.5558212860395848 O
atom 3.4083125208812621 4.3296746982899466 23.5238694225658129 Mo
atom 10.4190895753300072 5.4049726743454185 26.9725044448261890 Mo
atom 1.4031899305564290 4.2430442170859717 23.4991629476477719 O
atom 5.3830141693839844 4.1737201719525210 23.5311780347580530 O
atom 3.4684717518949730 0.0404210897003778 25.0352307473798277 O
atom 10.4403368935416960 5.5620294384840587 28.9132771578159726 O
atom 10.4999788402143892 1.2722959667585543 30.4244747707104430 Mo
atom 10.4194442897521089 2.9102447748330245 26.9763227295812165 Mo
atom 8.5246558286285286 1.4271631401598481 30.4186983951128234 O
atom 5.5646895227198740 1.3588017725736581 23.4948093234673472 O
atom 3.4720370224604609 2.7697572106510724 24.9154328054240715 O
atom 10.4355381284981750 2.8344040953743872 29.0295438208607131 O
atom 3.5692395806814865 4.3284794998650602 30.4245742582030765 Mo
atom 3.4886790349630594 0.1968565756258570 26.9737255727967913 Mo
atom 1.5937690933428159 4.1758591928103765 30.4183113844153574 O
atom 12.4965297805534945 4.2425122671821898 23.4946286413309089 O
atom 10.3976890676207265 5.5605858253503051 25.0353203839399292 O
atom 3.5101406777676369 0.0405524128539536 28.9127218455722961 O
atom 10.3386738519527412 1.2720492761061108 23.5234965065263317 Mo
atom 3.4877974982041677 2.6922483466997771 26.9743474350994212 Mo
atom 8.3325546083501205 1.3551461625096193 23.4988400707159109 O
atom 12.3137341167685257 1.4253568216991437 23.5307563416968186 O
atom 10.4030297027457408 2.8328251064220633 24.9118116770368871 O
atom 3.5040129621581224 2.7700361673428726 29.0326014395922734 O
atom 6.8770474819619540 4.3298228892011812 27.0043453518259149 Mo
atom 6.9498145299531551 5.4054490656617524 23.4969386245925058 Mo
atom 4.8740442383321492 4.2434310706792617 26.9768871760088338 O
atom 8.8536115239523632 4.1747955340070764 27.0087173704467141 O
atom 6.9376800778340666 0.0422125796995017 28.5145331015295973 O
atom 6.9697730904784727 5.5605109123994092 25.4366540926035505 O
atom 7.0295890064254118 1.2725797539188501 26.9465664832616731 Mo
atom 6.9490878150197632 2.9106477848796559 23.4996322691582691 Mo
atom 5.0535592810699930 1.4276958544172604 26.9392410964840998 O
atom 9.0335270432558943 1.3597424621795371 26.9712676717684623 O
atom 6.9426486666720804 2.7697634714701604 28.3933757585541535 O
atom 6.9650862176591914 2.8335595999075083 25.5515349632375539 O
atom 7.0389772669495896 4.3298615804647822 33.9028360072499595 Mo
atom 6.9588966308308988 0.1980626006007810 30.4533518073374232 Mo
atom 5.0632891542255871 4.1763304165089785 33.8954587758509547 O
atom 9.0443459095596079 4.2442965765242917 33.9281610402669003 O
atom 6.9472428668990895 5.5595778880069799 35.4708366440822118 O
atom 6.9800821764861816 0.0420611501275637 32.3920236752384625 O
atom 6.8868732322800810 1.2732607991390366 33.9603719953847900 Mo
atom 6.9588241414899077 2.6940267218589842 30.4543288381143604 Mo
atom 4.8829726372541931 1.3573659494155728 33.9331086735062115 O
atom 8.8633728194121755 1.4258089587882514 33.9653391770198425 O
atom 6.9521715767878325 2.8322619259035382 35.3472402326056852 O
atom 6.9746536345519665 2.7696640427279666 32.5121822088257346 O
atom 10.3487814409619414 4.3301992001660112 30.4802303453519592 Mo
atom 3.4982582054062226 5.4054971762214832 33.9288653676123317 Mo
atom 8.3436588506371123 4.2435687189620364 30.4555238704339253 O
atom 12.3234830894646699 4.1742446738285857 30.4875389575442064 O
atom 10.4089406719756496 0.0409455915764426 31.9915916701659704 O
atom 3.4986129198283273 2.9107692767090887 33.9326836523673734 Mo
atom 12.5051584428005533 1.3593262744497225 30.4511702462534934 O
atom 10.4125059425411468 2.7702817125271366 31.8717937282102177 O
atom 10.4291479550437476 0.1973810775019218 33.9300864955829411 Mo
atom 5.5756984106297107 4.2430367690582544 30.4509895641170552 O
atom 3.4768576976969454 5.5611103272263707 31.9916813067260826 O
atom 3.4178424820289601 1.2725737779821760 30.4798574293124851 Mo
atom 10.4282664182848581 2.6927728485758418 33.9307083578855782 Mo
atom 1.4117232384263421 1.3556706643856842 30.4552009935020642 O
atom 5.3929027468447339 1.4258813235752086 30.4871172644829649 O
atom 3.4821983328219512 2.8333496082981284 31.8681725998230370 O
atom 13.8175164020426404 4.3303473910772459 33.9607062746120647 Mo
atom 0.0289831600293753 5.4059735675378171 30.4532995473786521 Mo
atom 11.8145131584128293 4.2439555725553264 33.9332480987949765 O
atom 1.9327801540285818 4.1753200358831410 33.9650782932328639 O
atom 0.0168487079102901 0.0427370815755665 35.4708940243157542 O
atom 0.0489417205546904 5.5610354142754739 32.3930150153897074 O
atom 0.1087576365016266 1.2731042557949150 33.9029274060478230 Mo
atom 0.0282564450959844 2.9111722867557210 30.4559931919444189 Mo
atom 11.9940282011506767 1.4282203562933253 33.8956020192702425 O
atom 2.1126956733321118 1.3602669640556018 33.9276285945546050 O
atom 0.0218172967483077 2.7702879733462251 35.3497366813403033 O
atom 0.0442548477354068 2.8340841017835730 32.5078958860237037 O
