#===============================================================================
# Created using the Atomic Simulation Environment (ASE)

# Mon Mar 23 14:01:06 2026

#=======================================================
lattice_vector 13.8613002900044648 0.0000000000000000 0.0000000000000000 
lattice_vector -0.0000317652287253 5.5978426594179016 0.0000000000000000 
lattice_vector 0.0000000000000000 0.0000000000000000 33.0788703490772846 
atom 7.0389772669495896 4.3298615804647822 16.5108123320114970 Mo
atom 5.0632891542255871 4.1763304165089785 16.5034351006124851 O
atom 9.0443459095596079 4.2442965765242917 16.5361373650284307 O
atom 6.9472428668990895 5.5595778880069799 18.0788129688437493 O
atom 6.9800821764861816 0.0420611501275637 15.0000000000000000 O
atom 6.8868732322800810 1.2732607991390366 16.5683483201463204 Mo
atom 4.8829726372541931 1.3573659494155728 16.5410849982677419 O
atom 8.8633728194121755 1.4258089587882514 16.5733155017813729 O
atom 6.9521715767878325 2.8322619259035382 17.9552165573672156 O
atom 6.9746536345519665 2.7696640427279666 15.1201585335872650 O
atom 3.4982582054062226 5.4054971762214832 16.5368416923738693 Mo
atom 3.4986129198283273 2.9107692767090887 16.5406599771289038 Mo
atom 10.4291479550437476 0.1973810775019218 16.5380628203444715 Mo
atom 10.4282664182848581 2.6927728485758418 16.5386846826471086 Mo
atom 13.8175164020426404 4.3303473910772459 16.5686825993736022 Mo
atom 11.8145131584128293 4.2439555725553264 16.5412244235565140 O
atom 1.9327801540285818 4.1753200358831410 16.5730546179944014 O
atom 0.0168487079102901 0.0427370815755665 18.0788703490772846 O
atom 0.0489417205546904 5.5610354142754739 15.0009913401512378 O
atom 0.1087576365016266 1.2731042557949150 16.5109037308093605 Mo
atom 11.9940282011506767 1.4282203562933253 16.5035783440317800 O
atom 2.1126956733321118 1.3602669640556018 16.5356049193161354 O
atom 0.0218172967483077 2.7702879733462251 17.9577130061018337 O
atom 0.0442548477354068 2.8340841017835730 15.1158722107852341 O
