#===============================================================================
# Created using the Atomic Simulation Environment (ASE)

# Mon Mar 23 14:01:04 2026

#=======================================================
lattice_vector 9.8265490582286468 0.0000000000000000 0.0000000000000000 
lattice_vector 0.0363446553796943 9.8126216415448742 0.0000000000000000 
lattice_vector 0.0000000000000000 0.0000000000000000 44.0653201774950247 
atom 2.5008519736098687 2.3836361418232732 16.2325440617031695 Mo
atom 0.0021292532589998 0.0037436638793906 20.3640829425514518 Mo
atom 1.1001973722659397 3.7770365871255809 16.3860746689875185 O
atom 3.9351626196834335 0.9818881638009406 16.3181109748797546 O
atom 3.5461368983739687 3.5561170097260866 15.0029459831600391 O
atom 1.3894990146380002 1.3580172537051103 20.5202305662832885 O
atom 2.4339886816567695 2.5317876203692431 19.2891491724900312 Mo
atom 0.0029029334714493 0.0046179749716709 17.8681189020550484 Mo
atom 0.9993426926322120 3.9311272588771948 19.2050419668284285 O
atom 3.8335102627905617 1.1361104552754326 19.1366013877944035 O
atom 3.4619767149126845 3.4651868017682390 17.7302526184791702 O
atom 1.4708724580621344 1.4468731503068495 17.7926367412558371 O
atom 2.4519900017998757 7.4358194866352934 16.2319483813436669 Mo
atom 0.0185342587458739 4.9086058429237767 15.1569104315887699 Mo
atom 1.0182818373030833 8.8378209966151609 16.3185769994606709 O
atom 3.8518827700711897 6.0430524271417729 16.3879034582990180 O
atom 3.5641666517029087 8.4604744601604587 20.5213159327035406 O
atom 1.4074515793665485 6.2643361966878022 15.0000000000000000 O
atom 2.5191469528059409 7.2892417086238810 19.2898474021507447 Mo
atom 0.0213546549659853 4.9109187265953338 17.6516386119043283 Mo
atom 1.1198999523671105 8.6835307975919651 19.1349797936573651 O
atom 3.9543034495378393 5.8886046866513322 19.2028191075161168 O
atom 3.4820237217891759 8.3734828904036416 17.7919707868794212 O
atom 1.4862235411805427 6.3497069325893314 17.7276341017334502 O
atom 7.4144197683760753 2.3832269953277034 16.2336638852326764 Mo
atom 4.9143921587082797 0.0027105289854553 20.3650266075759738 Mo
atom 6.0147077943630221 3.7772604970806793 16.3862837196398203 O
atom 8.8502722382533623 0.9814773211352692 16.3191086074812901 O
atom 8.4586149484860815 3.5555352419279829 15.0011512195031536 O
atom 6.3021865617674449 1.3570177758055457 20.5214769680654037 O
atom 7.3464610179620538 2.5292869008553609 19.2895737667187568 Mo
atom 4.9143429509765237 0.0039066916837011 17.8696348904829172 Mo
atom 5.9120934023553540 3.9320383377637858 19.2064750214836231 O
atom 8.7465890532971269 1.1362479898772750 19.1362667689449957 O
atom 8.3748077705073118 3.4643753477914339 17.7289026182586511 O
atom 6.3828688153432349 1.4461717136931456 17.7920022601230521 O
atom 7.3658304281775173 7.4385022819375823 16.2320626144458622 Mo
atom 4.9343374031974587 4.9097734132911297 15.1561719864775384 Mo
atom 5.9316711959119326 8.8370599674382451 16.3184523624063047 O
atom 8.7649597916868114 6.0423427463791288 16.3870902988446439 O
atom 8.4775107109421430 8.4619933475276383 20.5197867782362593 O
atom 6.3215959312384546 6.2656692619589887 15.0012563925689832 O
atom 7.4325044469479815 7.2895439649295835 19.2893013845755839 Mo
atom 4.9355978348467202 4.9120575222905183 17.6509734632659736 Mo
atom 6.0316617413293745 8.6832392973756569 19.1341847321920717 O
atom 8.8653722501243042 5.8883773126354892 19.2021405390047875 O
atom 8.3953965059007913 8.3730481109215109 17.7922267590897825 O
atom 6.3994659350928922 6.3499820415990333 17.7282163591993758 O
atom 2.5005756188714989 2.3833155468930487 21.8303867052092251 Mo
atom 0.0018528985206292 0.0034230689491665 25.9619255860575073 Mo
atom 1.0999210175275691 3.7767159921953564 21.9839173124935741 O
atom 3.9348862649450633 0.9815675688707166 21.9159536183858101 O
atom 3.5458605436355985 3.5557964147958621 20.6007886266660947 O
atom 1.3892226598996293 1.3576966587748864 26.1180732097893440 O
atom 2.4337123269183989 2.5314670254390181 24.8869918159960868 Mo
atom 0.0026265787330787 0.0042973800414468 23.4659615455611039 Mo
atom 0.9990663378938411 3.9308066639469703 24.8028846103344840 O
atom 3.8332339080521907 1.1357898603452086 24.7344440313004590 O
atom 3.4617003601743148 3.4648662068380145 23.3280952619852293 O
atom 1.4705961033237633 1.4465525553766256 23.3904793847618926 O
atom 2.4517136470615060 7.4354988917050688 21.8297910248497224 Mo
atom 0.0182579040075033 4.9082852479935539 20.7547530750948219 Mo
atom 1.0180054825647127 8.8375004016849363 21.9164196429667264 O
atom 3.8516064153328204 6.0427318322115484 21.9857461018050735 O
atom 3.5638902969645390 8.4601538652302342 26.1191585762095961 O
atom 1.4071752246281781 6.2640156017575785 20.5978426435060520 O
atom 2.5188705980675707 7.2889211136936565 24.8876900456568002 Mo
atom 0.0210783002276146 4.9105981316651093 23.2494812554103873 Mo
atom 1.1196235976287396 8.6832102026617424 24.7328224371634242 O
atom 3.9540270947994682 5.8882840917211094 24.8006617510221723 O
atom 3.4817473670508057 8.3731622954734188 23.3898134303854768 O
atom 1.4859471864421721 6.3493863376591069 23.3254767452395058 O
atom 7.4141434136377029 2.3829064003974789 21.8315065287387320 Mo
atom 4.9141158039699091 0.0023899340552312 25.9628692510820294 Mo
atom 6.0144314396246514 3.7769399021504553 21.9841263631458759 O
atom 8.8499958835149926 0.9811567262050451 21.9169512509873421 O
atom 8.4583385937477100 3.5552146469977584 20.5989938630092091 O
atom 6.3019102070290725 1.3566971808753217 26.1193196115714557 O
atom 7.3461846632236822 2.5289663059251364 24.8874164102248159 Mo
atom 4.9140665962381522 0.0035860967534769 23.4674775339889727 Mo
atom 5.9118170476169842 3.9317177428335617 24.8043176649896786 O
atom 8.7463126985587571 1.1359273949470512 24.7341094124510512 O
atom 8.3745314157689439 3.4640547528612098 23.3267452617647066 O
atom 6.3825924606048661 1.4458511187629217 23.3898449036291076 O
atom 7.3655540734391467 7.4381816870073578 21.8299052579519177 Mo
atom 4.9340610484590881 4.9094528183609052 20.7540146299835939 Mo
atom 5.9313948411735611 8.8367393725080206 21.9162950059123602 O
atom 8.7646834369484417 6.0420221514489043 21.9849329423506994 O
atom 8.4772343562037751 8.4616727525974138 26.1176294217423148 O
atom 6.3213195765000831 6.2653486670287650 20.5990990360750388 O
atom 7.4322280922096100 7.2892233699993589 24.8871440280816394 Mo
atom 4.9353214801083487 4.9117369273602938 23.2488161067720291 Mo
atom 6.0313853865910039 8.6829187024454324 24.7320273756981344 O
atom 8.8650958953859362 5.8880567177052656 24.7999831825108465 O
atom 8.3951201511624216 8.3727275159912864 23.3900694025958380 O
atom 6.3991895803545207 6.3496614466688097 23.3260590027054313 O
atom 2.5002992641331279 2.3829949519628246 27.4282293487152806 Mo
atom 1.0996446627891985 3.7763953972651332 27.5817599559996296 O
atom 3.9346099102066923 0.9812469739404924 27.5137962618918657 O
atom 3.5455841888972275 3.5554758198656375 26.1986312701721502 O
atom 0.0023502239947080 0.0039767851112227 29.0638041890671595 Mo
atom 3.4614240054359433 3.4645456119077904 28.9259379054912813 O
atom 1.4703197485853934 1.4462319604464016 28.9883220282679517 O
atom 2.4514372923231349 7.4351782967748452 27.4276336683557780 Mo
atom 9.8445306074977790 4.9079646530633294 26.3525957186008810 Mo
atom 1.0177291278263421 8.8371798067547118 27.5142622864727819 O
atom 3.8513300605944489 6.0424112372813248 27.5835887453111290 O
atom 1.4068988698898075 6.2636950068273558 26.1956852870121075 O
atom 0.0208019454892440 4.9102775367348857 28.8473238989164393 Mo
atom 3.4814710123124351 8.3728417005431925 28.9876560738915359 O
atom 1.4856708317038012 6.3490657427288824 28.9233193887455577 O
atom 7.4138670588993332 2.3825858054672548 27.4293491722447840 Mo
atom 6.0141550848862808 3.7766193072202316 27.5819690066519314 O
atom 8.8497195287766193 0.9808361312748211 27.5147938944934012 O
atom 8.4580622390093403 3.5548940520675347 26.1968365065152611 O
atom 4.9137902414997825 0.0032655018232528 29.0653201774950283 Mo
atom 8.3742550610305724 3.4637341579309857 28.9245879052707586 O
atom 6.3823161058664946 1.4455305238326972 28.9876875471351596 O
atom 7.3652777187007752 7.4378610920771342 27.4277479014579733 Mo
atom 4.9337846937207175 4.9091322234306816 26.3518572734896459 Mo
atom 5.9311184864351922 8.8364187775777960 27.5141376494184158 O
atom 8.7644070822100701 6.0417015565186816 27.5827755858567514 O
atom 6.3210432217617143 6.2650280720985405 26.1969416795810943 O
atom 4.9350451253699781 4.9114163324300710 28.8466587502780847 Mo
atom 8.3948437964240519 8.3724069210610619 28.9879120461018935 O
atom 6.3989132256161501 6.3493408517385861 28.9239016462114868 O
