#===============================================================================
# Created using the Atomic Simulation Environment (ASE)

# Mon Mar 23 14:01:07 2026

#=======================================================
lattice_vector 9.8433162200001281 0.0000000000000000 0.0000000000000000 
lattice_vector -0.0000031600105307 9.8433818399996227 0.0000000000000000 
lattice_vector 0.0000000000000000 0.0000000000000000 51.1711754777809986 
atom 2.4608323749974104 2.4608373149980389 15.7421107149216084 Os
atom 9.8433124099886040 9.8433797999969137 15.7421135549217439 Os
atom 7.3824882549967210 2.4608418949976203 15.7421128549217215 Os
atom 1.7187376869118562 0.7421004469903977 15.0000000000000000 O
atom 0.7420914319086461 3.2029492802239652 15.0000028720625664 O
atom 1.7187398669053298 5.6637991669907812 15.0000011600002523 O
atom 0.7420868819034216 8.1246400402233530 15.0000010420625358 O
atom 6.6403958869115334 0.7421027569903552 15.0000020000000660 O
atom 5.6637476319094890 3.2029445302237161 15.0000008820624124 O
atom 6.6403933669051414 5.6638007569900513 15.0000007300002594 O
atom 5.6637390419031464 8.1246421602224039 15.0000008920625447 O
atom 2.4608286399883763 9.8433786649968589 18.2029798649217369 Os
atom 0.0000016149966661 2.4608396599970930 18.2029796949216589 Os
atom 2.4608322149961799 2.4608367549954040 25.5855838149215948 Os
atom 9.8433122499873758 9.8433792399942774 25.5855866549217303 Os
atom 4.1795698880838570 1.7187392397712569 16.4842292777810187 O
atom 1.7187401769116037 0.7420980169895538 19.9217344099999565 O
atom 0.7420910351442938 4.1795811202234248 17.4608653998433567 O
atom 3.2029202898469005 3.2029408630037906 18.9450945520623293 O
atom 0.7420898319082387 3.2029479702225521 19.9217342220625184 O
atom 3.2029221430824868 4.1795768330047132 16.4842276398432510 O
atom 4.1795691748486989 0.7421006997705804 18.9450939400000280 O
atom 1.7187403001469426 1.7187357169903035 17.4608638577809110 O
atom 2.4608316499948231 4.9216804049972840 18.2029796549215419 Os
atom 9.8433121849897027 7.3825420999963320 18.2029768649219577 Os
atom 2.4608256949903153 7.3825392049967933 15.7421191249218779 Os
atom 0.0000004599926126 4.9216958599974996 15.7421147349219623 Os
atom 4.1795662380787650 6.6404291997708054 16.4842268677809756 O
atom 1.7187382269049352 5.6637979169894397 19.9217297200002079 O
atom 0.7420897251378457 9.1012794002232784 17.4608655898435643 O
atom 3.2029159198403674 8.1246395930031063 18.9450962920625230 O
atom 0.7420895019027748 8.1246402602226393 19.9217316320625670 O
atom 3.2029173830755635 9.1012781030040202 16.4842273998435189 O
atom 4.1795648248422506 5.6637990297699661 18.9450933200002183 O
atom 1.7187373401416328 6.6404265569896967 17.4608708277808979 O
atom 7.3824868499984380 0.0000001049967264 18.2029805449218074 Os
atom 4.9216603649966402 2.4608401099971462 18.2029814349216785 Os
atom 7.3824880949954901 2.4608413349949854 25.5855859549217044 Os
atom 4.9216573699986705 0.0000003399972087 15.7421158449218126 Os
atom 9.1012254280842910 1.7187369697708645 16.4842285977809340 O
atom 6.6403938969111778 0.7421011569889019 19.9217325600000095 O
atom 5.6637474551441249 4.1795824102230670 17.4608684998433787 O
atom 8.1245773598456221 3.2029493930037187 18.9450911920625629 O
atom 5.6637471519080904 3.2029492502224071 19.9217348620625465 O
atom 8.1245765930812155 4.1795852230041746 16.4842260098434608 O
atom 9.1012256548485571 0.7421019697703027 18.9450945100000538 O
atom 6.6403981301465436 1.7187385369902239 17.4608650677809898 O
atom 7.3824848699925578 4.9216949749965417 18.2029781449219179 Os
atom 4.9216529049897639 7.3825412699961239 18.2029776449219227 Os
atom 7.3824777249894771 7.3825449649958959 15.7421163349219952 Os
atom 4.9216592399943115 4.9216856199975814 15.7421156349216780 Os
atom 9.1012194780775246 6.6404373697700585 16.4842256377811651 O
atom 6.6403932569046029 5.6638002869888897 19.9217316400002460 O
atom 5.6637440551376494 9.1012808302225725 17.4608690298435754 O
atom 8.1245717098402501 8.1246407430027432 18.9450959120625377 O
atom 5.6637436619025134 8.1246422602219930 19.9217320720625928 O
atom 8.1245740430752900 9.1012801530037635 16.4842283698435637 O
atom 9.1012233048419588 5.6638011697699779 18.9450949400002813 O
atom 6.6403920701402095 6.6404360069892610 17.4608670377811421 O
atom 2.4608247399875784 9.8433792949947971 23.1247210749217231 Os
atom 0.0000013449958505 2.4608402499955324 23.1247237449216740 Os
atom 2.4608300149965694 2.4608383349963017 20.6638491849216166 Os
atom 9.8433118799881356 9.8433786899955606 20.6638486649217050 Os
atom 4.1795691080834976 1.7187372997697972 21.4059668977809565 O
atom 1.7187375269106264 0.7420998869877631 24.8434730999999900 O
atom 0.7420906051433258 4.1795830002220296 22.3826027298434056 O
atom 3.2029215998448684 3.2029493430026572 23.8668325020625787 O
atom 0.7420912719074161 3.2029487202213311 24.8434759720625529 O
atom 3.2029181930808490 4.1795828330027200 21.4059661298433852 O
atom 4.1795661048483250 0.7420986797686407 23.8668354999999508 O
atom 1.7187400801458339 1.7187382069887938 22.3826063877809851 O
atom 2.4608295999916949 4.9216955849955442 23.1247199849219598 Os
atom 9.8433119749892199 7.3825406699948148 23.1247197549219123 Os
atom 2.4608273849897442 7.3825389149959104 20.6638504049218881 Os
atom 9.8433141999925660 4.9216930399959180 20.6638470349218579 Os
atom 4.1795652080771726 6.6404348997692768 21.4059655477811290 O
atom 1.7187397069040999 5.6637986069881459 24.8434742600002423 O
atom 0.7420870151373754 9.1012781102214770 22.3826042798435090 O
atom 3.2029137998392407 8.1246421830012814 23.8668391020625847 O
atom 0.7420867219021916 8.1246394802207202 24.8434741420625222 O
atom 3.2029168430749984 9.1012773230025310 21.4059675198434931 O
atom 4.1795671548414512 5.6637994397687743 23.8668390600002525 O
atom 1.7187367401393399 6.6404368169883430 22.3826057477811879 O
atom 7.3824797499874837 9.8433802449942842 23.1247216749217301 Os
atom 4.9216603849967546 2.4608351099957395 23.1247217049215408 Os
atom 7.3824876149965659 2.4608390849964068 20.6638426049216335 Os
atom 4.9216529099877384 9.8433807899954484 20.6638478249217599 Os
atom 9.1012236580835708 1.7187371497691613 21.4059691677809241 O
atom 6.6403957269103033 0.7421021969877206 24.8434751000000560 O
atom 5.6637442451436764 4.1795811702212973 22.3826032498433207 O
atom 8.1245768998450529 3.2029485830021978 23.8668327820625308 O
atom 5.6637474719082581 3.2029439702210811 24.8434739820624024 O
atom 8.1245763730812328 4.1795808330027446 21.4059656998433319 O
atom 9.1012231948479219 0.7421015897684947 23.8668348800000238 O
atom 6.6403976501461601 1.7187369669889270 22.3825986477809451 O
atom 7.3824826599923217 4.9216920949947438 23.1247196349218171 Os
atom 4.9216496749888705 7.3825424199941292 23.1247201749219293 Os
atom 7.3824812549896119 7.3825400649951947 20.6638516949218811 Os
atom 4.9216545799922882 4.9216943399956516 20.6638478349218886 Os
atom 9.1012214380774381 6.6404335897689499 21.4059663477810744 O
atom 6.6403932069039113 5.6638001969874168 24.8434738300002458 O
atom 5.6637419951371539 9.1012799202209997 22.3826034298435346 O
atom 8.1245729898392831 8.1246424530015240 23.8668367220626010 O
atom 5.6637388819019163 8.1246416002197677 24.8434739920625347 O
atom 8.1245722630748798 9.1012784530020898 21.4059678698435043 O
atom 9.1012222048416120 5.6637990697684133 23.8668344400002184 O
atom 6.6403905201396132 6.6404354669876273 22.3826064077811111 O
atom 2.4608284799871458 9.8433781049942244 28.0464529649217269 Os
atom 0.0000014549954360 2.4608390999944589 28.0464527949216489 Os
atom 2.4608320549949498 2.4608361949927691 35.4290569149215884 Os
atom 9.8433120899861439 9.8433786799916430 35.4290597549217239 Os
atom 4.1795697280826269 1.7187386797686226 26.3277023777810086 O
atom 1.7187400169103737 0.7420974569869192 29.7652075099999394 O
atom 0.7420908751430638 4.1795805602207894 27.3043384998433396 O
atom 3.2029201298456700 3.2029403030011556 28.7885676520623122 O
atom 0.7420896719070087 3.2029474102199176 29.7652073220625084 O
atom 3.2029219830812572 4.1795762730020787 26.3277007398432374 O
atom 4.1795690148474698 0.7421001397679460 28.7885670400000180 O
atom 1.7187401401457125 1.7187351569876692 27.3043369577809045 O
atom 2.4608314899935926 4.9216798449946495 28.0464527549215319 Os
atom 9.8433120249884727 7.3825415399936984 28.0464499649219476 Os
atom 2.4608255349890853 7.3825386449941579 25.5855922249218679 Os
atom 0.0000002999913825 4.9216952999948642 25.5855878349219523 Os
atom 4.1795660780775350 6.6404286397681718 26.3276999677809620 O
atom 1.7187380669037053 5.6637973569868061 29.7652028200001979 O
atom 0.7420895651366156 9.1012788402206422 27.3043386898435614 O
atom 3.2029157598391373 8.1246390330004701 28.7885693920625130 O
atom 0.7420893419015446 8.1246397002200048 29.7652047320625570 O
atom 3.2029172230743335 9.1012775430013875 26.3277004998435089 O
atom 4.1795646648410214 5.6637984697673307 28.7885664200002083 O
atom 1.7187371801404030 6.6404259969870614 27.3043439277808915 O
atom 7.3824835299866782 9.8433813849937142 28.0464536449217974 Os
atom 4.9216602049954110 2.4608395499945117 28.0464545349216721 Os
atom 7.3824879349942618 2.4608407749923509 35.4290590549216944 Os
atom 4.9216540499869090 9.8433816199941973 25.5855889449217990 Os
atom 9.1012252680830610 1.7187364097682301 26.3277016977809168 O
atom 6.6403937369099477 0.7421005969862674 29.7652056599999923 O
atom 5.6637472951428949 4.1795818502204325 27.3043415998433687 O
atom 8.1245771998443903 3.2029488330010838 28.7885642920625457 O
atom 5.6637469919068586 3.2029486902197721 29.7652079620625329 O
atom 8.1245764330799872 4.1795846630015392 26.3276991098434472 O
atom 9.1012254948473252 0.7421014097676680 28.7885676100000438 O
atom 6.6403979701453144 1.7187379769875899 27.3043381677809833 O
atom 7.3824847099913287 4.9216944149939081 28.0464512449219114 Os
atom 4.9216527449885330 7.3825407099934894 28.0464507449219127 Os
atom 7.3824775649882470 7.3825444049932623 25.5855894349219817 Os
atom 4.9216590799930824 4.9216850599949469 25.5855887349216680 Os
atom 9.1012193180762964 6.6404368097674240 26.3276987377811587 O
atom 6.6403930969033738 5.6637997269862561 29.7652047400002289 O
atom 5.6637438951364203 9.1012802702199380 27.3043421298435689 O
atom 8.1245715498390219 8.1246401830001105 28.7885690120625242 O
atom 5.6637435019012852 8.1246417002193567 29.7652051720625792 O
atom 8.1245738830740581 9.1012795930011290 26.3277014698435572 O
atom 9.1012231448407288 5.6638006097673443 28.7885680400002713 O
atom 6.6403919101389803 6.6404354469866274 27.3043401377811321 O
atom 2.4608245799863484 9.8433787349921609 32.9681941749217202 Os
atom 0.0000011849946204 2.4608396899928979 32.9681968449216640 Os
atom 2.4608298549953402 2.4608377749936663 30.5073222849215995 Os
atom 9.8433117199869038 9.8433781299929262 30.5073217649216986 Os
atom 4.1795689480822684 1.7187367397671631 31.2494399977809465 O
atom 1.7187373669093962 0.7420993269851287 34.6869461999999729 O
atom 0.7420904451420957 4.1795824402193951 32.2260758298433956 O
atom 3.2029214398436383 3.2029487830000223 33.7103056020625687 O
atom 0.7420911119061859 3.2029481602186962 34.6869490720625464 O
atom 3.2029180330796194 4.1795822730000856 31.2494392298433752 O
atom 4.1795659448470950 0.7420981197660064 33.7103085999999337 O
atom 1.7187399201446041 1.7187376469861595 32.2260794877809715 O
atom 2.4608294399904653 4.9216950249929097 32.9681930849219498 Os
atom 9.8433118149879899 7.3825401099921795 32.9681928549218952 Os
atom 2.4608272249885137 7.3825383549932750 30.5073235049218709 Os
atom 9.8433140399913341 4.9216924799932826 30.5073201349218550 Os
atom 4.1795650480759416 6.6404343397666423 31.2494386477811119 O
atom 1.7187395469028701 5.6637980469855114 34.6869473600002252 O
atom 0.7420868551361453 9.1012775502188408 32.2260773798434954 O
atom 3.2029136398380116 8.1246416229986469 33.7103122020625676 O
atom 0.7420865619009616 8.1246389202180840 34.6869472420625158 O
atom 3.2029166830737688 9.1012767629998965 31.2494406198434831 O
atom 4.1795669948402212 5.6637988797661407 33.7103121600002424 O
atom 1.7187365801381098 6.6404362569857094 32.2260788477811815 O
atom 7.3824795899862536 9.8433796849916479 32.9681947749217201 Os
atom 4.9216602249955246 2.4608345499931046 32.9681948049215308 Os
atom 7.3824874549953368 2.4608385249937723 30.5073157049216235 Os
atom 4.9216527499865084 9.8433802299928157 30.5073209249217427 Os
atom 9.1012234980823390 1.7187365897665272 31.2494422677809069 O
atom 6.6403955669090733 0.7421016369850862 34.6869482000000460 O
atom 5.6637440851424481 4.1795806102186628 32.2260763498433107 O
atom 8.1245767398438211 3.2029480229995628 33.7103058820625279 O
atom 5.6637473119070281 3.2029434102184466 34.6869470820623889 O
atom 8.1245762130800045 4.1795802730001101 31.2494387998433183 O
atom 9.1012230348466918 0.7421010297658601 33.7103079800000103 O
atom 6.6403974901449310 1.7187364069862929 32.2260717477809351 O
atom 7.3824824999910916 4.9216915349921084 32.9681927349218142 Os
atom 4.9216495149876405 7.3825418599914947 32.9681932749219158 Os
atom 7.3824810949883828 7.3825395049925593 30.5073247949218711 Os
atom 4.9216544199910590 4.9216937799930180 30.5073209349218786 Os
atom 9.1012212780762063 6.6404330297663163 31.2494394477810644 O
atom 6.6403930469026813 5.6637996369847832 34.6869469300002464 O
atom 5.6637418351359239 9.1012793602183653 32.2260765298435246 O
atom 8.1245728298380513 8.1246418929988895 33.7103098220625910 O
atom 5.6637387219006863 8.1246410402171332 34.6869470920625247 O
atom 8.1245721030736444 9.1012778929994536 31.2494409698434907 O
atom 9.1012220448403802 5.6637985097657788 33.7103075400002012 O
atom 6.6403903601383822 6.6404349069849928 32.2260795077811011 O
atom 4.1795695680813969 1.7187381197659883 36.1711754777809986 O
atom 3.2029218230800272 4.1795757129994442 36.1711738398432203 O
atom 2.4608253749878553 7.3825380849915234 35.4290653249218579 Os
atom 0.0000001399901524 4.9216947399922297 35.4290609349219423 Os
atom 4.1795659180763041 6.6404280797655364 36.1711730677809484 O
atom 3.2029170630731030 9.1012769829987512 36.1711735998434918 O
atom 4.9216538899856799 9.8433810599915628 35.4290620449217855 Os
atom 9.1012251080818292 1.7187358497655958 36.1711747977809068 O
atom 8.1245762730787572 4.1795841029989047 36.1711722098434336 O
atom 7.3824774049870161 7.3825438449906269 35.4290625349219681 Os
atom 4.9216589199918515 4.9216844999923124 35.4290618349216544 Os
atom 9.1012191580750663 6.6404362497647904 36.1711718377811451 O
atom 8.1245737230728299 9.1012790329984945 36.1711745698435436 O
