#===============================================================================
# Created using the Atomic Simulation Environment (ASE)

# Mon Mar 23 14:01:10 2026

#=======================================================
lattice_vector 9.0245745700181317 0.0000000000000000 0.0000000000000000 
lattice_vector -0.0000361800215085 9.0245852999456080 0.0000000000000000 
lattice_vector 0.0000000000000000 0.0000000000000000 34.8199949100000055 
atom -0.0000332900110248 9.0245800699514014 15.0000000000000000 Os
atom 1.3914457408577661 1.3914232891928298 15.0000004599999990 O
atom 9.0245532749959505 4.5122983499663789 15.0000003699999951 Os
atom 4.5122511799916971 9.0245832349457569 15.0000003599999978 Os
atom 7.6331642142419778 3.1208232808871670 15.0000007800000006 O
atom 2.2561446675106263 2.2561406025065880 16.6066631999999998 Os
atom 3.6475619066867182 0.8647032116366937 16.6066542199999994 O
atom 0.8646910983638411 3.6475633733036572 16.6066579499999989 O
atom 3.1208489641921711 3.1208436058311100 15.0000012299999987 O
atom 9.0245717200162670 0.0000009299942871 18.2133244699999999 Os
atom 2.2561459975098246 2.2561410025092536 19.8199873899999979 Os
atom 1.3914393908613145 1.3914215191801012 18.2133254699999974 O
atom 3.6475632966864375 0.8647033516394799 19.8199949100000019 O
atom 0.8646910483636203 3.6475634833035566 19.8199910099999990 O
atom 3.1208561641946164 3.1208423858455423 18.2133249699999986 O
atom 2.2561022624402174 6.7684630124306526 16.6066616499999995 Os
atom 1.3913713457512560 5.9037637090527699 15.0000022699999995 O
atom 3.6475534316211395 5.3770232116287708 16.6066720199999978 O
atom 0.8646855432950556 8.1598849733015868 16.6066649799999979 O
atom 3.1207888490599225 7.6331968657196736 15.0000023399999982 O
atom -0.0000162650101328 4.5122923399764625 18.2133239699999976 Os
atom 2.2561033124414203 6.7684624124327568 19.8199899300000020 Os
atom 1.3913790057611781 5.9037587590681229 18.2133246199999981 O
atom 3.6475545516240859 5.3770217416310162 19.8199797200000027 O
atom 0.8646861932950555 8.1598849733028906 19.8199841699999944 O
atom 3.1207829690729714 7.6331903557078871 18.2133244899999980 O
atom 6.7684387475579664 2.2561215075202092 16.6066626499999970 Os
atom 5.9037509709323892 1.3913905842288010 15.0000010800000005 O
atom 8.1598562067019280 0.8647001466507552 16.6066562500000003 O
atom 5.3769850083827793 3.6475584483169374 16.6066671899999996 O
atom 4.5122865400060688 0.0000014949985066 18.2133240099999973 Os
atom 6.7684373075565443 2.2561222175173219 19.8199888299999962 Os
atom 5.9037496909136866 1.3913999142262352 18.2133255299999988 O
atom 8.1598558867005853 0.8647008166501141 19.8199929699999977 O
atom 5.3769831883806125 3.6475595283132889 19.8199846199999961 O
atom 7.6331682442424782 3.1208230308952452 18.2133258900000001 O
atom 4.5122698549988804 4.5122923649741269 15.0000027599999974 Os
atom 6.7683912024849127 6.7684452374339683 16.6066615499999983 Os
atom 5.9036885358118472 5.9037380041127125 15.0000024699999983 O
atom 8.1598444616304562 5.3770230866362789 16.6066663400000003 O
atom 5.3769767133057149 8.1598841783093761 16.6066598399999990 O
atom 7.6330947691398565 7.6331615107570281 15.0000014600000000 O
atom 4.5122699850014882 4.5122910649743870 18.2133247999999988 Os
atom 6.7683900724858947 6.7684447474317047 19.8199897599999950 Os
atom 5.9036881558085597 5.9037396441119521 18.2133243799999960 O
atom 8.1598443716316584 5.3770224866360978 19.8199826499999965 O
atom 5.3769765433040311 8.1598850183090352 19.8199893200000012 O
atom 7.6330882091266865 7.6331680807438786 18.2133251099999995 O
