#===============================================================================
# Created using the Atomic Simulation Environment (ASE)

# Mon Mar 23 14:01:12 2026

#=======================================================
lattice_vector 12.7627089219227017 0.0000000000000000 0.0000000000000000 
lattice_vector 0.0000000000000000 6.4266484300000002 0.0000000000000000 
lattice_vector 0.0000000000000000 0.0000000000000000 32.4457675502680303 
atom 6.3813390726014312 4.8199861600000009 16.2228876925006418 Os
atom 6.3813503496211910 0.0000004699999996 15.0000057417089891 O
atom 8.3491144525412810 4.8199951400000005 16.2228706684586896 O
atom 4.4135483413947849 4.8199914100000001 16.2228686894429615 O
atom 6.3813417114468916 6.4266481300000002 17.4457633217659378 O
atom 6.3813397302100157 1.6066619700000002 16.2228889157957568 Os
atom 6.3813471110755478 3.2133238900000007 15.0000000000000000 O
atom 8.3491153364241146 1.6066544500000004 16.2228717503325868 O
atom 4.4135482282576746 1.6066583500000000 16.2228687318693048 O
atom 6.3813476652834709 3.2133243900000004 17.4457675502680303 O
atom 3.1906443783518124 0.0000005599999998 16.2228863825749485 Os
atom 3.1906521848110896 3.2133253899999996 16.2228856896149480 Os
atom 9.5720066493094418 0.0000005700000003 16.2228832112056764 Os
atom 9.5720035521805933 3.2133253500000003 16.2228851486764114 Os
atom 12.7626690358528414 4.8199878099999998 16.2228801441211843 Os
atom 12.7626705406542111 6.4266468900000007 15.0000026763807170 O
atom 1.9677501875273533 4.8199830199999996 16.2228993663815757 O
atom 10.7948945044393216 4.8199895200000000 16.2229002087228054 O
atom 12.7626617751980849 6.4266479000000016 17.4457646404996396 O
atom 12.7626685833051798 1.6066596000000004 16.2228789986079320 Os
atom 12.7626691122979814 3.2133249800000008 15.0000035673344101 O
atom 1.9677505481520972 1.6066667099999996 16.2228988784781123 O
atom 10.7948937902611899 1.6066600400000002 16.2229006824839246 O
atom 12.7626524908860457 3.2133242500000003 17.4457646475651842 O
