#===============================================================================
# Created using the Atomic Simulation Environment (ASE)

# Mon Mar 23 14:01:10 2026

#=======================================================
lattice_vector 9.0245745700181317 0.0000000000000000 0.0000000000000000 
lattice_vector -0.0000361800215085 9.0245852999456080 0.0000000000000000 
lattice_vector 0.0000000000000000 0.0000000000000000 46.0666375500000029 
atom -0.0000332900110248 9.0245800699514014 19.8199942099999973 Os
atom 2.2561446675106263 2.2561406025065880 15.0000089799999969 Os
atom 1.3914457408577661 1.3914232891928298 19.8199946699999998 O
atom 3.6475619066867182 0.8647032116366937 15.0000000000000000 O
atom 0.8646910983638411 3.6475633733036572 15.0000037299999960 O
atom 9.0245717200162670 0.0000009299942871 16.6066702500000005 Os
atom 2.2561459975098246 2.2561410025092536 18.2133331699999985 Os
atom 1.3914393908613145 1.3914215191801012 16.6066712499999980 O
atom 3.6475632966864375 0.8647033516394799 18.2133406899999954 O
atom 0.8646910483636203 3.6475634833035566 18.2133367899999996 O
atom 3.1208561641946164 3.1208423858455423 16.6066707499999993 O
atom 9.0245532749959505 4.5122983499663789 19.8199945799999995 Os
atom 2.2561022624402174 6.7684630124306526 15.0000074299999966 Os
atom 3.6475534316211395 5.3770232116287708 15.0000177999999984 O
atom 0.8646855432950556 8.1598849733015868 15.0000107599999950 O
atom -0.0000162650101328 4.5122923399764625 16.6066697499999982 Os
atom 2.2561033124414203 6.7684624124327568 18.2133357099999955 Os
atom 1.3913790057611781 5.9037587590681229 16.6066703999999987 O
atom 3.6475545516240859 5.3770217416310162 18.2133254999999963 O
atom 0.8646861932950555 8.1598849733028906 18.2133299499999950 O
atom 3.1207829690729714 7.6331903557078871 16.6066702699999951 O
atom 4.5122511799916971 9.0245832349457569 19.8199945699999986 Os
atom 6.7684387475579664 2.2561215075202092 15.0000084299999976 Os
atom 8.1598562067019280 0.8647001466507552 15.0000020299999974 O
atom 5.3769850083827793 3.6475584483169374 15.0000129700000002 O
atom 7.6331642142419778 3.1208232808871670 19.8199949899999979 O
atom 4.5122865400060688 0.0000014949985066 16.6066697899999980 Os
atom 6.7684373075565443 2.2561222175173219 18.2133346099999969 Os
atom 5.9037496909136866 1.3913999142262352 16.6066713099999959 O
atom 8.1598558867005853 0.8647008166501141 18.2133387499999984 O
atom 5.3769831883806125 3.6475595283132889 18.2133303999999967 O
atom 7.6331682442424782 3.1208230308952452 16.6066716699999972 O
atom 6.7683912024849127 6.7684452374339683 15.0000073299999954 Os
atom 8.1598444616304562 5.3770230866362789 15.0000121199999974 O
atom 5.3769767133057149 8.1598841783093761 15.0000056199999960 O
atom 4.5122699850014882 4.5122910649743870 16.6066705799999994 Os
atom 6.7683900724858947 6.7684447474317047 18.2133355399999957 Os
atom 5.9036881558085597 5.9037396441119521 16.6066701599999966 O
atom 8.1598443716316584 5.3770224866360978 18.2133284299999971 O
atom 5.3769765433040311 8.1598850183090352 18.2133350999999948 O
atom 7.6330882091266865 7.6331680807438786 16.6066708899999966 O
atom -0.0000332900110248 9.0245800699514014 26.2466426400000010 Os
atom 2.2561446675106263 2.2561406025065880 21.4266574099999971 Os
atom 1.3914457408577661 1.3914232891928298 26.2466431000000000 O
atom 3.6475619066867182 0.8647032116366937 21.4266484300000002 O
atom 0.8646910983638411 3.6475633733036572 21.4266521599999962 O
atom 3.1208489641921711 3.1208436058311100 19.8199954399999996 O
atom 9.0245717200162670 0.0000009299942871 23.0333186800000007 Os
atom 2.2561459975098246 2.2561410025092536 24.6399815999999987 Os
atom 1.3914393908613145 1.3914215191801012 23.0333196799999982 O
atom 3.6475632966864375 0.8647033516394799 24.6399891199999992 O
atom 0.8646910483636203 3.6475634833035566 24.6399852199999998 O
atom 3.1208561641946164 3.1208423858455423 23.0333191799999994 O
atom 9.0245532749959505 4.5122983499663789 26.2466430099999961 Os
atom 2.2561022624402174 6.7684630124306526 21.4266558599999968 Os
atom 1.3913713457512560 5.9037637090527699 19.8199964800000004 O
atom 3.6475534316211395 5.3770232116287708 21.4266662299999986 O
atom 0.8646855432950556 8.1598849733015868 21.4266591899999952 O
atom 3.1207888490599225 7.6331968657196736 19.8199965499999990 O
atom -0.0000162650101328 4.5122923399764625 23.0333181799999984 Os
atom 2.2561033124414203 6.7684624124327568 24.6399841399999993 Os
atom 1.3913790057611781 5.9037587590681229 23.0333188299999989 O
atom 3.6475545516240859 5.3770217416310162 24.6399739300000000 O
atom 0.8646861932950555 8.1598849733028906 24.6399783799999987 O
atom 3.1207829690729714 7.6331903557078871 23.0333186999999988 O
atom 4.5122511799916971 9.0245832349457569 26.2466429999999988 Os
atom 6.7684387475579664 2.2561215075202092 21.4266568599999978 Os
atom 5.9037509709323892 1.3913905842288010 19.8199952899999978 O
atom 8.1598562067019280 0.8647001466507552 21.4266504599999976 O
atom 5.3769850083827793 3.6475584483169374 21.4266613999999969 O
atom 7.6331642142419778 3.1208232808871670 26.2466434200000016 O
atom 4.5122865400060688 0.0000014949985066 23.0333182199999982 Os
atom 6.7684373075565443 2.2561222175173219 24.6399830400000006 Os
atom 5.9037496909136866 1.3913999142262352 23.0333197399999996 O
atom 8.1598558867005853 0.8647008166501141 24.6399871799999985 O
atom 5.3769831883806125 3.6475595283132889 24.6399788300000004 O
atom 7.6331682442424782 3.1208230308952452 23.0333201000000010 O
atom 4.5122698549988804 4.5122923649741269 19.8199969699999983 Os
atom 6.7683912024849127 6.7684452374339683 21.4266557599999956 Os
atom 5.9036885358118472 5.9037380041127125 19.8199966799999956 O
atom 8.1598444616304562 5.3770230866362789 21.4266605499999976 O
atom 5.3769767133057149 8.1598841783093761 21.4266540499999962 O
atom 7.6330947691398565 7.6331615107570281 19.8199956699999973 O
atom 4.5122699850014882 4.5122910649743870 23.0333190099999996 Os
atom 6.7683900724858947 6.7684447474317047 24.6399839699999994 Os
atom 5.9036881558085597 5.9037396441119521 23.0333185900000004 O
atom 8.1598443716316584 5.3770224866360978 24.6399768600000009 O
atom 5.3769765433040311 8.1598850183090352 24.6399835299999985 O
atom 7.6330882091266865 7.6331680807438786 23.0333193200000004 O
atom 2.2561446675106263 2.2561406025065880 27.8533058400000009 Os
atom 3.6475619066867182 0.8647032116366937 27.8532968600000004 O
atom 0.8646910983638411 3.6475633733036572 27.8533005899999999 O
atom 3.1208489641921711 3.1208436058311100 26.2466438699999998 O
atom 9.0245717200162670 0.0000009299942871 29.4599671100000009 Os
atom 2.2561459975098246 2.2561410025092536 31.0666300299999989 Os
atom 1.3914393908613145 1.3914215191801012 29.4599681099999984 O
atom 3.6475632966864375 0.8647033516394799 31.0666375500000029 O
atom 0.8646910483636203 3.6475634833035566 31.0666336500000000 O
atom 3.1208561641946164 3.1208423858455423 29.4599676099999996 O
atom 2.2561022624402174 6.7684630124306526 27.8533042900000005 Os
atom 1.3913713457512560 5.9037637090527699 26.2466449100000006 O
atom 3.6475534316211395 5.3770232116287708 27.8533146599999988 O
atom 0.8646855432950556 8.1598849733015868 27.8533076199999989 O
atom 3.1207888490599225 7.6331968657196736 26.2466449799999992 O
atom -0.0000162650101328 4.5122923399764625 29.4599666099999986 Os
atom 2.2561033124414203 6.7684624124327568 31.0666325700000030 Os
atom 1.3913790057611781 5.9037587590681229 29.4599672599999991 O
atom 3.6475545516240859 5.3770217416310162 31.0666223600000038 O
atom 0.8646861932950555 8.1598849733028906 31.0666268099999954 O
atom 3.1207829690729714 7.6331903557078871 29.4599671299999990 O
atom 6.7684387475579664 2.2561215075202092 27.8533052899999980 Os
atom 5.9037509709323892 1.3913905842288010 26.2466437200000016 O
atom 8.1598562067019280 0.8647001466507552 27.8532988900000014 O
atom 5.3769850083827793 3.6475584483169374 27.8533098300000006 O
atom 4.5122865400060688 0.0000014949985066 29.4599666499999984 Os
atom 6.7684373075565443 2.2561222175173219 31.0666314699999973 Os
atom 5.9037496909136866 1.3913999142262352 29.4599681699999998 O
atom 8.1598558867005853 0.8647008166501141 31.0666356099999987 O
atom 5.3769831883806125 3.6475595283132889 31.0666272599999971 O
atom 7.6331682442424782 3.1208230308952452 29.4599685300000012 O
atom 4.5122698549988804 4.5122923649741269 26.2466453999999985 Os
atom 6.7683912024849127 6.7684452374339683 27.8533041899999994 Os
atom 5.9036885358118472 5.9037380041127125 26.2466451099999993 O
atom 8.1598444616304562 5.3770230866362789 27.8533089800000013 O
atom 5.3769767133057149 8.1598841783093761 27.8533024800000000 O
atom 7.6330947691398565 7.6331615107570281 26.2466441000000010 O
atom 4.5122699850014882 4.5122910649743870 29.4599674399999998 Os
atom 6.7683900724858947 6.7684447474317047 31.0666323999999960 Os
atom 5.9036881558085597 5.9037396441119521 29.4599670199999970 O
atom 8.1598443716316584 5.3770224866360978 31.0666252899999975 O
atom 5.3769765433040311 8.1598850183090352 31.0666319600000023 O
atom 7.6330882091266865 7.6331680807438786 29.4599677500000006 O
