#===============================================================================
# Created using the Atomic Simulation Environment (ASE)

# Mon Mar 23 14:01:08 2026

#=======================================================
lattice_vector 22.0103944943716279 0.0000000000000000 0.0000000000000000 
lattice_vector -0.0000025759486765 9.8433818399997932 0.0000000000000000 
lattice_vector 0.0000000000000000 0.0000000000000000 45.1804305229941079 
atom 20.9099133621479574 0.0000031170097098 17.9697061075256848 Os
atom 1.1005425707547010 7.3825419080061492 16.8691755692702685 Os
atom 19.8093620438901858 7.3825441790025170 15.7686454491725492 Os
atom 13.2062932828254773 0.0000023360136543 19.0702365630197654 Os
atom 18.6039711347602683 8.1246424905508619 17.2010668277027641 O
atom 0.1049118545661848 5.6638004254619849 16.5372874334181610 O
atom 20.5780567028084107 6.6404410703908487 18.9653482986492676 O
atom 1.2054609744340976 6.6404338634689637 18.7383477307242217 O
atom 19.4775078557539132 5.6638048123840994 16.7642900003865130 O
atom 6.4982250890085371 9.1012804625435777 15.0000026867466705 O
atom 21.2417668462607736 8.1246459136281732 16.9740620962375957 O
atom 20.9099107012298049 4.9217013770094704 17.9697065592194605 Os
atom 1.1005462334069767 2.4608394680061396 16.8691712178679545 Os
atom 19.8093716545444209 2.4608422890042188 15.7686506904638541 Os
atom 18.6039731963943389 3.2029525305507676 17.2010637463960627 O
atom 0.1049129860185825 0.7421021454620923 16.5372877241087117 O
atom 20.5780612643892553 1.7187423403914095 18.9653486072065220 O
atom 1.2054599860801998 1.7187415734685965 18.7383459731894462 O
atom 19.4775118806663663 0.7421035423844005 16.7642883635682978 O
atom 6.4982285772632933 4.1795821325437936 15.0000008934068365 O
atom 21.2417724856592223 3.2029550736293908 16.9740677132125874 O
atom 3.3015701466021374 9.8433812490030146 15.7686448789465690 Os
atom 15.4073141817799151 7.3825400270098056 17.9697068342389557 Os
atom 17.6083426252339663 9.8433813680069733 16.8691781027050709 Os
atom 0.9956294486762208 8.1246443325441415 15.0000046018434681 O
atom 4.7339751923615694 9.1012803336285675 16.9740603376197861 O
atom 17.7132584331684946 5.6637995634693699 18.7383499186300355 O
atom 2.9697124497088123 6.6404321123836256 16.7642843599793281 O
atom 5.6075127809763030 6.6404321554623014 16.5372874815557509 O
atom 15.0754595866541692 5.6637968503909439 18.9653473739499354 O
atom 2.0961759881089179 9.1012796205505939 17.2010629358981255 O
atom 3.3015707190204031 4.9216863790027983 15.7686425534408201 Os
atom 18.7088913093595686 2.4608407260131506 19.0702318605691943 Os
atom 15.4073250311768426 2.4608369570110731 17.9697059442240743 Os
atom 17.6083407335275446 4.9216960880067937 16.8691794577820033 Os
atom 0.9956333215170212 3.2029439325441347 15.0000000000000000 O
atom 4.7339752281363454 4.1795812036284659 16.9740599351363386 O
atom 17.7132615860223375 0.7421011434696831 18.7383495787365320 O
atom 2.9697194888653646 1.7187407623847126 16.7642867614796849 O
atom 5.6075145295595457 1.7187391454621384 16.5372841319231867 O
atom 15.0754627976581954 0.7421019203914607 18.9653490509890403 O
atom 2.0961781570953821 4.1795804205508151 17.2010629761425342 O
atom 9.9047216157051796 0.0000022070106682 17.9697085671654548 Os
atom 12.1057433420260150 7.3825410380072523 16.8691821924812189 Os
atom 8.8041676946531027 7.3825428790029637 15.7686461468073915 Os
atom 2.2010957941347180 0.0000031660134783 19.0702350737999495 Os
atom 7.5987749921959225 8.1246441505510685 17.2010674716831353 O
atom 11.1101097636318560 5.6637982654621233 16.5372879745426005 O
atom 9.5728588384809328 6.6404323103909526 18.9653501724790203 O
atom 12.2106591876354198 6.6404328334696068 18.7383530615042133 O
atom 8.4723149375965487 5.6637985323846660 16.7642900048316434 O
atom 17.5034272510915940 9.1012822025445246 15.0000058306267245 O
atom 10.2365723986661497 8.1246431436290525 16.9740673822847050 O
atom 9.9047169065509184 4.9216859170101639 17.9697090591229376 Os
atom 12.1057464322381740 2.4608406180070710 16.8691768303796330 Os
atom 8.8041704673818071 2.4608422990033221 15.7686467684257572 Os
atom 2.2010931153195950 4.9216888160130825 19.0702339468310740 Os
atom 7.5987777514895418 3.2029465505511476 17.2010652266621449 O
atom 11.1101135425895805 0.7421031554625982 16.5372884619899310 O
atom 9.5728686414223016 1.7187394703924701 18.9653532939757774 O
atom 12.2106623136386947 1.7187420734696626 18.7383500964663341 O
atom 8.4723166414885895 0.7421040423849529 16.7642913509422584 O
atom 17.5034277788319237 4.1795814425449533 15.0000101909650851 O
atom 10.2365749746079757 3.2029445336291920 16.9740660227479054 O
atom 14.3067754704787902 0.0000008290041709 15.7686472491433918 Os
atom 4.4021143943801482 7.3825425570088576 17.9697005017103990 Os
atom 6.6031470014021618 0.0000006380066062 16.8691734695781896 Os
atom 12.0008300052608163 8.1246438725448478 15.0000074416287301 O
atom 15.7391734100406921 9.1012790136292967 16.9740665494105656 O
atom 6.7080631805359836 5.6638005234693392 18.7383469088697154 O
atom 13.9749122907610879 6.6404326423843854 16.7642886979346031 O
atom 16.6127108197453346 6.6404371554626467 16.5372899591135329 O
atom 4.0702638689558306 5.6638009603914119 18.9653501198312497 O
atom 13.1013770724023750 9.1012797205513234 17.2010652882171478 O
atom 14.3067720805930652 4.9216889790036724 15.7686460193196858 Os
atom 7.7036995539820330 2.4608392960142527 19.0702358004860706 Os
atom 4.4021240229275902 2.4608415770106324 17.9697064943203451 Os
atom 6.6031456374024113 4.9216870880064967 16.8691735187726053 Os
atom 12.0008306045090247 3.2029474325445904 15.0000046331322814 O
atom 15.7391749708063173 4.1795810136292859 16.9740649931062038 O
atom 6.7080651482751277 0.7421017734695162 18.7383467702299278 O
atom 13.9749174247885648 1.7187387723852317 16.7642911799458076 O
atom 16.6127183821073459 1.7187395254632654 16.5372868330511231 O
atom 4.0702683902905070 0.7421033403920144 18.9653509292678848 O
atom 13.1013776358907155 4.1795822405513201 17.2010651585304686 O
atom 12.1058117346950471 0.0000039730233354 22.3718270441195273 Os
atom 14.3068354376734153 7.3825427640197745 21.2712965058641110 Os
atom 11.0052604164372756 7.3825450350161441 20.1707663857663881 Os
atom 4.4021916553725644 0.0000031920272799 23.4723574996136080 Os
atom 9.7998695073073563 8.1246433465644863 21.6031877642966066 O
atom 0.3319212794675692 9.1012839016353251 19.1751244238941609 O
atom 13.3112047214849003 5.6638012814756102 20.9394083700120035 O
atom 11.7739550753554987 6.6404419264044741 23.3674692352431066 O
atom 14.4117538413528123 6.6404347194825890 23.1404686673180606 O
atom 10.6734062283009994 5.6638056683977238 21.1664109369803555 O
atom 19.7045179559272512 9.1012813185572021 19.4021236233405112 O
atom 12.4376652188078598 8.1246467696417977 21.3761830328314382 O
atom 12.1058090737768911 4.9217022330230957 22.3718274958133030 Os
atom 14.3068391003256927 2.4608403240197649 21.2712921544617934 Os
atom 11.0052700270915089 2.4608431450178445 20.1707716270576967 Os
atom 13.2062901165693649 4.9216862760135252 19.0702388214610821 Os
atom 9.7998715689414286 3.2029533865643933 21.6031846829899052 O
atom 0.3319208009215613 4.1795840016347743 19.1751200635737504 O
atom 13.3112058529372970 0.7421030014757179 20.9394086607025542 O
atom 11.7739596369363451 1.7187431964050350 23.3674695438003610 O
atom 14.4117528529989158 1.7187424294822220 23.1404669097832851 O
atom 10.6734102532134543 0.7421043983980260 21.1664093001621403 O
atom 19.7045214441820100 4.1795829885574198 19.4021218300006772 O
atom 12.4376708582063085 3.2029559296430170 21.3761886498064300 O
atom 16.5078655894695281 0.0000002650168472 20.1707658155404097 Os
atom 18.7088864571299389 7.3825418860131666 19.0702378800859336 Os
atom 6.6032125543270030 7.3825408830234309 22.3718277708327946 Os
atom 8.8042435737297282 0.0000003840208059 21.2712990392989099 Os
atom 14.2019223155949366 8.1246451885577677 19.4021255384373106 O
atom 17.9402680592802852 9.1012811896421937 21.3761812742136286 O
atom 8.9091568057155790 5.6638004194829961 23.1404708552238745 O
atom 16.1760053166275277 6.6404329683972518 21.1664052965731670 O
atom 18.8138056478950162 6.6404330114759276 20.9394084181495934 O
atom 6.2713579592012554 5.6637977064045701 23.3674683105437744 O
atom 15.3024688550276355 9.1012804765642183 21.6031838724919680 O
atom 16.8397168241088551 8.1246435216351802 19.1751235215668352 O
atom 16.5078635859391198 4.9216872350164236 20.1707634900346626 Os
atom 9.9047896819066565 2.4608415820267764 23.4723527971630332 Os
atom 6.6032234037239279 2.4608378130246988 22.3718268808179168 Os
atom 8.8042391060746361 4.9216969440204199 21.2713003943758423 Os
atom 14.2019261884357366 3.2029447885577600 19.4021209365938425 O
atom 17.9402680950550604 4.1795820596420921 21.3761808717301811 O
atom 8.9091599585694237 0.7421019994833086 23.1404705153303709 O
atom 16.1760123557840814 1.7187416183983379 21.1664076980735238 O
atom 18.8138073964782606 1.7187400014757641 20.9394050685170257 O
atom 6.2713611702052781 0.7421027764050862 23.3674699875828793 O
atom 15.3024710240140962 4.1795812765644413 21.6031839127363732 O
atom 16.8397230001271048 3.2029460516359016 19.1751232800409461 O
atom 1.1006199882522667 0.0000030630242938 22.3718295037592938 Os
atom 3.3016417145731016 7.3825418940208785 21.2713031290750614 Os
atom 0.0000660672001872 7.3825437350165890 20.1707670834012340 Os
atom 15.4073886610534299 0.0000040220271039 23.4723560103937885 Os
atom 20.8050678591146365 8.1246450065646947 21.6031884082769743 O
atom 11.3371217823735169 9.1012817516358258 19.1751251886088454 O
atom 2.3060081361789440 5.6637991214757486 20.9394089111364394 O
atom 0.7687572110280211 6.6404331664045770 23.3674711090728593 O
atom 3.4065575601825091 6.6404336894832321 23.1404739980980558 O
atom 21.6786078045152664 5.6637993883982913 21.1664109414254824 O
atom 8.6993256236386802 9.1012830585581490 19.4021267672205653 O
atom 1.4324707712132372 8.1246439996426769 21.3761883188785475 O
atom 1.1006152790980070 4.9216867730237901 22.3718299957167766 Os
atom 3.3016448047852616 2.4608414740206968 21.2712977669734755 Os
atom 0.0000688399288945 2.4608431550169478 20.1707677050195997 Os
atom 15.4073859822383099 4.9216896720267078 23.4723548834249129 Os
atom 20.8050706184082586 3.2029474065647729 21.6031861632559874 O
atom 11.3371202260877570 4.1795830316358220 19.1751279076864165 O
atom 2.3060119151366654 0.7421040114762236 20.9394093985837735 O
atom 0.7687670139693886 1.7187403264060956 23.3674742305696199 O
atom 3.4065606861857827 1.7187429294832881 23.1404710330601731 O
atom 21.6786095084073054 0.7421048983985783 21.1664122875360974 O
atom 8.6993261513790134 4.1795822985585787 19.4021311275589277 O
atom 1.4324733471550635 3.2029453896428177 21.3761869593417444 O
atom 5.5026738430258755 0.0000016850177965 20.1707681857372343 Os
atom 7.7036907841568745 7.3825466060137019 19.0702412520659408 Os
atom 17.6084072612988649 7.3825434130224838 22.3718214383042415 Os
atom 19.8094398683208759 0.0000014940202318 21.2712944061720322 Os
atom 3.1967283778079039 8.1246447285584740 19.4021283782225709 O
atom 6.9350717825877792 9.1012798696429211 21.3761874860044081 O
atom 19.9143560474546994 5.6638013794829662 23.1404678454635579 O
atom 5.1708106633081750 6.6404334983980107 21.1664096345284456 O
atom 7.8086091922924208 6.6404380114762729 20.9394108957073755 O
atom 17.2765567358745500 5.6638018164050372 23.3674710564250887 O
atom 4.2972754449494621 9.1012805765649478 21.6031862248109903 O
atom 5.8345186064512786 8.1246448116347771 19.1751206862387065 O
atom 5.5026704531401531 4.9216898350172986 20.1707669559135248 Os
atom 20.9099924209007497 2.4608401520278784 23.4723567370799095 Os
atom 17.6084168898463069 2.4608424330242582 22.3718274309141840 Os
atom 19.8094385043211254 4.9216879440201229 21.2712944553664478 Os
atom 3.1967289770561131 3.2029482885582161 19.4021255697261203 O
atom 6.9350733433534053 4.1795818696429112 21.3761859297000427 O
atom 19.9143580151938444 0.7421026294831419 23.1404677068237667 O
atom 5.1708157973356519 1.7187396283988572 21.1664121165396466 O
atom 7.8086167546544338 1.7187403814768909 20.9394077696449621 O
atom 17.2765612572092202 0.7421041964056401 23.3674718658617238 O
atom 4.2972760084378043 4.1795830965649454 21.6031860951243075 O
atom 5.8345283289034651 3.2029463116364192 19.1751251449051772 O
atom 3.3017101072421373 0.0000048290369610 26.7739479807133662 Os
atom 5.5027338102205068 7.3825436200333998 25.6734174424579500 Os
atom 2.2011587889843613 7.3825458910297685 24.5728873223602307 Os
atom 17.6084845222912811 0.0000040480409055 27.8744784362074434 Os
atom 0.9957678798544392 8.1246442025781125 26.0053087008904456 O
atom 13.5382141463862844 9.1012847576489513 23.5772453604880035 O
atom 4.5071030940319892 5.6638021374892356 25.3415293066058425 O
atom 2.9698534479025840 6.6404427824181003 27.7695901718369456 O
atom 5.6076522138998977 6.6404355754962143 27.5425896039118996 O
atom 1.8693046008480889 5.6638065244113500 25.5685318735741944 O
atom 10.9004163284743409 9.1012821745708283 23.8042445599343502 O
atom 3.6335635913549433 8.1246476256554256 25.7783039694252807 O
atom 3.3017074463239751 4.9217030890367210 26.7739484324071420 Os
atom 5.5027374728727816 2.4608411800333903 25.6734130910556360 Os
atom 2.2011683996385947 2.4608440010314698 24.5728925636515356 Os
atom 4.4021884891164547 4.9216871320271514 23.4723597580549210 Os
atom 0.9957699414885147 3.2029542425780186 26.0053056195837442 O
atom 13.5382136678402762 4.1795848576484005 23.5772410001675894 O
atom 4.5071042254843867 0.7421038574893435 25.3415295972963932 O
atom 2.9698580094834286 1.7187440524186608 27.7695904803942000 O
atom 5.6076512255460038 1.7187432854958478 27.5425878463771241 O
atom 1.8693086257605434 0.7421052544116516 25.5685302367559792 O
atom 10.9004198167290962 4.1795838445710451 23.8042427665945162 O
atom 3.6335692307533924 3.2029567856566423 25.7783095864002689 O
atom 7.7037639620166178 0.0000011210304720 24.5728867521342522 Os
atom 9.9047848296770287 7.3825427420267937 23.4723588166797725 Os
atom 19.8095054212457171 7.3825417390370580 26.7739487074266336 Os
atom 0.0001419462768180 0.0000012400344329 25.6734199758927488 Os
atom 5.3978206881420228 8.1246460445713939 23.8042464750311495 O
atom 9.1361664318273714 9.1012820456558199 25.7783022108074675 O
atom 0.1050551782626636 5.6638012754966223 27.5425917918177134 O
atom 7.3719036891746175 6.6404338244108763 25.5685262331670060 O
atom 10.0097040204421077 6.6404338674895529 25.3415293547434324 O
atom 19.4776508261199695 5.6637985624181955 27.7695892471376169 O
atom 6.4983672275747209 9.1012813325778446 26.0053048090858070 O
atom 8.0356151966559395 8.1246443776488064 23.5772444581606777 O
atom 7.7037619584862060 4.9216880910300498 24.5728844266285016 Os
atom 1.1006880544537463 2.4608424380404017 27.8744737337568758 Os
atom 19.8095162706426429 2.4608386690383242 26.7739478174117558 Os
atom 0.0001374786217239 4.9216978000340452 25.6734213309696884 Os
atom 5.3978245609828273 3.2029456445713853 23.8042418731876815 O
atom 9.1361664676021466 4.1795829156557174 25.7783018083240201 O
atom 0.1050583311165125 0.7421028554969342 27.5425914519242099 O
atom 7.3719107283311676 1.7187424744119635 25.5685286346673664 O
atom 10.0097057690253468 1.7187408574893894 25.3415260051108646 O
atom 19.4776540371239975 0.7421036324187118 27.7695909241767183 O
atom 6.4983693965611851 4.1795821325780667 26.0053048493302157 O
atom 8.0356213726741927 3.2029469076495269 23.5772442166347886 O
atom 14.3069128551709834 0.0000039190379194 26.7739504403531363 Os
atom 16.5079345814918170 7.3825427500345047 25.6734240656688968 Os
atom 13.2063589341189029 7.3825445910302152 24.5728880199950730 Os
atom 6.6032870336005232 0.0000048780407295 27.8744769469876275 Os
atom 12.0009662316617263 8.1246458625783209 26.0053093448708132 O
atom 2.5330201549206031 9.1012826076494520 23.5772461252026879 O
atom 15.5123010030976616 5.6637999774893757 25.3415298477302784 O
atom 13.9750500779467348 6.6404340224182032 27.7695920456666983 O
atom 16.6128504271012254 6.6404345454968592 27.5425949346918948 O
atom 12.8745061770623526 5.6638002444119184 25.5685318780193214 O
atom 21.9056184905573943 9.1012839145717752 23.8042477038144042 O
atom 14.6387636381319517 8.1246448556563031 25.7783092554723865 O
atom 14.3069081460167222 4.9216876290374154 26.7739509323106191 Os
atom 16.5079376717039779 2.4608423300343221 25.6734187035673145 Os
atom 13.2063617068476091 2.4608440110305732 24.5728886416134387 Os
atom 6.6032843547853979 4.9216905280403340 27.8744758200187519 Os
atom 12.0009689909553430 3.2029482625783983 26.0053070998498299 O
atom 2.5330185986348432 4.1795838876494473 23.5772488442802555 O
atom 15.5123047820553825 0.7421048674898493 25.3415303351776160 O
atom 13.9750598808881019 1.7187411824197214 27.7695951671634589 O
atom 16.6128535531045003 1.7187437854969139 27.5425919696540120 O
atom 12.8745078809543916 0.7421057544122039 25.5685332241299363 O
atom 21.9056190182977275 4.1795831545722049 23.8042520641527631 O
atom 14.6387662140737760 3.2029462456564435 25.7783078959355869 O
atom 18.7089667099445940 0.0000025410314221 24.5728891223310697 Os
atom 20.9099836510755885 7.3825474620273281 23.4723621886597797 Os
atom 8.8043056338459529 7.3825442690361092 26.7739423748980805 Os
atom 11.0053382408679656 0.0000023500338574 25.6734153427658711 Os
atom 16.4030212447266202 8.1246455845721002 23.8042493148164098 O
atom 20.1413646495064960 9.1012807256565473 25.7783084225982471 O
atom 11.1102544200017874 5.6638022354965907 27.5425887820574005 O
atom 18.3771035302268899 6.6404343544116369 25.5685305711222810 O
atom 21.0149020592111349 6.6404388674898982 25.3415318323012144 O
atom 8.4724551084216362 5.6638026724186643 27.7695919930189348 O
atom 17.5035683118681789 9.1012814325785758 26.0053071614048292 O
atom 19.0408114733699918 8.1246456676484051 23.5772416228325454 O
atom 18.7089633200588672 4.9216906910309248 24.5728878925073673 Os
atom 12.1058907934478341 2.4608410080415037 27.8744776736737521 Os
atom 8.8043152623933914 2.4608432890378835 26.7739483675080265 Os
atom 11.0053368768682116 4.9216888000337482 25.6734153919602868 Os
atom 16.4030218439748268 3.2029491445718414 23.8042465063199629 O
atom 20.1413662102721176 4.1795827256565374 25.7783068662938817 O
atom 11.1102563877409288 0.7421034854967675 27.5425886434176093 O
atom 18.3771086642543686 1.7187404844124829 25.5685330531334856 O
atom 21.0149096215731461 1.7187412374905167 25.3415287062388046 O
atom 8.4724596297563117 0.7421050524192657 27.7695928024555627 O
atom 17.5035688753565175 4.1795839525785716 26.0053070317181501 O
atom 19.0408211958221791 3.2029471676500445 23.5772460814990197 O
atom 18.7090266771392137 7.3825444760470260 30.0755383790517890 Os
atom 15.4074516559030741 7.3825467470433939 28.9750082589540696 Os
atom 4.7341125189333706 9.1012856136625775 27.9793662970818460 O
atom 17.7133959609507023 5.6638029935028609 29.7436502431996814 O
atom 15.0755974677668014 5.6638073804249744 29.9706528101680334 O
atom 2.0963147010214271 9.1012830305844528 28.2063654965281927 O
atom 16.8398564582736618 8.1246484816690501 30.1804249060191196 O
atom 18.7090303397914930 2.4608420360470160 30.0755340276494749 Os
atom 15.4074612665573092 2.4608448570450956 28.9750135002453746 Os
atom 17.6084813560351634 4.9216879880407758 27.8744806946487671 Os
atom 4.7341120403873616 4.1795857136620249 27.9793619367614284 O
atom 17.7133970924030990 0.7421047135029690 29.7436505338902357 O
atom 15.0756014926792563 0.7421061104252773 29.9706511733498218 O
atom 2.0963181892761846 4.1795847005846705 28.2063637031883587 O
atom 16.8398620976721105 3.2029576416702676 30.1804305229941079 O
atom 20.9100568289353248 0.0000019770440968 28.9750076887280912 Os
atom 1.1006832022241149 7.3825435980404173 27.8744797532736115 Os
atom 13.2064348131955285 0.0000020960480577 30.0755409124865913 Os
atom 18.6041135550607386 8.1246469005850184 28.2063674116249921 O
atom 0.3320648043744543 9.1012829016694443 30.1804231474013136 O
atom 20.5781965560933280 6.6404346804245025 29.9706471697608485 O
atom 1.2056023929891957 6.6404347235031782 29.7436502913372749 O
atom 21.2419080635746553 8.1246452336624326 27.9793653947545167 O
atom 20.9100548254049201 4.9216889470436742 28.9750053632223441 Os
atom 13.2064303455404382 4.9216986560476705 30.0755422675635273 Os
atom 18.6041174279015387 3.2029465005850111 28.2063628097815240 O
atom 0.3320648401492375 4.1795837716693427 30.1804227449178626 O
atom 20.5782035952498816 1.7187433304255892 29.9706495712612089 O
atom 1.2056041415724350 1.7187417135030154 29.7436469417047036 O
atom 21.2419142395929086 3.2029477636631527 27.9793651532286276 O
atom 7.7038329540389014 7.3825436060481291 30.0755450022627429 Os
atom 4.4022573066659891 7.3825454470438396 28.9750089565889155 Os
atom 15.7393130218393171 9.1012834636630764 27.9793670617965304 O
atom 6.7081993756447460 5.6638008335029992 29.7436507843241174 O
atom 4.0704045496094361 5.6638011004255420 29.9706528146131674 O
atom 13.1015168631044823 9.1012847705853996 28.2063686404082432 O
atom 5.8346620106790379 8.1246457116699276 30.1804301920662255 O
atom 7.7038360442510632 2.4608431860479478 30.0755396401611570 Os
atom 4.4022600793946935 2.4608448670441989 28.9750095782072776 Os
atom 15.7393114655535573 4.1795847436630726 27.9793697808741015 O
atom 6.7082031546024687 0.7421057235034748 29.7436512717714550 O
atom 4.0704062535014778 0.7421066104258295 29.9706541607237789 O
atom 13.1015173908448137 4.1795840105858293 28.2063730007466091 O
atom 5.8346645866208657 3.2029471016700688 30.1804288325294259 O
atom 9.9048650824916784 0.0000033970450477 28.9750100589249158 Os
atom 12.1058820236226765 7.3825483180409526 27.8744831252536223 Os
atom 2.2012366134150536 0.0000032060474830 30.0755362793597101 Os
atom 7.5989196172737028 8.1246464405857246 28.2063702514102523 O
atom 11.3372630220535786 9.1012815816701735 30.1804293591920896 O
atom 9.5730019027739761 6.6404352104252613 29.9706515077161200 O
atom 12.2108004317582193 6.6404397235035235 29.7436527688950534 O
atom 10.2367098459170798 8.1246465236620296 27.9793625594263915 O
atom 9.9048616926059516 4.9216915470445501 28.9750088291012062 Os
atom 2.2012352494152974 4.9216896560473735 30.0755363285541293 Os
atom 7.5989202165219112 3.2029500005854676 28.2063674429138018 O
atom 11.3372645828192091 4.1795835816701619 30.1804278028877242 O
atom 9.5730070368014548 1.7187413404261085 29.9706539897273245 O
atom 12.2108079941202359 1.7187420935041422 29.7436496428326436 O
atom 10.2367195683692636 3.2029480236636703 27.9793670180928622 O
