#===============================================================================
# Created using the Atomic Simulation Environment (ASE)

# Mon Mar 23 14:01:10 2026

#=======================================================
lattice_vector 11.0790232517419795 0.0000000000000000 0.0000000000000000 
lattice_vector 3.7278993459126002 10.4330108955597858 0.0000000000000000 
lattice_vector 0.0000000000000000 0.0000000000000000 43.5846851892308536 
atom 11.0789966743626191 7.8062985372621165 16.1320689727488045 Os
atom 0.9057921451771295 0.6382142465592789 15.0000184076454897 Os
atom 5.7670952270446989 9.4626431836064242 15.0000000000000000 O
atom 10.8513903223210946 2.2467999490285897 15.0000012238411458 O
atom 14.0763745715629902 9.9182461924941610 15.2643067804313954 O
atom 12.2123836182016756 4.7017977220348213 15.2643072873381644 O
atom 9.2150462760055429 2.5897977554151344 16.1320707344280585 Os
atom 2.7697214083671065 5.8547506614171487 15.0000231376106150 Os
atom 3.9031535529971948 4.2461564723835226 15.0000192775709085 O
atom 12.7153495722102630 7.4633257815503535 15.0000237784727268 O
atom 8.5368828370901184 9.9182124338356239 15.2643033254162290 O
atom 5.5394822064552365 7.8063054962015048 16.1320703787597388 Os
atom 6.4453073122647968 0.6381962065029279 15.0000128666504260 Os
atom 11.3066038750570712 9.4626332225144942 15.0000123989628857 O
atom 5.3118811863562883 2.2467942211366596 15.0000034353330047 O
atom 8.3092359430837863 5.8547373312138058 15.0000118886919722 Os
atom 9.4426610319997533 4.2461524432870066 15.0000289039273547 O
atom 7.1758406481638861 7.4633241992967143 15.0000249217540524 O
atom 6.6728972634297827 4.7017691725392661 15.2643085438130441 O
atom 7.3510678575034731 5.1795911639853713 20.6602877345166362 Os
atom 11.9847859259725613 8.4445177688423190 19.5282371694133232 Os
atom 12.2124157967710207 8.6048925136150682 17.5284196754997339 O
atom 13.1181896619275271 6.8359358103296790 19.5282187617678318 O
atom 10.8513608513745474 10.0531034713116298 19.5282199856089775 O
atom 13.6211251249726590 9.5974829718325942 19.2639404478831935 O
atom 9.2150274424063152 6.4929517455054615 18.3961787440440041 Os
atom 13.8487514322735681 9.7578714245904781 17.2641286389699431 Os
atom 10.3484457547038442 7.2915388192174140 19.7925255421992290 O
atom 3.9031223941471320 8.1492824798137420 17.2641217568771879 O
atom 8.9874207424125228 0.9334427569547028 17.2641168670211123 O
atom 0.6781730761460816 0.4778228061181803 16.9998337328776046 O
atom 7.3510774135635115 1.2764504801157939 18.3961810403686350 Os
atom 11.9847817543852457 4.5413994608454153 17.2641294284988760 Os
atom 8.4844548013425314 2.0750903487580747 19.7925260491059980 O
atom 2.0391786523386357 2.9327976332570413 17.2641404705470265 O
atom 10.8513817194443920 6.1499702302769492 17.2641363738252949 O
atom 2.5420817326671630 5.6943954166673683 16.9998411743971189 O
atom 9.2150168050589958 10.3961012776981736 20.6602894961958938 Os
atom 10.1208158432499413 3.2280432881404026 19.5282418993784468 Os
atom 10.3484265311783528 3.3884382863751292 17.5284167139321809 O
atom 11.2542479878800314 1.6194490991067765 19.5282380393387385 O
atom 8.9874207553511134 4.8366184082736083 19.5282425402405586 O
atom 11.7571369842052018 4.3810386542973649 19.2639428834001158 O
atom 3.6755181382324720 6.4929482605539324 18.3961787829051815 Os
atom 8.3092445625658211 9.7578531852827091 17.2641212292845019 Os
atom 4.8089540202309680 7.2915050605588787 19.7925220871840608 O
atom 9.4426469811089344 8.1492839742430210 17.2641127932015479 O
atom 3.4479143246360477 0.9334362973921990 17.2641179682380681 O
atom 6.2177016019699023 0.4778002261487492 16.9998345834361544 O
atom 12.8905766413380665 5.1795981229247579 20.6602891405275741 Os
atom 6.4452778413182505 8.4444997287859671 19.5282316284182578 Os
atom 6.6729172496859785 8.6048670941874938 17.5284169110947730 O
atom 7.5786750581979216 6.8359258492377482 19.5282311607307193 O
atom 5.3118517154097367 10.0530977434196984 19.5282221971008383 O
atom 8.0816393029808111 9.5974556800424367 19.2639464916143410 O
atom 3.6755319580463008 2.5897968879178332 16.1320722797384732 Os
atom 4.5813071262246430 3.2280299579370606 19.5282306504598040 Os
atom 4.8089318274676938 3.3884130145899864 17.5284189165761539 O
atom 5.7147322151406073 1.6194450700102605 19.5282476656951864 O
atom 3.4479118313047388 4.8366168260199691 19.5282436835218860 O
atom 6.2176446400329830 4.3810060836022409 19.2639415457204493 O
atom 1.8115689171721714 1.2764429279056499 18.3961795410507634 Os
atom 6.4452682968037216 4.5413819167802387 17.2641232715931139 Os
atom 2.9449684465706358 2.0750617992625200 19.7925273055808759 O
atom 7.5787011357418628 2.9328014947828778 17.2641323687270472 O
atom 5.3118730471697617 6.1499691368244500 17.2641383485417883 O
atom 8.0816040326529155 5.6943675935942748 16.9998317717510758 O
atom 3.6231390406443258 2.5528837907086235 25.1885064962844716 Os
atom 8.2568571091134118 5.8178103955655729 24.0564559311811550 Os
atom 8.4844869799118712 5.9781851403383239 22.0566384372675657 O
atom 9.3902608450683829 4.2092284370529329 24.0564375235356636 O
atom 7.1234320345153970 7.4263960980348855 24.0564387473768093 O
atom 9.8931963081135113 6.9707755985558482 23.7921592096510253 O
atom 5.4870986255471692 3.8662443722287159 22.9243975058118359 Os
atom 10.1208226154144203 7.1311640513137329 21.7923474007377749 Os
atom 6.6205169378446920 4.6648314459406679 24.3207443039670608 O
atom 11.2542168290299642 5.5225751065369968 21.7923405186450196 O
atom 8.9873912714659721 8.7397462792377425 21.7923356287889476 O
atom 11.7571668569415113 8.2841263284012197 21.5280524946454364 O
atom 7.3510479426169599 9.0827540023988327 22.9243998021364632 Os
atom 8.2568529375260962 1.9146920875686690 21.7923481902667078 Os
atom 8.4844253303959807 9.8813938710411140 24.3207448108738298 O
atom 9.3902730872214715 0.3060902599802945 21.7923592323148583 O
atom 7.1234529025852495 3.5232628570002009 21.7923551355931302 O
atom 9.8931761675499921 3.0676880433906213 21.5280599361649507 O
atom 5.4870879881998489 7.7693939044214275 25.1885082579637256 Os
atom 6.3928870263907944 0.6013359148636562 24.0564606611462821 Os
atom 6.6204977143192085 0.7617309130983819 22.0566354757000163 O
atom 11.2542185169334843 9.4257526213898153 24.0564568011065703 O
atom 5.2594919384919621 2.2099110349968623 24.0564613020083868 O
atom 8.0292081673460540 1.7543312810206177 23.7921616451679512 O
atom 11.0266125731153100 3.8662408872771854 22.9243975446730168 Os
atom 4.5813157457066715 7.1311458120059630 21.7923399910523337 Os
atom 12.1600484551138042 4.6647976872821317 24.3207408489518926 O
atom 5.7147181642497893 5.5225766009662740 21.7923315549693797 O
atom 3.4478848536894984 8.7397398196752381 21.7923367300058999 O
atom 6.2176721310233507 8.2841037484317894 21.5280533452039862 O
atom 9.1626478244789222 2.5528907496480127 25.1885079022954024 Os
atom 2.7173490244591059 5.8177923555092219 24.0564503901860895 Os
atom 2.9449884328268299 5.9781597209107495 22.0566356728626047 O
atom 3.8507462413387752 4.2092184759610021 24.0564499224985511 O
atom 12.6629461502925693 7.4263903701429514 24.0564409588686701 O
atom 4.3537104861216669 6.9707483067656923 23.7921652533821728 O
atom 14.7545257388417301 10.3961004102008712 20.6602910415063050 Os
atom 0.8533783093654915 0.6013225846603152 24.0564494122276393 Os
atom 1.0810030106085446 0.7617056413132404 22.0566376783439893 O
atom 5.7147027441940601 9.4257485922932993 24.0564664274630182 O
atom 10.7990062661875665 2.2099094527432217 24.0564624452897178 O
atom 2.4897158231738366 1.7542987103254950 23.7921603074882846 O
atom 12.8905626979675976 9.0827464501886901 22.9243983028185951 Os
atom 2.7173394799445725 1.9146745435034924 21.7923420333609457 Os
atom 14.0239622273660682 9.8813653215455588 24.3207460673487077 O
atom 3.8507723188827141 0.3060941215061326 21.7923511304948789 O
atom 1.5839442303106142 3.5232617635477017 21.7923571103096201 O
atom 4.3536752157937624 3.0676602203175278 21.5280505335189076 O
atom 4.5289282922542631 3.1911030222888259 28.5846746929489868 Os
atom 4.7565581630527145 3.3514777670615787 26.5848571990353975 O
atom 5.6623320282092360 1.5825210637761866 28.5846562853034953 O
atom 3.3955032176562474 4.7996887247581341 28.5846575091446482 O
atom 6.1652674912543644 4.3440682252791003 28.3203779714188641 O
atom 1.7591698086880263 1.2395369989519684 27.4526162675796712 Os
atom 6.3928937985552734 4.5044566780369841 26.3205661625056067 Os
atom 7.5262880121708173 2.8958677332602498 26.3205592804128514 O
atom 5.2594624546068305 6.1130389059609973 26.3205543905567758 O
atom 8.0292380400823617 5.6574189551244736 26.0562712564132752 O
atom 3.6231191257578175 6.4560466291220866 27.4526185639042950 Os
atom 8.2568234665795490 9.7209956098517072 26.3205669520345467 Os
atom 9.3902436162749225 8.1123937822633359 26.3205779940826901 O
atom 3.3955240857261031 0.8965554837234557 26.3205738973609584 O
atom 6.1652473506908461 0.4409806701138758 26.0562786979327825 O
atom 6.3928575554442428 8.4076394371466971 28.5846794229141139 Os
atom 6.6204682433726614 8.5680344353814224 26.5848542374678480 O
atom 7.5262897000743285 6.7990452481130701 28.5846755628744091 O
atom 5.2594624675454256 10.0162145572799020 28.5846800637762257 O
atom 8.0291786963995087 9.5606348033036586 28.3203804069357830 O
atom 7.2986837562561568 1.2395335140004391 27.4526163064408522 Os
atom 11.9324101805895051 4.5044384387292160 26.3205587528201690 Os
atom 1.9867893473906468 2.8958692276895257 26.3205503167372115 O
atom 10.7989792885723350 6.1130324463984920 26.3205554917737317 O
atom 2.4897433141642087 5.6573963751550416 26.0562721069718215 O
atom 10.0684434593419372 3.1910849822324754 28.5846691519539249 Os
atom 10.2960828677096661 3.3514523476339999 26.5848544346304401 O
atom 11.2018406762216127 1.5825111026842547 28.5846686842663829 O
atom 8.9350173334334180 4.7996829968662089 28.5846597206365018 O
atom 11.7048049210044987 4.3440409334889445 28.3203840151500046 O
atom 11.0265969219825859 7.7693930369241260 25.1885098032741368 Os
atom 11.9323720901609196 8.4076261069433542 28.5846681739954747 Os
atom 12.1599967914039819 8.5680091635962796 26.5848564401118246 O
atom 13.0657971790768883 6.7990412190165532 28.5846851892308536 O
atom 10.7989767952410194 10.0162129750262601 28.5846812070575567 O
atom 13.5687096039692747 9.5606022326085363 28.3203790692561128 O
atom 9.1626338811084516 6.4560390769119431 27.4526170645864305 Os
atom 13.7963332607400098 9.7209780657865306 26.3205607951287774 Os
atom 3.8507428479361718 8.1123976437891709 26.3205698922627178 O
atom 8.9350386651934421 0.8965543902709572 26.3205758720774554 O
atom 0.6257463989346256 0.4409528470407817 26.0562692952867465 O
