#===============================================================================
# Created using the Atomic Simulation Environment (ASE)

# Mon Mar 23 14:01:11 2026

#=======================================================
lattice_vector 9.0245853000181313 0.0000000000000000 0.0000000000000000 
lattice_vector 0.0000000000000000 6.4266484300000002 0.0000000000000000 
lattice_vector 0.0000000000000000 0.0000000000000000 52.0347635523153613 
atom 2.2560953775112331 1.6066622699999999 15.8647586982458506 Os
atom 1.3913815308264048 6.4266479600000004 15.0000563049042412 O
atom 0.8646524083900342 1.6066532899999999 17.2561703590674824 O
atom 3.1207949141852969 0.0000003000000000 16.7294664615587649 O
atom 9.0245138700668619 3.2133235400000006 22.6331767057183910 Os
atom 2.2560957775085666 4.8199864600000000 15.8647600282466499 Os
atom 1.3913797608391336 3.2133245399999999 15.0000499549006960 O
atom 0.8646525483872478 4.8199939800000005 17.2561717490677609 O
atom 3.1207936941708647 3.2133240400000003 16.7294736615563231 O
atom 4.5122259900585080 6.4266478700000009 22.6331763507279504 Os
atom 6.7684177875690406 1.6066607200000003 15.8647343833055032 Os
atom 5.9037219509483343 0.0000013400000000 15.0000000000000000 O
atom 5.3769724083798280 1.6066710900000003 17.2561799741223041 O
atom 7.6331481742786043 0.0000014100000000 16.7294244366802616 O
atom 6.7684171875669339 4.8199889999999996 15.8647354333043005 Os
atom 5.9037170009329785 3.2133236900000002 15.0000076599900751 O
atom 5.3769709383775810 4.8199787900000004 17.2561810941193592 O
atom 7.6331416642903909 3.2133235600000001 16.7294185566672127 O
atom 9.0245289650502443 6.4266478600000001 18.1208923457395841 Os
atom 2.2560581925083674 1.6066617200000000 20.3770527781803708 Os
atom 1.3913307358011879 0.0000001500000000 19.5123615348114861 O
atom 0.8646312533867266 1.6066553200000000 21.7684646590341409 O
atom 3.6475007117027309 1.6066662599999999 18.9856046173578399 O
atom 3.1207564991399956 6.4266482800000002 21.2417817114908303 O
atom 9.0245325250518871 3.2133230799999999 18.1208915257467176 Os
atom 2.2560589025112532 4.8199879000000001 20.3770513381818006 Os
atom 1.3913400658037538 3.2133246000000000 19.5123602548301882 O
atom 0.8646319233873682 4.8199920399999998 21.7684643390354857 O
atom 3.6475017917063792 4.8199836899999999 18.9856027973600021 O
atom 3.1207562491319165 3.2133249599999996 21.2417857414903288 O
atom 4.5122380950400043 0.0000018300000000 18.1208929307431497 Os
atom 6.7683819225764754 1.6066606200000000 20.3770233232426747 Os
atom 5.9036781558991427 0.0000015400000000 19.5123171899212764 O
atom 5.3769541933830736 1.6066654100000000 21.7684710040948595 O
atom 8.1598264416921609 1.6066589100000002 18.9856144124241482 O
atom 7.6330947292520026 0.0000005300000000 21.2417303565821953 O
atom 4.5122367950397457 3.2133238700000000 18.1208930607405421 Os
atom 6.7683814325787424 4.8199888299999998 20.3770221932416931 Os
atom 5.9036797958999063 3.2133234499999999 19.5123168099245632 O
atom 5.3769535933832522 4.8199817200000012 21.7684709140936548 O
atom 8.1598272816925039 4.8199883899999998 18.9856142424258323 O
atom 7.6331012992651539 3.2133241799999999 21.2417237965953660 O
atom 9.0245077100553530 6.4266474999999996 22.6331824457060407 Os
atom 2.2560591975327422 1.6066622699999999 24.8893332681914536 Os
atom 1.3913453508479134 6.4266479600000004 24.0246308748498514 O
atom 0.8646162284115427 1.6066532899999999 26.2807449290130890 O
atom 3.6474875467267660 1.6066570200000003 23.4978852773405151 O
atom 3.1207587342068059 0.0000003000000000 25.7540410315043786 O
atom 9.0244776900883696 3.2133235400000006 31.6577512756639905 Os
atom 2.2560595975300757 4.8199864600000000 24.8893345981922600 Os
atom 1.3913435808606425 3.2133245399999999 24.0246245248463026 O
atom 0.8646163684087563 4.8199939800000005 26.2807463190133674 O
atom 3.6474876567268653 4.8199900800000002 23.4978852273407348 O
atom 3.1207575141923729 3.2133240400000003 25.7540482315019261 O
atom 4.5121898100800157 6.4266478700000009 31.6577509206735570 Os
atom 6.7683816075905501 1.6066607200000003 24.8893089532511098 Os
atom 5.9036857709698438 0.0000013400000000 24.0245745699456101 O
atom 5.3769362284013358 1.6066710900000003 26.2807545440679107 O
atom 8.1598091467107050 1.6066640500000000 23.4978978123985449 O
atom 7.6331119943001111 0.0000014100000000 25.7539990066258682 O
atom 4.5122199800484237 3.2133230400000006 22.6331813807159037 Os
atom 6.7683810075884425 4.8199889999999996 24.8893100032499071 Os
atom 5.9036808209544871 3.2133236900000002 24.0245822299356853 O
atom 5.3769347583990887 4.8199787900000004 26.2807556640649622 O
atom 8.1598091467093994 4.8199832400000000 23.4978984623985490 O
atom 7.6331054843118986 3.2133235600000001 25.7539931266128193 O
atom 9.0244927850717520 6.4266478600000001 27.1454669156851907 Os
atom 2.2560220125298764 1.6066617200000000 29.4016273481259773 Os
atom 1.3912945558226968 0.0000001500000000 28.5369361047570962 O
atom 0.8645950734082352 1.6066553200000000 30.7930392289797439 O
atom 3.6474645317242396 1.6066662599999999 28.0101791873034429 O
atom 3.1207203191615043 6.4266482800000002 30.2663562814364369 O
atom 9.0244963450733966 3.2133230799999999 27.1454660956923277 Os
atom 2.2560227225327618 4.8199879000000001 29.4016259081274001 Os
atom 1.3913038858252624 3.2133246000000000 28.5369348247757912 O
atom 0.8645957434088768 4.8199920399999998 30.7930389089810959 O
atom 3.6474656117278879 4.8199836899999999 28.0101773673056087 O
atom 3.1207200691534256 3.2133249599999996 30.2663603114359319 O
atom 4.5122019150615129 0.0000018300000000 27.1454675006887598 Os
atom 6.7683457425979840 1.6066606200000000 29.4015978931882813 Os
atom 5.9036419759206504 0.0000015400000000 28.5368917598668830 O
atom 5.3769180134045831 1.6066654100000000 30.7930455740404696 O
atom 8.1597902617136686 1.6066589100000002 28.0101889823697547 O
atom 7.6330585492735104 0.0000005300000000 30.2663049265278019 O
atom 4.5122006150612535 3.2133238700000000 27.1454676306861487 Os
atom 6.7683452526002501 4.8199888299999998 29.4015967631872996 Os
atom 5.9036436159214141 3.2133234499999999 28.5368913798701698 O
atom 5.3769174134047608 4.8199817200000012 30.7930454840392613 O
atom 8.1597911017140117 4.8199883899999998 28.0101888123714460 O
atom 7.6330651192866616 3.2133241799999999 30.2662983665409726 O
atom 9.0244715300768625 6.4266474999999996 31.6577570156516472 Os
atom 2.2560230175542504 1.6066622699999999 33.9139078381370567 Os
atom 1.3913091708694223 6.4266479600000004 33.0492054447954544 O
atom 0.8645800484330514 1.6066532899999999 35.3053194989586956 O
atom 3.6474513667482742 1.6066570200000003 32.5224598472861217 O
atom 3.1207225542283146 0.0000003000000000 34.7786156014499781 O
atom 2.2560234175515839 4.8199864600000000 33.9139091681378630 Os
atom 1.3913074008821509 3.2133245399999999 33.0491990947919092 O
atom 0.8645801884302650 4.8199939800000005 35.3053208889589669 O
atom 3.6474514767483739 4.8199900800000002 32.5224597972863378 O
atom 3.1207213342138815 3.2133240400000003 34.7786228014475327 O
atom 6.7683454276120578 1.6066607200000003 33.9138835231967164 Os
atom 5.9036495909913524 0.0000013400000000 33.0491491398912203 O
atom 5.3769000484228462 1.6066710900000003 35.3053291140135173 O
atom 8.1597729667322128 1.6066640500000000 32.5224723823441551 O
atom 7.6330758143216215 0.0000014100000000 34.7785735765714819 O
atom 4.5121838000699324 3.2133230400000006 31.6577559506615103 Os
atom 6.7683448276099529 4.8199889999999996 33.9138845731955101 Os
atom 5.9036446409759966 3.2133236900000002 33.0491567998812954 O
atom 5.3768985784205992 4.8199787900000004 35.3053302340105759 O
atom 8.1597729667309089 4.8199832400000000 32.5224730323441520 O
atom 7.6330693043334090 3.2133235600000001 34.7785676965584258 O
atom 9.0244566050932615 6.4266478600000001 36.1700414856307972 Os
atom 3.6474283517457486 1.6066662599999999 37.0347537572490566 O
atom 9.0244601650949061 3.2133230799999999 36.1700406656379272 Os
atom 3.6474294317493969 4.8199836899999999 37.0347519372512153 O
atom 4.5121657350830215 0.0000018300000000 36.1700420706343593 Os
atom 8.1597540817351781 1.6066589100000002 37.0347635523153613 O
atom 4.5121644350827630 3.2133238700000000 36.1700422006317623 Os
atom 8.1597549217355212 4.8199883899999998 37.0347633823170455 O
