#===============================================================================
# Created using the Atomic Simulation Environment (ASE)

# Mon Mar 23 14:01:11 2026

#=======================================================
lattice_vector 11.0790232517419795 0.0000000000000000 0.0000000000000000 
lattice_vector -0.0000294709465473 9.0245852999700116 0.0000000000000000 
lattice_vector 0.0000000000000000 0.0000000000000000 34.2317708264228742 
atom 1.5315631086942254 3.6475288382415529 15.0000243279575542 O
atom 4.3013386941697638 3.1208077407634440 15.0000323558798172 O
atom 10.9742430315871964 4.5122618278877429 15.8071553255922126 Os
atom 2.6649582095316457 6.7684258903675651 15.8071521678292655 Os
atom 1.5315631216328172 8.1598503282481900 15.0000264336461946 O
atom 4.3012793504869107 7.6331557107132362 15.0000000000000000 O
atom 7.0710799426597299 3.6475238032451802 15.0000285216955156 O
atom 9.8408672199935818 3.1207886357770098 15.0000444214491182 O
atom 5.4347190076197736 9.0245502728754516 15.8071562841939155 Os
atom 8.2044727442483154 6.7684087153758510 15.8071491260943304 Os
atom 7.0710774493284161 8.1598495332505294 15.0000282165083618 O
atom 9.8408102580566652 7.6331268657270606 15.0000151857281665 O
atom 10.9742334755271607 9.0245435478774443 15.8071585597391220 Os
atom 0.8010289463416671 2.2560979933865379 18.4246221519336402 Os
atom 1.0286588171401210 1.3913848900517833 16.6143013746554935 O
atom 1.9344326822966358 0.8646587255339129 19.2317359490335029 O
atom 10.7466271234856308 3.6475226412423036 17.6174756894973470 O
atom 2.4373681453417642 3.1208028737417872 17.6174871036252441 O
atom 9.1102642435708585 9.0245436208571643 18.4246139751935871 Os
atom 2.6649944526426750 2.2561044804034940 15.8071643657121577 Os
atom 10.2437120268149311 1.3913770330300776 19.2317568761204818 O
atom 3.7983886662582140 0.8646649525196521 16.6142916379237278 O
atom 0.8009953038078025 6.7684204033585420 18.4246067849053503 Os
atom 1.0285971676242336 5.9037253099964504 16.6142701880304102 O
atom 1.9344154535031766 5.3769787254915027 19.2317560257134801 O
atom 10.7466185206089300 8.1598442412222081 17.6174886871386498 O
atom 2.4373185338316987 7.6331561336971419 17.6174636302706205 O
atom 9.1102830771700862 4.5122497308761709 18.4246162797539732 Os
atom 10.2436633323428961 5.9037142729889673 19.2317316495817359 O
atom 3.7983903541617345 5.3769833425395586 16.6142846855124198 O
atom 3.5707549393970157 9.0245406258588829 18.4246157574344842 Os
atom 8.2045108346769027 2.2560849854080716 15.8071671081453324 Os
atom 4.7042202923420531 1.3913460980463352 19.2317708264228742 O
atom 9.3379132532200213 0.8646617475507028 16.6142831344553876 O
atom 6.3405441134293383 2.2560796083873678 18.4246264108143585 Os
atom 6.5681835217970646 1.3913615150610881 16.6143117380064531 O
atom 7.4739413303090085 0.8646563305107678 19.2317516723123312 O
atom 5.2071179875208271 3.6475187962408033 17.6174804765011714 O
atom 7.9769055750919060 3.1207822987619194 17.6175060255358140 O
atom 3.5707687592108339 4.5122497558697132 18.4246180517334217 Os
atom 4.7041686286322344 5.9036935179996366 19.2317462353687532 O
atom 9.3378978331642930 5.3769846875207543 16.6142950340090607 O
atom 5.4347345351958571 4.5122545428899556 15.8071578181088839 Os
atom 6.3405050979682587 6.7684021383515063 18.4246102621498835 Os
atom 6.5681340645943189 5.9037012450197919 16.6142856000167853 O
atom 7.4739379369063990 5.3769780005196335 19.2317470800282315 O
atom 5.2071098483342961 8.1598442862244074 17.6174909439324772 O
atom 7.9768408338174517 7.6331273487077951 17.6174694575802349 O
