#===============================================================================
# Created using the Atomic Simulation Environment (ASE)

# Mon Mar 23 14:01:07 2026

#=======================================================
lattice_vector 13.9206623415420374 0.0000000000000000 0.0000000000000000 
lattice_vector -0.0000018384659456 9.8433818399999584 0.0000000000000000 
lattice_vector 0.0000000000000000 0.0000000000000000 48.7820142048579584 
atom 6.9604424128056630 0.0000033400167207 17.4306743733780287 Os
atom 0.0000768698222407 6.6404414452385296 15.0000007424866055 O
atom 13.2301493257593723 9.1012817930215206 15.6906002980763688 O
atom 0.0000809922437476 1.7187427152387500 15.0000000000000000 O
atom 13.2301517652535132 4.1795834630213617 15.6905979009732590 O
atom 10.4406068243890040 0.0000010550165287 17.4306737299205174 Os
atom 12.1806587589742783 7.3825424250125469 15.6905939709500934 Os
atom 8.7004938099765141 7.3825407800124632 15.6905929032140037 Os
atom 11.1311707872458143 5.6638001670033873 15.6905844406098112 O
atom 12.8712801855376533 6.6404336520072462 17.4306654444312983 O
atom 8.7005196436217531 5.6637976902426344 16.7400822335537818 O
atom 10.4405776418724923 8.1246442247859765 16.3811832679050724 O
atom 10.4406044909270594 4.9216880250161079 17.4306717500333299 Os
atom 12.1806611560068898 2.4608412650117906 15.6905871332171145 Os
atom 8.7005035185170936 2.4608377100127883 15.6905890352714934 Os
atom 11.1311733681731528 0.7421017470034399 15.6905835284298192 O
atom 12.8712804824903682 1.7187406420067632 17.4306621210346648 O
atom 8.7005229175285113 0.7421027602430050 16.7400832164139750 O
atom 10.4405831219306737 3.2029467547861845 16.3811814930315798 O
atom 5.2203322480647643 7.3825420050134474 15.6905974569494475 Os
atom 1.7401625189955179 7.3825440600124264 15.6905927122956932 Os
atom 4.1708370284585357 5.6637992970030542 15.6905837476659045 O
atom 5.9109506057955832 6.6404339020080423 17.4306703022421736 O
atom 1.7401911457330967 5.6637998002432006 16.7400846094109852 O
atom 3.4802497450335381 8.1246442747867444 16.3811867397732698 O
atom 5.2203331813956826 2.4608415850127137 15.6905918000963567 Os
atom 1.7401650433627416 2.4608434800126133 15.6905928324923458 Os
atom 4.1708404649894453 0.7421041870032654 15.6905834223772800 O
atom 5.9109523311032195 1.7187431420076853 17.4306669081231789 O
atom 1.7401928852194013 0.7421053102434498 16.7400857549179065 O
atom 3.4802514562132969 3.2029456647866126 16.3811850427117101 O
atom 0.0001105561209603 0.0000020700163175 17.4306718348703207 Os
atom 6.9604102326264936 6.6404334452387594 15.0000009263179699 O
atom 6.2698240946875652 9.1012806230221077 15.6906005667297705 O
atom 0.0001095803204246 4.9216885200163007 17.4306719055820487 Os
atom 6.9604155854283318 1.7187395752393453 15.0000020647249492 O
atom 6.2698242856020094 4.1795831430220787 15.6906006728024714 O
atom 6.9604940598926639 0.0000052650248748 20.9108409412301626 Os
atom 8.7005478612132769 7.3825438050206200 19.1707578164169590 Os
atom 5.2203805999898742 7.3825462900205547 19.1707584952524925 Os
atom 0.0002221729454863 0.0000052000334634 24.3910054301277626 Os
atom 4.5298205997874996 8.1246447880346899 20.9108518429933667 O
atom 8.7005787021620336 9.1012859997986979 21.6014322325335684 O
atom 7.6510572802661789 5.6638023870113097 19.1707489719909319 O
atom 6.9605189715041034 6.6404433052552720 21.9603317992363358 O
atom 9.3911690544455961 6.6404358620155381 20.9108310788800651 O
atom 5.2204080882939241 5.6638070102513707 20.2202515025338343 O
atom 6.2699290858992001 9.1012836530382621 22.6509313548261026 O
atom 6.9604664683478008 8.1246479747941596 19.8613481386786503 O
atom 6.9604919810107511 4.9217035250248591 20.9108418039086956 Os
atom 8.7005496572208525 2.4608413650200713 19.1707529373747221 Os
atom 5.2203910722551381 2.4608444000217804 19.1707608357012731 Os
atom 6.9604404258639150 4.9216872800169655 17.4306771098907163 Os
atom 4.5298212785788357 3.2029548280342635 20.9108486751567781 O
atom 8.7005765666660366 4.1795860997979544 21.6014286545987986 O
atom 7.6510581429338842 0.7421041070113670 19.1707492972614837 O
atom 6.9605230939256106 1.7187445752554926 21.9603310567497303 O
atom 9.3911672583811026 1.7187435720151762 20.9108301313788019 O
atom 5.2204110864025299 0.7421057402512623 20.2202490842134601 O
atom 6.2699315253933419 4.1795853230381041 22.6509289577229893 O
atom 6.9604732919538872 3.2029571347952599 19.8613520913584978 O
atom 3.4803865845288269 0.0000029150332707 24.3910047866702513 Os
atom 5.2204385191141007 7.3825442850292902 22.6509250276998237 Os
atom 1.7402735701163394 7.3825426400292065 22.6509239599637375 Os
atom 3.4803339758023366 0.0000018900254577 20.9108414573747190 Os
atom 8.0099320561308751 8.1246461280261340 17.4306840165105115 O
atom 12.1806906181084766 9.1012819297899039 18.1212622917984945 O
atom 4.1709505473856421 5.6638020270201288 22.6509154973595415 O
atom 10.4406274509224648 6.6404338452463323 18.4801631596058442 O
atom 5.9110599456774864 6.6404355120239886 24.3909965011810321 O
atom 1.7402994037615751 5.6637995502593768 23.7004132903035156 O
atom 9.7500407614583473 9.1012814530299355 19.1707650769058233 O
atom 3.4803574020123191 8.1246460848027198 23.3415143246548027 O
atom 3.4803842510668836 4.9216898850328512 24.3910028067830638 Os
atom 5.2204409161467140 2.4608431250285334 22.6509181899668448 Os
atom 1.7402832786569153 2.4608395700295311 22.6509200920212237 Os
atom 3.4803304685762737 4.9216984500254997 20.9108437484205609 Os
atom 8.0099339723439922 3.2029457280255560 17.4306788334111289 O
atom 12.1806902221237134 4.1795827997898023 18.1212623059522144 O
atom 4.1709531283129770 0.7421036070201825 22.6509145851795495 O
atom 10.4406345856277429 1.7187424952469950 18.4801636191757837 O
atom 5.9110602426301950 1.7187425020235061 24.3909931777843951 O
atom 1.7403026776683372 0.7421046202597478 23.7004142731637089 O
atom 9.7500425292183177 4.1795822530300049 19.1707648364838619 O
atom 3.4803628820705033 3.2029486148029278 23.3415125497813136 O
atom 3.4802790053220503 0.0000034250171422 17.4306760067773254 Os
atom 12.1807743497466276 7.3825438650301907 22.6509285136991814 Os
atom 8.7006046206773799 7.3825459200291697 22.6509237690454199 Os
atom 10.4406627636001534 0.0000051000248485 20.9108385653265501 Os
atom 1.0496008005274993 8.1246455180264689 17.4306865762378180 O
atom 5.2203609817918153 9.1012829197905951 18.1212664000765358 O
atom 11.1312791301403990 5.6638011570197966 22.6509148044156348 O
atom 3.4802979277507817 6.6404336152471668 18.4801682436905068 O
atom 12.8713927074774421 6.6404357620247856 24.3910013589919075 O
atom 8.7006332474149630 5.6638016602599430 23.7004156661607155 O
atom 2.7897136919237382 9.1012844630306091 19.1707672547616212 O
atom 10.4406918467154046 8.1246461348034877 23.3415177965230072 O
atom 3.4802749960454604 4.9216871350170388 17.4306775553667670 Os
atom 12.1807752830775424 2.4608434450294565 22.6509228568460870 Os
atom 8.7006071450446072 2.4608453400293562 22.6509238892420797 Os
atom 10.4406601685195888 4.9216907500245863 20.9108379360155681 Os
atom 1.0496024056339939 3.2029479180262070 17.4306839811513612 O
atom 5.2203600625756117 4.1795841997909084 18.1212698790575928 O
atom 11.1312825666713113 0.7421060470200082 22.6509144791270138 O
atom 3.4803079120950069 1.7187407752480681 18.4801685123191035 O
atom 12.8713944327850793 1.7187450020244281 24.3909979648729092 O
atom 8.7006349869012620 0.7421071702601926 23.7004168116676439 O
atom 2.7897152688018156 4.1795837030312768 19.1707716317486714 O
atom 10.4406935578951607 3.2029475248033554 23.3415160994614439 O
atom 0.0001715016730554 0.0000034050255219 20.9108397673645214 Os
atom 1.7402200280208067 7.3825480750215187 19.1707622004518363 Os
atom 12.1807104484294246 7.3825442400197279 19.1707532273177854 Os
atom 6.9605526578028263 0.0000039300330602 24.3910028916200545 Os
atom 11.4901571445647015 8.1246465980351044 20.9108511924120677 O
atom 1.7402522124476711 9.1012815397992899 21.6014334062941202 O
atom 0.6907304369688583 5.6638020570113818 19.1707464829406220 O
atom 0.0001899927663155 6.6404353052555010 21.9603319830676966 O
atom 2.4308404292745256 6.6404395820160413 20.9108330729004059 O
atom 12.1807430137894421 5.6638027302515059 20.2202498832299540 O
atom 13.2302661963694295 9.1012824830388510 22.6509316234795008 O
atom 0.0001345338878521 8.1246464447938607 19.8613464133443962 O
atom 0.0001681994864874 4.9216915550252116 20.9108392653380655 Os
atom 1.7402263212067761 2.4608407650210329 19.1707546626529108 Os
atom 12.1807211752586788 2.4608432600210701 19.1707562748712022 Os
atom 6.9605516820022872 4.9216903800330432 24.3910029623317826 Os
atom 11.4901565222859094 3.2029501580346542 20.9108487458356223 O
atom 1.7402528983236150 4.1795835397990810 21.6014318435909409 O
atom 0.6907319572405636 0.7421033070114103 19.1707461364545537 O
atom 0.0001953455681576 1.7187414352560881 21.9603331214746831 O
atom 2.4308463123582866 1.7187419520158631 20.9108281231142783 O
atom 12.1807472564228885 0.7421051102518011 20.2202496286459272 O
atom 13.2302663872838746 4.1795850030388211 22.6509317295522052 O
atom 0.0001448647252427 3.2029479447949658 19.8613479759763933 O
atom 0.0002738200324856 0.0000071250416175 27.8711719979798858 Os
atom 1.7403276213531094 7.3825456650373633 26.1310888731666928 Os
atom 12.1808227016717385 7.3825481500372980 26.1310895520022228 Os
atom 6.9606642746273488 0.0000070600502061 31.3513364868775000 Os
atom 11.4902627014693657 8.1246466480514332 27.8711828997431006 O
atom 1.7403584623018542 9.1012878598154394 28.5617632892832987 O
atom 0.6908370404060040 5.6638042470280530 26.1310800287406622 O
atom 0.0002987316439254 6.6404451652720144 28.9206628559860661 O
atom 2.4309488145854212 6.6404377220322797 27.8711621356298025 O
atom 12.1808501899757875 5.6638088702681131 27.1805825592835681 O
atom 13.2303711875810599 9.1012855130550054 29.6112624115758365 O
atom 0.0002462284876260 8.1246498348109011 26.8216791954283806 O
atom 0.0002717411505794 4.9217053850416024 27.8711728606584259 Os
atom 1.7403294173606811 2.4608432250368142 26.1310839941244524 Os
atom 12.1808331739369997 2.4608462600385232 26.1310918924510140 Os
atom 0.0002201860037399 4.9216891400337079 24.3910081666404466 Os
atom 11.4902633802606946 3.2029566880510068 27.8711797319065049 O
atom 1.7403563268058653 4.1795879598146968 28.5617597113485289 O
atom 0.6908379030737126 0.7421059670281097 26.1310803540112104 O
atom 0.0003028540654291 1.7187464352722353 28.9206621134994606 O
atom 2.4309470185209312 1.7187454320319189 27.8711611881285357 O
atom 12.1808531880843880 0.7421076002680052 27.1805801409631940 O
atom 13.2303736270752026 4.1795871830548474 29.6112600144727196 O
atom 0.0002530520937123 3.2029589948120027 26.8216831481082281 O
atom 10.4408286862106934 0.0000047750500128 31.3513358434199887 Os
atom 12.1808806207959659 7.3825461450460326 29.6112560844495647 Os
atom 8.7007156717982017 7.3825445000459489 29.6112550167134714 Os
atom 10.4407760774842000 0.0000037500421998 27.8711725141244564 Os
atom 1.0497118162707020 8.1246479880428772 24.3910150732602453 O
atom 5.2204703782483000 9.1012837898066454 25.0815933485482319 O
atom 11.1313926490675019 5.6638038870368739 29.6112465541092718 O
atom 3.4804072110622908 6.6404357052630756 25.4404942163555745 O
atom 12.8715020473593356 6.6404373720407319 31.3513275579307589 O
atom 8.7007415054434336 5.6638014102761209 30.6607443470532459 O
atom 2.7898205215981706 9.1012833130466788 26.1310961336555536 O
atom 10.4407995036941816 8.1246479448194613 30.3018453814045330 O
atom 10.4408263527487470 4.9216917450495936 31.3513338635327869 Os
atom 12.1808830178285792 2.4608449850452763 29.6112492467165822 Os
atom 8.7007253803387776 2.4608414300462740 29.6112511487709611 Os
atom 10.4407725702581349 4.9217003100422438 27.8711748051702983 Os
atom 1.0497137324838204 3.2029475880422988 24.3910098901608592 O
atom 5.2204699822635332 4.1795846598065456 25.0815933627019412 O
atom 11.1313952299948475 0.7421054670369254 29.6112456419292869 O
atom 3.4804143457675654 1.7187443552637376 25.4404946759255139 O
atom 12.8715023443120540 1.7187443620402487 31.3513242345341254 O
atom 8.7007447793501971 0.7421064802764906 30.6607453299134392 O
atom 2.7898222893581370 4.1795841130467473 26.1310958932335922 O
atom 10.4408049837523613 3.2029504748196702 30.3018436065310510 O
atom 10.4407211070039150 0.0000052850338849 24.3910070635270593 Os
atom 5.2205541098864581 7.3825457250469322 29.6112595704489081 Os
atom 1.7403843808172088 7.3825477800459121 29.6112548257951573 Os
atom 3.4804425237399812 0.0000069600415912 27.8711696220762803 Os
atom 8.0100429022093653 8.1246473780432105 24.3910176329875483 O
atom 12.1808030834736805 9.1012847798073384 25.0815974568262661 O
atom 4.1710588902802233 5.6638030170365399 29.6112458611653722 O
atom 10.4407400294326376 6.6404354752639092 25.4404993004402371 O
atom 5.9111724676172646 6.6404376220415289 31.3513324157416378 O
atom 1.7404130075547877 5.6638035202766872 30.6607467229104458 O
atom 9.7501557936056020 9.1012863230473524 26.1310983115113586 O
atom 3.4804716068552231 8.1246479948202293 30.3018488532727375 O
atom 10.4407170977273225 4.9216889950337821 24.3910086121165008 Os
atom 5.2205550432173702 2.4608453050461989 29.6112539135958173 Os
atom 1.7403869051844261 2.4608472000460990 29.6112549459918100 Os
atom 3.4804399286594130 4.9216926100413287 27.8711689927653055 Os
atom 8.0100445073158575 3.2029497780429494 24.3910150379010915 O
atom 12.1808021642574786 4.1795860598076517 25.0816009358073266 O
atom 4.1710623268111364 0.7421079070367510 29.6112455358767477 O
atom 10.4407500137768672 1.7187426352648105 25.4404995690688338 O
atom 5.9111741929249106 1.7187468620411708 31.3513290216226466 O
atom 1.7404147470410829 0.7421090302769353 30.6607478684173742 O
atom 9.7501573704836755 4.1795855630480192 26.1311026884984052 O
atom 3.4804733180349849 3.2029493848200983 30.3018471562111742 O
atom 6.9606136033549184 0.0000052650422646 27.8711708241142553 Os
atom 8.7006621297026658 7.3825499350382611 26.1310932572015702 Os
atom 5.2204902085692479 7.3825461000364712 26.1310842840675193 Os
atom 0.0003324179426419 0.0000057900498029 31.3513339483697848 Os
atom 4.5299369047045248 8.1246484580518477 27.8711822491617980 O
atom 8.7006943141295370 9.1012833998160332 28.5617644630438576 O
atom 7.6511725386507203 5.6638039170281234 26.1310775396903523 O
atom 6.9606320944481839 6.6404371652722443 28.9206630398174340 O
atom 9.3912825309563903 6.6404414420327837 27.8711641296501433 O
atom 5.2205227739292717 5.6638045902682483 27.1805809399796878 O
atom 6.2700459565092537 9.1012843430555943 29.6112626802292311 O
atom 6.9605766355697147 8.1246483048106040 26.8216774700941265 O
atom 6.9606103011683498 4.9216934150419540 27.8711703220878029 Os
atom 8.7006684228886417 2.4608426250377757 26.1310857194026447 Os
atom 5.2205009353985012 2.4608451200378130 26.1310873316209324 Os
atom 0.0003314421421154 4.9216922400497856 31.3513340190815200 Os
atom 4.5299362824257399 3.2029520180513971 27.8711798025853525 O
atom 8.7006950000054850 4.1795853998158243 28.5617629003406677 O
atom 7.6511740589224262 0.7421051670281530 26.1310771932042911 O
atom 6.9606374472500168 1.7187432952728305 28.9206641782244134 O
atom 9.3912884140401491 1.7187438120326057 27.8711591798640157 O
atom 5.2205270165627118 0.7421069702685440 27.1805806853956611 O
atom 6.2700461474236944 4.1795868630555635 29.6112627863019355 O
atom 6.9605869664071056 3.2029498048117087 26.8216790327261272 O
atom 8.7007697230349681 7.3825475250541057 33.0914199299164196 Os
atom 5.2206024618115592 7.3825500100540404 33.0914206087519602 Os
atom 7.6512791420878701 5.6638061070447954 33.0914110854904067 O
atom 6.9606883301694857 8.1246516948276444 33.7820102521781109 O
atom 8.7007715190425419 2.4608450850535566 33.0914150508741898 Os
atom 5.2206129340768221 2.4608481200552652 33.0914229492007408 Os
atom 6.9606622876856061 4.9216910000504512 31.3513392233901840 Os
atom 7.6512800047555718 0.7421078270448525 33.0914114107609549 O
atom 6.9606951537755650 3.2029608548287447 33.7820142048579584 O
atom 8.0101539179525645 8.1246498480596188 31.3513461300099721 O
atom 12.1809124799301571 9.1012856498233887 32.0419244052979622 O
atom 10.4408493127441506 6.6404375652798189 32.4008252731053119 O
atom 9.7502626232800331 9.1012851730634221 33.0914271904052839 O
atom 8.0101558341656798 3.2029494480590412 31.3513409469105824 O
atom 12.1809120839454028 4.1795865198232880 32.0419244194516750 O
atom 10.4408564474494288 1.7187462152804802 32.4008257326752442 O
atom 9.7502643910400018 4.1795859730634906 33.0914269499833296 O
atom 3.4805008671437405 0.0000071450506276 31.3513381202767931 Os
atom 1.0498226623491871 8.1246492380599538 31.3513486897372786 O
atom 5.2205828436135029 9.1012866398240799 32.0419285135759964 O
atom 3.4805197895724662 6.6404373352806525 32.4008303571899674 O
atom 2.7899355537454169 9.1012881830640957 33.0914293682610889 O
atom 3.4804968578671418 4.9216908550505245 31.3513396688662311 Os
atom 1.0498242674556848 3.2029516380596914 31.3513460946508218 O
atom 5.2205819243973028 4.1795879198243941 32.0419319925570534 O
atom 3.4805297739166976 1.7187444952815534 32.4008306258185641 O
atom 2.7899371306234908 4.1795874230647625 33.0914337452481320 O
atom 1.7404418898424976 7.3825517950550044 33.0914243139512934 Os
atom 12.1809323102511087 7.3825479600532127 33.0914153408172496 Os
atom 0.6909522987905461 5.6638057770448667 33.0914085964400897 O
atom 0.0003563957095336 8.1246501648273455 33.7820085268438532 O
atom 1.7404481830284608 2.4608444850545181 33.0914167761523714 Os
atom 12.1809430370803646 2.4608469800545554 33.0914183883706698 Os
atom 0.6909538190622513 0.7421070270448955 33.0914082499540214 O
atom 0.0003667265469304 3.2029516648284511 33.7820100894758610 O
