#===============================================================================
# Created using the Atomic Simulation Environment (ASE)

# Mon Mar 23 14:01:07 2026

#=======================================================
lattice_vector 13.9206623415420374 0.0000000000000000 0.0000000000000000 
lattice_vector -0.0000018384659456 9.8433818399999584 0.0000000000000000 
lattice_vector 0.0000000000000000 0.0000000000000000 45.3018510452521141 
atom 6.9604940598926639 0.0000052650248748 17.4306777816243184 Os
atom 8.7005478612132769 7.3825438050206200 15.6905946568111148 Os
atom 5.2203805999898742 7.3825462900205547 15.6905953356466483 Os
atom 0.0002221729454863 0.0000052000334634 20.9108422705219184 Os
atom 4.5298205997874996 8.1246447880346899 17.4306886833875225 O
atom 8.7005787021620336 9.1012859997986979 18.1212690729277242 O
atom 7.6510572802661789 5.6638023870113097 15.6905858123850876 O
atom 6.9605189715041034 6.6404433052552720 18.4801686396304916 O
atom 9.3911690544455961 6.6404358620155381 17.4306679192742209 O
atom 5.2204080882939241 5.6638070102513707 16.7400883429279901 O
atom 6.2699290858992001 9.1012836530382621 19.1707681952202584 O
atom 6.9604664683478008 8.1246479747941596 16.3811849790728061 O
atom 6.9604919810107511 4.9217035250248591 17.4306786443028514 Os
atom 8.7005496572208525 2.4608413650200713 15.6905897777688779 Os
atom 5.2203910722551381 2.4608444000217804 15.6905976760954289 Os
atom 4.5298212785788357 3.2029548280342635 17.4306855155509339 O
atom 8.7005765666660366 4.1795860997979544 18.1212654949929544 O
atom 7.6510581429338842 0.7421041070113670 15.6905861376556395 O
atom 6.9605230939256106 1.7187445752554926 18.4801678971438861 O
atom 9.3911672583811026 1.7187435720151762 17.4306669717729577 O
atom 5.2204110864025299 0.7421057402512623 16.7400859246076159 O
atom 6.2699315253933419 4.1795853230381041 19.1707657981171451 O
atom 6.9604732919538872 3.2029571347952599 16.3811889317526536 O
atom 3.4803865845288269 0.0000029150332707 20.9108416270644071 Os
atom 5.2204385191141007 7.3825442850292902 19.1707618680939795 Os
atom 1.7402735701163394 7.3825426400292065 19.1707608003578933 Os
atom 3.4803339758023366 0.0000018900254577 17.4306782977688748 Os
atom 4.1709505473856421 5.6638020270201288 19.1707523377536972 O
atom 10.4406274509224648 6.6404338452463323 15.0000000000000000 O
atom 5.9110599456774864 6.6404355120239886 20.9108333415751879 O
atom 1.7402994037615751 5.6637995502593768 20.2202501306976714 O
atom 9.7500407614583473 9.1012814530299355 15.6906019172999791 O
atom 3.4803574020123191 8.1246460848027198 19.8613511650489585 O
atom 3.4803842510668836 4.9216898850328512 20.9108396471772195 Os
atom 5.2204409161467140 2.4608431250285334 19.1707550303610006 Os
atom 1.7402832786569153 2.4608395700295311 19.1707569324153795 Os
atom 3.4803304685762737 4.9216984500254997 17.4306805888147167 Os
atom 4.1709531283129770 0.7421036070201825 19.1707514255737053 O
atom 10.4406345856277429 1.7187424952469950 15.0000004595699394 O
atom 5.9110602426301950 1.7187425020235061 20.9108300181785509 O
atom 1.7403026776683372 0.7421046202597478 20.2202511135578646 O
atom 9.7500425292183177 4.1795822530300049 15.6906016768780177 O
atom 3.4803628820705033 3.2029486148029278 19.8613493901754694 O
atom 12.1807743497466276 7.3825438650301907 19.1707653540933372 Os
atom 8.7006046206773799 7.3825459200291697 19.1707606094395757 Os
atom 10.4406627636001534 0.0000051000248485 17.4306754057207058 Os
atom 11.1312791301403990 5.6638011570197966 19.1707516448097905 O
atom 3.4802979277507817 6.6404336152471668 15.0000050840846626 O
atom 12.8713927074774421 6.6404357620247856 20.9108381993860633 O
atom 8.7006332474149630 5.6638016602599430 20.2202525065548713 O
atom 2.7897136919237382 9.1012844630306091 15.6906040951557770 O
atom 10.4406918467154046 8.1246461348034877 19.8613546369171630 O
atom 12.1807752830775424 2.4608434450294565 19.1707596972402428 Os
atom 8.7006071450446072 2.4608453400293562 19.1707607296362355 Os
atom 10.4406601685195888 4.9216907500245863 17.4306747764097238 Os
atom 11.1312825666713113 0.7421060470200082 19.1707513195211696 O
atom 3.4803079120950069 1.7187407752480681 15.0000053527132593 O
atom 12.8713944327850793 1.7187450020244281 20.9108348052670650 O
atom 8.7006349869012620 0.7421071702601926 20.2202536520617997 O
atom 2.7897152688018156 4.1795837030312768 15.6906084721428272 O
atom 10.4406935578951607 3.2029475248033554 19.8613529398555997 O
atom 0.0001715016730554 0.0000034050255219 17.4306766077586772 Os
atom 1.7402200280208067 7.3825480750215187 15.6905990408459921 Os
atom 12.1807104484294246 7.3825442400197279 15.6905900677119412 Os
atom 6.9605526578028263 0.0000039300330602 20.9108397320142103 Os
atom 11.4901571445647015 8.1246465980351044 17.4306880328062235 O
atom 1.7402522124476711 9.1012815397992899 18.1212702466882760 O
atom 0.6907304369688583 5.6638020570113818 15.6905833233347778 O
atom 0.0001899927663155 6.6404353052555010 18.4801688234618524 O
atom 2.4308404292745256 6.6404395820160413 17.4306699132945617 O
atom 12.1807430137894421 5.6638027302515059 16.7400867236241098 O
atom 13.2302661963694295 9.1012824830388510 19.1707684638736566 O
atom 0.0001345338878521 8.1246464447938607 16.3811832537385520 O
atom 0.0001681994864874 4.9216915550252116 17.4306761057322213 Os
atom 1.7402263212067761 2.4608407650210329 15.6905915030470666 Os
atom 12.1807211752586788 2.4608432600210701 15.6905931152653579 Os
atom 6.9605516820022872 4.9216903800330432 20.9108398027259383 Os
atom 11.4901565222859094 3.2029501580346542 17.4306855862297780 O
atom 1.7402528983236150 4.1795835397990810 18.1212686839850967 O
atom 0.6907319572405636 0.7421033070114103 15.6905829768487095 O
atom 0.0001953455681576 1.7187414352560881 18.4801699618688389 O
atom 2.4308463123582866 1.7187419520158631 17.4306649635084341 O
atom 12.1807472564228885 0.7421051102518011 16.7400864690400830 O
atom 13.2302663872838746 4.1795850030388211 19.1707685699463610 O
atom 0.0001448647252427 3.2029479447949658 16.3811848163705491 O
atom 0.0002738200324856 0.0000071250416175 24.3910088383740415 Os
atom 1.7403276213531094 7.3825456650373633 22.6509257135608486 Os
atom 12.1808227016717385 7.3825481500372980 22.6509263923963786 Os
atom 6.9606642746273488 0.0000070600502061 27.8711733272716558 Os
atom 11.4902627014693657 8.1246466480514332 24.3910197401372564 O
atom 1.7403584623018542 9.1012878598154394 25.0816001296774544 O
atom 0.6908370404060040 5.6638042470280530 22.6509168691348179 O
atom 0.0002987316439254 6.6404451652720144 25.4404996963802219 O
atom 2.4309488145854212 6.6404377220322797 24.3909989760239583 O
atom 12.1808501899757875 5.6638088702681131 23.7004193996777239 O
atom 13.2303711875810599 9.1012855130550054 26.1310992519699923 O
atom 0.0002462284876260 8.1246498348109011 23.3415160358225364 O
atom 0.0002717411505794 4.9217053850416024 24.3910097010525817 Os
atom 1.7403294173606811 2.4608432250368142 22.6509208345186082 Os
atom 12.1808331739369997 2.4608462600385232 22.6509287328451698 Os
atom 0.0002201860037399 4.9216891400337079 20.9108450070346024 Os
atom 11.4902633802606946 3.2029566880510068 24.3910165723006607 O
atom 1.7403563268058653 4.1795879598146968 25.0815965517426847 O
atom 0.6908379030737126 0.7421059670281097 22.6509171944053662 O
atom 0.0003028540654291 1.7187464352722353 25.4404989538936164 O
atom 2.4309470185209312 1.7187454320319189 24.3909980285226915 O
atom 12.1808531880843880 0.7421076002680052 23.7004169813573498 O
atom 13.2303736270752026 4.1795871830548474 26.1310968548668754 O
atom 0.0002530520937123 3.2029589948120027 23.3415199885023839 O
atom 10.4408286862106934 0.0000047750500128 27.8711726838141445 Os
atom 12.1808806207959659 7.3825461450460326 26.1310929248437205 Os
atom 8.7007156717982017 7.3825445000459489 26.1310918571076272 Os
atom 10.4407760774842000 0.0000037500421998 24.3910093545186122 Os
atom 1.0497118162707020 8.1246479880428772 20.9108519136544011 O
atom 5.2204703782483000 9.1012837898066454 21.6014301889423876 O
atom 11.1313926490675019 5.6638038870368739 26.1310833945034275 O
atom 3.4804072110622908 6.6404357052630756 21.9603310567497303 O
atom 12.8715020473593356 6.6404373720407319 27.8711643983249147 O
atom 8.7007415054434336 5.6638014102761209 27.1805811874474017 O
atom 2.7898205215981706 9.1012833130466788 22.6509329740497094 O
atom 10.4407995036941816 8.1246479448194613 26.8216822217986888 O
atom 10.4408263527487470 4.9216917450495936 27.8711707039269427 Os
atom 12.1808830178285792 2.4608449850452763 26.1310860871107380 Os
atom 8.7007253803387776 2.4608414300462740 26.1310879891651169 Os
atom 10.4407725702581349 4.9217003100422438 24.3910116455644541 Os
atom 1.0497137324838204 3.2029475880422988 20.9108467305550150 O
atom 5.2204699822635332 4.1795846598065456 21.6014302030960970 O
atom 11.1313952299948475 0.7421054670369254 26.1310824823234427 O
atom 3.4804143457675654 1.7187443552637376 21.9603315163196697 O
atom 12.8715023443120540 1.7187443620402487 27.8711610749282812 O
atom 8.7007447793501971 0.7421064802764906 27.1805821703075949 O
atom 2.7898222893581370 4.1795841130467473 22.6509327336277480 O
atom 10.4408049837523613 3.2029504748196702 26.8216804469252068 O
atom 10.4407211070039150 0.0000052850338849 20.9108439039212151 Os
atom 5.2205541098864581 7.3825457250469322 26.1310964108430639 Os
atom 1.7403843808172088 7.3825477800459121 26.1310916661893131 Os
atom 3.4804425237399812 0.0000069600415912 24.3910064624704361 Os
atom 8.0100429022093653 8.1246473780432105 20.9108544733817041 O
atom 12.1808030834736805 9.1012847798073384 21.6014342972204219 O
atom 4.1710588902802233 5.6638030170365399 26.1310827015595279 O
atom 10.4407400294326376 6.6404354752639092 21.9603361408343929 O
atom 5.9111724676172646 6.6404376220415289 27.8711692561357935 O
atom 1.7404130075547877 5.6638035202766872 27.1805835633046016 O
atom 9.7501557936056020 9.1012863230473524 22.6509351519055144 O
atom 3.4804716068552231 8.1246479948202293 26.8216856936668933 O
atom 10.4407170977273225 4.9216889950337821 20.9108454525106566 Os
atom 5.2205550432173702 2.4608453050461989 26.1310907539899731 Os
atom 1.7403869051844261 2.4608472000460990 26.1310917863859657 Os
atom 3.4804399286594130 4.9216926100413287 24.3910058331594612 Os
atom 8.0100445073158575 3.2029497780429494 20.9108518782952473 O
atom 12.1808021642574786 4.1795860598076517 21.6014377762014824 O
atom 4.1710623268111364 0.7421079070367510 26.1310823762709035 O
atom 10.4407500137768672 1.7187426352648105 21.9603364094629896 O
atom 5.9111741929249106 1.7187468620411708 27.8711658620168024 O
atom 1.7404147470410829 0.7421090302769353 27.1805847088115300 O
atom 9.7501573704836755 4.1795855630480192 22.6509395288925610 O
atom 3.4804733180349849 3.2029493848200983 26.8216839966053300 O
atom 6.9606136033549184 0.0000052650422646 24.3910076645084111 Os
atom 8.7006621297026658 7.3825499350382611 22.6509300975957260 Os
atom 5.2204902085692479 7.3825461000364712 22.6509211244616750 Os
atom 0.0003324179426419 0.0000057900498029 27.8711707887639406 Os
atom 4.5299369047045248 8.1246484580518477 24.3910190895559538 O
atom 8.7006943141295370 9.1012833998160332 25.0816013034380134 O
atom 7.6511725386507203 5.6638039170281234 22.6509143800845081 O
atom 6.9606320944481839 6.6404371652722443 25.4404998802115898 O
atom 9.3912825309563903 6.6404414420327837 24.3910009700442991 O
atom 5.2205227739292717 5.6638045902682483 23.7004177803738436 O
atom 6.2700459565092537 9.1012843430555943 26.1310995206233869 O
atom 6.9605766355697147 8.1246483048106040 23.3415143104882823 O
atom 6.9606103011683498 4.9216934150419540 24.3910071624819587 Os
atom 8.7006684228886417 2.4608426250377757 22.6509225597968005 Os
atom 5.2205009353985012 2.4608451200378130 22.6509241720150882 Os
atom 0.0003314421421154 4.9216922400497856 27.8711708594756757 Os
atom 4.5299362824257399 3.2029520180513971 24.3910166429795083 O
atom 8.7006950000054850 4.1795853998158243 25.0815997407348235 O
atom 7.6511740589224262 0.7421051670281530 22.6509140335984469 O
atom 6.9606374472500168 1.7187432952728305 25.4405010186185692 O
atom 9.3912884140401491 1.7187438120326057 24.3909960202581715 O
atom 5.2205270165627118 0.7421069702685440 23.7004175257898169 O
atom 6.2700461474236944 4.1795868630555635 26.1310996266960913 O
atom 6.9605869664071056 3.2029498048117087 23.3415158731202830 O
atom 8.7007697230349681 7.3825475250541057 29.6112567703105753 Os
atom 5.2206024618115592 7.3825500100540404 29.6112574491461160 Os
atom 7.6512791420878701 5.6638061070447954 29.6112479258845624 O
atom 6.9606883301694857 8.1246516948276444 30.3018470925722667 O
atom 8.7007715190425419 2.4608450850535566 29.6112518912683456 Os
atom 5.2206129340768221 2.4608481200552652 29.6112597895948966 Os
atom 6.9606622876856061 4.9216910000504512 27.8711760637843398 Os
atom 7.6512800047555718 0.7421078270448525 29.6112482511551107 O
atom 6.9606951537755650 3.2029608548287447 30.3018510452521141 O
atom 8.0101539179525645 8.1246498480596188 27.8711829704041278 O
atom 12.1809124799301571 9.1012856498233887 28.5617612456921179 O
atom 10.4408493127441506 6.6404375652798189 28.9206621134994677 O
atom 9.7502626232800331 9.1012851730634221 29.6112640307994397 O
atom 8.0101558341656798 3.2029494480590412 27.8711777873047382 O
atom 12.1809120839454028 4.1795865198232880 28.5617612598458308 O
atom 10.4408564474494288 1.7187462152804802 28.9206625730694000 O
atom 9.7502643910400018 4.1795859730634906 29.6112637903774853 O
atom 3.4805008671437405 0.0000071450506276 27.8711749606709489 Os
atom 1.0498226623491871 8.1246492380599538 27.8711855301314344 O
atom 5.2205828436135029 9.1012866398240799 28.5617653539701521 O
atom 3.4805197895724662 6.6404373352806525 28.9206671975841232 O
atom 2.7899355537454169 9.1012881830640957 29.6112662086552447 O
atom 3.4804968578671418 4.9216908550505245 27.8711765092603869 Os
atom 1.0498242674556848 3.2029516380596914 27.8711829350449776 O
atom 5.2205819243973028 4.1795879198243941 28.5617688329512092 O
atom 3.4805297739166976 1.7187444952815534 28.9206674662127199 O
atom 2.7899371306234908 4.1795874230647625 29.6112705856422878 O
atom 1.7404418898424976 7.3825517950550044 29.6112611543454491 Os
atom 12.1809323102511087 7.3825479600532127 29.6112521812114053 Os
atom 0.6909522987905461 5.6638057770448667 29.6112454368342455 O
atom 0.0003563957095336 8.1246501648273455 30.3018453672380090 O
atom 1.7404481830284608 2.4608444850545181 29.6112536165465272 Os
atom 12.1809430370803646 2.4608469800545554 29.6112552287648256 Os
atom 0.6909538190622513 0.7421070270448955 29.6112450903481772 O
atom 0.0003667265469304 3.2029516648284511 30.3018469298700168 O
