#===============================================================================
# Created using the Atomic Simulation Environment (ASE)

# Mon Mar 23 14:01:10 2026

#=======================================================
lattice_vector 11.0790232517419795 0.0000000000000000 0.0000000000000000 
lattice_vector 3.7278993459126002 10.4330108955597858 0.0000000000000000 
lattice_vector 0.0000000000000000 0.0000000000000000 34.5282476656951900 
atom 3.6231390406443258 2.5528837907086235 16.1320689727488080 Os
atom 8.2568571091134118 5.8178103955655729 15.0000184076454914 Os
atom 9.3902608450683829 4.2092284370529329 15.0000000000000000 O
atom 7.1234320345153970 7.4263960980348855 15.0000012238411458 O
atom 6.6205169378446920 4.6648314459406679 15.2643067804313972 O
atom 8.4844253303959807 9.8813938710411140 15.2643072873381662 O
atom 5.4870879881998489 7.7693939044214275 16.1320707344280621 Os
atom 6.3928870263907944 0.6013359148636562 15.0000231376106186 Os
atom 11.2542185169334843 9.4257526213898153 15.0000192775709067 O
atom 5.2594919384919621 2.2099110349968623 15.0000237784727233 O
atom 12.1600484551138042 4.6647976872821317 15.2643033254162290 O
atom 9.1626478244789222 2.5528907496480127 16.1320703787597388 Os
atom 2.7173490244591059 5.8177923555092219 15.0000128666504260 Os
atom 3.8507462413387752 4.2092184759610021 15.0000123989628875 O
atom 12.6629461502925693 7.4263903701429514 15.0000034353330065 O
atom 0.8533783093654915 0.6013225846603152 15.0000118886919758 Os
atom 5.7147027441940601 9.4257485922932993 15.0000289039273547 O
atom 10.7990062661875665 2.2099094527432217 15.0000249217540542 O
atom 14.0239622273660682 9.8813653215455588 15.2643085438130441 O
atom 4.5289282922542631 3.1911030222888259 19.5282371694133232 Os
atom 4.7565581630527145 3.3514777670615787 17.5284196754997339 O
atom 5.6623320282092360 1.5825210637761866 19.5282187617678318 O
atom 3.3955032176562474 4.7996887247581341 19.5282199856089846 O
atom 6.1652674912543644 4.3440682252791003 19.2639404478832006 O
atom 1.7591698086880263 1.2395369989519684 18.3961787440440077 Os
atom 6.3928937985552734 4.5044566780369841 17.2641286389699431 Os
atom 7.5262880121708173 2.8958677332602498 17.2641217568771879 O
atom 5.2594624546068305 6.1130389059609973 17.2641168670211123 O
atom 8.0292380400823617 5.6574189551244736 16.9998337328776117 O
atom 3.6231191257578175 6.4560466291220866 18.3961810403686314 Os
atom 8.2568234665795490 9.7209956098517072 17.2641294284988831 Os
atom 9.3902436162749225 8.1123937822633359 17.2641404705470265 O
atom 3.3955240857261031 0.8965554837234557 17.2641363738252949 O
atom 6.1652473506908461 0.4409806701138758 16.9998411743971189 O
atom 6.3928575554442428 8.4076394371466971 19.5282418993784503 Os
atom 6.6204682433726614 8.5680344353814224 17.5284167139321845 O
atom 7.5262897000743285 6.7990452481130701 19.5282380393387456 O
atom 5.2594624675454256 10.0162145572799020 19.5282425402405622 O
atom 8.0291786963995087 9.5606348033036586 19.2639428834001194 O
atom 7.2986837562561568 1.2395335140004391 18.3961787829051886 Os
atom 11.9324101805895051 4.5044384387292160 17.2641212292845054 Os
atom 1.9867893473906468 2.8958692276895257 17.2641127932015479 O
atom 10.7989792885723350 6.1130324463984920 17.2641179682380681 O
atom 2.4897433141642087 5.6573963751550416 16.9998345834361579 O
atom 10.0684434593419372 3.1910849822324754 19.5282316284182613 Os
atom 10.2960828677096661 3.3514523476339999 17.5284169110947765 O
atom 11.2018406762216127 1.5825111026842547 19.5282311607307193 O
atom 8.9350173334334180 4.7996829968662089 19.5282221971008383 O
atom 11.7048049210044987 4.3440409334889445 19.2639464916143410 O
atom 11.0265969219825859 7.7693930369241260 16.1320722797384732 Os
atom 11.9323720901609196 8.4076261069433542 19.5282306504598111 Os
atom 12.1599967914039819 8.5680091635962796 17.5284189165761610 O
atom 13.0657971790768883 6.7990412190165532 19.5282476656951900 O
atom 10.7989767952410194 10.0162129750262601 19.5282436835218931 O
atom 13.5687096039692747 9.5606022326085363 19.2639415457204493 O
atom 9.1626338811084516 6.4560390769119431 18.3961795410507669 Os
atom 13.7963332607400098 9.7209780657865306 17.2641232715931139 Os
atom 3.8507428479361718 8.1123976437891709 17.2641323687270543 O
atom 8.9350386651934421 0.8965543902709572 17.2641383485417919 O
atom 0.6257463989346256 0.4409528470407817 16.9998317717510830 O
