#===============================================================================
# Created using the Atomic Simulation Environment (ASE)

# Mon Mar 23 14:01:10 2026

#=======================================================
lattice_vector 11.0790232517419795 0.0000000000000000 0.0000000000000000 
lattice_vector 3.7278993459126002 10.4330108955597858 0.0000000000000000 
lattice_vector 0.0000000000000000 0.0000000000000000 30.0000289039273582 
atom 4.5289282922542631 3.1911030222888259 15.0000184076454914 Os
atom 5.6623320282092360 1.5825210637761866 15.0000000000000000 O
atom 3.3955032176562474 4.7996887247581341 15.0000012238411529 O
atom 6.3928575554442428 8.4076394371466971 15.0000231376106186 Os
atom 7.5262897000743285 6.7990452481130701 15.0000192775709138 O
atom 5.2594624675454256 10.0162145572799020 15.0000237784727304 O
atom 10.0684434593419372 3.1910849822324754 15.0000128666504295 Os
atom 11.2018406762216127 1.5825111026842547 15.0000123989628875 O
atom 8.9350173334334180 4.7996829968662089 15.0000034353330065 O
atom 11.9323720901609196 8.4076261069433542 15.0000118886919793 Os
atom 13.0657971790768883 6.7990412190165532 15.0000289039273582 O
atom 10.7989767952410194 10.0162129750262601 15.0000249217540613 O
