#===============================================================================
# Created using the Atomic Simulation Environment (ASE)

# Mon Mar 23 14:01:08 2026

#=======================================================
lattice_vector 22.0103944943716279 0.0000000000000000 0.0000000000000000 
lattice_vector -0.0000025759486765 9.8433818399997932 0.0000000000000000 
lattice_vector 0.0000000000000000 0.0000000000000000 42.9793675870959788 
atom 20.9099133621479574 0.0000031170097098 15.7686431716275592 Os
atom 13.2062932828254773 0.0000023360136543 16.8691736271216399 Os
atom 18.6039711347602683 8.1246424905508619 15.0000038918046386 O
atom 20.5780567028084107 6.6404410703908487 16.7642853627511421 O
atom 1.2054609744340976 6.6404338634689637 16.5372847948260961 O
atom 20.9099107012298049 4.9217013770094704 15.7686436233213350 Os
atom 18.6039731963943389 3.2029525305507676 15.0000008104979372 O
atom 20.5780612643892553 1.7187423403914095 16.7642856713083965 O
atom 1.2054599860801998 1.7187415734685965 16.5372830372913207 O
atom 15.4073141817799151 7.3825400270098056 15.7686438983408301 Os
atom 17.7132584331684946 5.6637995634693699 16.5372869827319100 O
atom 15.0754595866541692 5.6637968503909439 16.7642844380518099 O
atom 2.0961759881089179 9.1012796205505939 15.0000000000000000 O
atom 18.7088913093595686 2.4608407260131506 16.8691689246710688 Os
atom 15.4073250311768426 2.4608369570110731 15.7686430083259488 Os
atom 17.7132615860223375 0.7421011434696831 16.5372866428384064 O
atom 15.0754627976581954 0.7421019203914607 16.7642861150909148 O
atom 2.0961781570953821 4.1795804205508151 15.0000000402444087 O
atom 9.9047216157051796 0.0000022070106682 15.7686456312673293 Os
atom 2.2010957941347180 0.0000031660134783 16.8691721379018240 Os
atom 7.5987749921959225 8.1246441505510685 15.0000045357850098 O
atom 9.5728588384809328 6.6404323103909526 16.7642872365808948 O
atom 12.2106591876354198 6.6404328334696068 16.5372901256060878 O
atom 9.9047169065509184 4.9216859170101639 15.7686461232248121 Os
atom 2.2010931153195950 4.9216888160130825 16.8691710109329485 Os
atom 7.5987777514895418 3.2029465505511476 15.0000022907640194 O
atom 9.5728686414223016 1.7187394703924701 16.7642903580776519 O
atom 12.2106623136386947 1.7187420734696626 16.5372871605682086 O
atom 4.4021143943801482 7.3825425570088576 15.7686375658122735 Os
atom 6.7080631805359836 5.6638005234693392 16.5372839729715899 O
atom 4.0702638689558306 5.6638009603914119 16.7642871839331242 O
atom 13.1013770724023750 9.1012797205513234 15.0000023523190222 O
atom 7.7036995539820330 2.4608392960142527 16.8691728645879451 Os
atom 4.4021240229275902 2.4608415770106324 15.7686435584222195 Os
atom 6.7080651482751277 0.7421017734695162 16.5372838343318023 O
atom 4.0702683902905070 0.7421033403920144 16.7642879933697593 O
atom 13.1013776358907155 4.1795822405513201 15.0000022226323431 O
atom 12.1058117346950471 0.0000039730233354 20.1707641082214018 Os
atom 14.3068354376734153 7.3825427640197745 19.0702335699659855 Os
atom 11.0052604164372756 7.3825450350161441 17.9697034498682626 Os
atom 4.4021916553725644 0.0000031920272799 21.2712945637154824 Os
atom 9.7998695073073563 8.1246433465644863 19.4021248283984811 O
atom 0.3319212794675692 9.1012839016353251 16.9740614879960354 O
atom 13.3112047214849003 5.6638012814756102 18.7383454341138780 O
atom 11.7739550753554987 6.6404419264044741 21.1664062993449811 O
atom 14.4117538413528123 6.6404347194825890 20.9394057314199351 O
atom 10.6734062283009994 5.6638056683977238 18.9653480010822300 O
atom 19.7045179559272512 9.1012813185572021 17.2010606874423857 O
atom 12.4376652188078598 8.1246467696417977 19.1751200969333127 O
atom 12.1058090737768911 4.9217022330230957 20.1707645599151775 Os
atom 14.3068391003256927 2.4608403240197649 19.0702292185636679 Os
atom 11.0052700270915089 2.4608431450178445 17.9697086911595711 Os
atom 13.2062901165693649 4.9216862760135252 16.8691758855629566 Os
atom 9.7998715689414286 3.2029533865643933 19.4021217470917797 O
atom 0.3319208009215613 4.1795840016347743 16.9740571276756249 O
atom 13.3112058529372970 0.7421030014757179 18.7383457248044287 O
atom 11.7739596369363451 1.7187431964050350 21.1664066079022355 O
atom 14.4117528529989158 1.7187424294822220 20.9394039738851596 O
atom 10.6734102532134543 0.7421043983980260 18.9653463642640148 O
atom 19.7045214441820100 4.1795829885574198 17.2010588941025517 O
atom 12.4376708582063085 3.2029559296430170 19.1751257139083044 O
atom 16.5078655894695281 0.0000002650168472 17.9697028796422842 Os
atom 18.7088864571299389 7.3825418860131666 16.8691749441878081 Os
atom 6.6032125543270030 7.3825408830234309 20.1707648349346691 Os
atom 8.8042435737297282 0.0000003840208059 19.0702361034007843 Os
atom 14.2019223155949366 8.1246451885577677 17.2010626025391851 O
atom 17.9402680592802852 9.1012811896421937 19.1751183383155031 O
atom 8.9091568057155790 5.6638004194829961 20.9394079193257490 O
atom 16.1760053166275277 6.6404329683972518 18.9653423606750415 O
atom 18.8138056478950162 6.6404330114759276 18.7383454822514679 O
atom 6.2713579592012554 5.6637977064045701 21.1664053746456489 O
atom 15.3024688550276355 9.1012804765642183 19.4021209365938425 O
atom 16.8397168241088551 8.1246435216351802 16.9740605856687097 O
atom 16.5078635859391198 4.9216872350164236 17.9697005541365371 Os
atom 9.9047896819066565 2.4608415820267764 21.2712898612649077 Os
atom 6.6032234037239279 2.4608378130246988 20.1707639449197913 Os
atom 8.8042391060746361 4.9216969440204199 19.0702374584777168 Os
atom 14.2019261884357366 3.2029447885577600 17.2010580006957170 O
atom 17.9402680950550604 4.1795820596420921 19.1751179358320556 O
atom 8.9091599585694237 0.7421019994833086 20.9394075794322454 O
atom 16.1760123557840814 1.7187416183983379 18.9653447621753983 O
atom 18.8138073964782606 1.7187400014757641 18.7383421326189001 O
atom 6.2713611702052781 0.7421027764050862 21.1664070516847538 O
atom 15.3024710240140962 4.1795812765644413 19.4021209768382477 O
atom 16.8397230001271048 3.2029460516359016 16.9740603441428206 O
atom 1.1006199882522667 0.0000030630242938 20.1707665678611683 Os
atom 3.3016417145731016 7.3825418940208785 19.0702401931769359 Os
atom 0.0000660672001872 7.3825437350165890 17.9697041475031085 Os
atom 15.4073886610534299 0.0000040220271039 21.2712930744956630 Os
atom 20.8050678591146365 8.1246450065646947 19.4021254723788488 O
atom 11.3371217823735169 9.1012817516358258 16.9740622527107199 O
atom 2.3060081361789440 5.6637991214757486 18.7383459752383139 O
atom 0.7687572110280211 6.6404331664045770 21.1664081731747338 O
atom 3.4065575601825091 6.6404336894832321 20.9394110621999303 O
atom 21.6786078045152664 5.6637993883982913 18.9653480055273569 O
atom 8.6993256236386802 9.1012830585581490 17.2010638313224398 O
atom 1.4324707712132372 8.1246439996426769 19.1751253829804220 O
atom 1.1006152790980070 4.9216867730237901 20.1707670598186510 Os
atom 3.3016448047852616 2.4608414740206968 19.0702348310753500 Os
atom 0.0000688399288945 2.4608431550169478 17.9697047691214742 Os
atom 15.4073859822383099 4.9216896720267078 21.2712919475267874 Os
atom 20.8050706184082586 3.2029474065647729 19.4021232273578619 O
atom 11.3371202260877570 4.1795830316358220 16.9740649717882910 O
atom 2.3060119151366654 0.7421040114762236 18.7383464626856480 O
atom 0.7687670139693886 1.7187403264060956 21.1664112946714944 O
atom 3.4065606861857827 1.7187429294832881 20.9394080971620475 O
atom 21.6786095084073054 0.7421048983985783 18.9653493516379719 O
atom 8.6993261513790134 4.1795822985585787 17.2010681916608021 O
atom 1.4324733471550635 3.2029453896428177 19.1751240234436189 O
atom 5.5026738430258755 0.0000016850177965 17.9697052498391088 Os
atom 7.7036907841568745 7.3825466060137019 16.8691783161678153 Os
atom 17.6084072612988649 7.3825434130224838 20.1707585024061160 Os
atom 19.8094398683208759 0.0000014940202318 19.0702314702739066 Os
atom 3.1967283778079039 8.1246447285584740 17.2010654423244453 O
atom 6.9350717825877792 9.1012798696429211 19.1751245501062826 O
atom 19.9143560474546994 5.6638013794829662 20.9394049095654324 O
atom 5.1708106633081750 6.6404334983980107 18.9653466986303201 O
atom 7.8086091922924208 6.6404380114762729 18.7383479598092499 O
atom 17.2765567358745500 5.6638018164050372 21.1664081205269632 O
atom 4.2972754449494621 9.1012805765649478 19.4021232889128648 O
atom 5.8345186064512786 8.1246448116347771 16.9740577503405810 O
atom 5.5026704531401531 4.9216898350172986 17.9697040200153992 Os
atom 20.9099924209007497 2.4608401520278784 21.2712938011817840 Os
atom 17.6084168898463069 2.4608424330242582 20.1707644950160585 Os
atom 19.8094385043211254 4.9216879440201229 19.0702315194683223 Os
atom 3.1967289770561131 3.2029482885582161 17.2010626338279948 O
atom 6.9350733433534053 4.1795818696429112 19.1751229938019172 O
atom 19.9143580151938444 0.7421026294831419 20.9394047709256412 O
atom 5.1708157973356519 1.7187396283988572 18.9653491806415211 O
atom 7.8086167546544338 1.7187403814768909 18.7383448337468366 O
atom 17.2765612572092202 0.7421041964056401 21.1664089299635982 O
atom 4.2972760084378043 4.1795830965649454 19.4021231592261820 O
atom 5.8345283289034651 3.2029463116364192 16.9740622090070516 O
atom 3.3017101072421373 0.0000048290369610 24.5728850448152407 Os
atom 5.5027338102205068 7.3825436200333998 23.4723545065598245 Os
atom 2.2011587889843613 7.3825458910297685 22.3718243864621051 Os
atom 17.6084845222912811 0.0000040480409055 25.6734155003093178 Os
atom 0.9957678798544392 8.1246442025781125 23.8042457649923200 O
atom 13.5382141463862844 9.1012847576489513 21.3761824245898779 O
atom 4.5071030940319892 5.6638021374892356 23.1404663707077169 O
atom 2.9698534479025840 6.6404427824181003 25.5685272359388200 O
atom 5.6076522138998977 6.6404355754962143 25.3415266680137741 O
atom 1.8693046008480889 5.6638065244113500 23.3674689376760689 O
atom 10.9004163284743409 9.1012821745708283 21.6031816240362247 O
atom 3.6335635913549433 8.1246476256554256 23.5772410335271552 O
atom 3.3017074463239751 4.9217030890367210 24.5728854965090164 Os
atom 5.5027374728727816 2.4608411800333903 23.4723501551575104 Os
atom 2.2011683996385947 2.4608440010314698 22.3718296277534101 Os
atom 4.4021884891164547 4.9216871320271514 21.2712968221567955 Os
atom 0.9957699414885147 3.2029542425780186 23.8042426836856187 O
atom 13.5382136678402762 4.1795848576484005 21.3761780642694639 O
atom 4.5071042254843867 0.7421038574893435 23.1404666613982677 O
atom 2.9698580094834286 1.7187440524186608 25.5685275444960745 O
atom 5.6076512255460038 1.7187432854958478 25.3415249104789986 O
atom 1.8693086257605434 0.7421052544116516 23.3674673008578537 O
atom 10.9004198167290962 4.1795838445710451 21.6031798306963907 O
atom 3.6335692307533924 3.2029567856566423 23.5772466505021434 O
atom 7.7037639620166178 0.0000011210304720 22.3718238162361267 Os
atom 9.9047848296770287 7.3825427420267937 21.2712958807816470 Os
atom 19.8095054212457171 7.3825417390370580 24.5728857715285081 Os
atom 0.0001419462768180 0.0000012400344329 23.4723570399946233 Os
atom 5.3978206881420228 8.1246460445713939 21.6031835391330240 O
atom 9.1361664318273714 9.1012820456558199 23.5772392749093420 O
atom 0.1050551782626636 5.6638012754966223 25.3415288559195879 O
atom 7.3719036891746175 6.6404338244108763 23.3674632972688805 O
atom 10.0097040204421077 6.6404338674895529 23.1404664188453069 O
atom 19.4776508261199695 5.6637985624181955 25.5685263112394914 O
atom 6.4983672275747209 9.1012813325778446 23.8042418731876815 O
atom 8.0356151966559395 8.1246443776488064 21.3761815222625522 O
atom 7.7037619584862060 4.9216880910300498 22.3718214907303761 Os
atom 1.1006880544537463 2.4608424380404017 25.6734107978587502 Os
atom 19.8095162706426429 2.4608386690383242 24.5728848815136303 Os
atom 0.0001374786217239 4.9216978000340452 23.4723583950715629 Os
atom 5.3978245609828273 3.2029456445713853 21.6031789372895560 O
atom 9.1361664676021466 4.1795829156557174 23.5772388724258946 O
atom 0.1050583311165125 0.7421028554969342 25.3415285160260844 O
atom 7.3719107283311676 1.7187424744119635 23.3674656987692408 O
atom 10.0097057690253468 1.7187408574893894 23.1404630692127391 O
atom 19.4776540371239975 0.7421036324187118 25.5685279882785927 O
atom 6.4983693965611851 4.1795821325780667 23.8042419134320902 O
atom 8.0356213726741927 3.2029469076495269 21.3761812807366631 O
atom 14.3069128551709834 0.0000039190379194 24.5728875044550108 Os
atom 16.5079345814918170 7.3825427500345047 23.4723611297707713 Os
atom 13.2063589341189029 7.3825445910302152 22.3718250840969475 Os
atom 6.6032870336005232 0.0000048780407295 25.6734140110895019 Os
atom 12.0009662316617263 8.1246458625783209 23.8042464089726877 O
atom 2.5330201549206031 9.1012826076494520 21.3761831893045624 O
atom 15.5123010030976616 5.6637999774893757 23.1404669118321529 O
atom 13.9750500779467348 6.6404340224182032 25.5685291097685727 O
atom 16.6128504271012254 6.6404345454968592 25.3415319987937693 O
atom 12.8745061770623526 5.6638002444119184 23.3674689421211959 O
atom 21.9056184905573943 9.1012839145717752 21.6031847679162787 O
atom 14.6387636381319517 8.1246448556563031 23.5772463195742610 O
atom 14.3069081460167222 4.9216876290374154 24.5728879964124935 Os
atom 16.5079376717039779 2.4608423300343221 23.4723557676691890 Os
atom 13.2063617068476091 2.4608440110305732 22.3718257057153131 Os
atom 6.6032843547853979 4.9216905280403340 25.6734128841206264 Os
atom 12.0009689909553430 3.2029482625783983 23.8042441639517044 O
atom 2.5330185986348432 4.1795838876494473 21.3761859083821300 O
atom 15.5123047820553825 0.7421048674898493 23.1404673992794905 O
atom 13.9750598808881019 1.7187411824197214 25.5685322312653334 O
atom 16.6128535531045003 1.7187437854969139 25.3415290337558865 O
atom 12.8745078809543916 0.7421057544122039 23.3674702882318108 O
atom 21.9056190182977275 4.1795831545722049 21.6031891282546376 O
atom 14.6387662140737760 3.2029462456564435 23.5772449600374614 O
atom 18.7089667099445940 0.0000025410314221 22.3718261864329442 Os
atom 20.9099836510755885 7.3825474620273281 21.2712992527616542 Os
atom 8.8043056338459529 7.3825442690361092 24.5728794389999550 Os
atom 11.0053382408679656 0.0000023500338574 23.4723524068677456 Os
atom 16.4030212447266202 8.1246455845721002 21.6031863789182843 O
atom 20.1413646495064960 9.1012807256565473 23.5772454867001215 O
atom 11.1102544200017874 5.6638022354965907 25.3415258461592749 O
atom 18.3771035302268899 6.6404343544116369 23.3674676352241555 O
atom 21.0149020592111349 6.6404388674898982 23.1404688964030889 O
atom 8.4724551084216362 5.6638026724186643 25.5685290571208093 O
atom 17.5035683118681789 9.1012814325785758 23.8042442255067037 O
atom 19.0408114733699918 8.1246456676484051 21.3761786869344199 O
atom 18.7089633200588672 4.9216906910309248 22.3718249566092418 Os
atom 12.1058907934478341 2.4608410080415037 25.6734147377756265 Os
atom 8.8043152623933914 2.4608432890378835 24.5728854316099010 Os
atom 11.0053368768682116 4.9216888000337482 23.4723524560621613 Os
atom 16.4030218439748268 3.2029491445718414 21.6031835704218373 O
atom 20.1413662102721176 4.1795827256565374 23.5772439303957562 O
atom 11.1102563877409288 0.7421034854967675 25.3415257075194837 O
atom 18.3771086642543686 1.7187404844124829 23.3674701172353600 O
atom 21.0149096215731461 1.7187412374905167 23.1404657703406791 O
atom 8.4724596297563117 0.7421050524192657 25.5685298665574372 O
atom 17.5035688753565175 4.1795839525785716 23.8042440958200245 O
atom 19.0408211958221791 3.2029471676500445 21.3761831456008942 O
atom 18.7090266771392137 7.3825444760470260 27.8744754431536634 Os
atom 15.4074516559030741 7.3825467470433939 26.7739453230559441 Os
atom 4.7341125189333706 9.1012856136625775 25.7783033611837205 O
atom 17.7133959609507023 5.6638029935028609 27.5425873073015559 O
atom 15.0755974677668014 5.6638073804249744 27.7695898742699079 O
atom 2.0963147010214271 9.1012830305844528 26.0053025606300672 O
atom 16.8398564582736618 8.1246484816690501 27.9793619701209941 O
atom 18.7090303397914930 2.4608420360470160 27.8744710917513494 Os
atom 15.4074612665573092 2.4608448570450956 26.7739505643472491 Os
atom 17.6084813560351634 4.9216879880407758 25.6734177587506416 Os
atom 4.7341120403873616 4.1795857136620249 25.7782990008633028 O
atom 17.7133970924030990 0.7421047135029690 27.5425875979921102 O
atom 15.0756014926792563 0.7421061104252773 27.7695882374516962 O
atom 2.0963181892761846 4.1795847005846705 26.0053007672902332 O
atom 16.8398620976721105 3.2029576416702676 27.9793675870959824 O
atom 20.9100568289353248 0.0000019770440968 26.7739447528299657 Os
atom 1.1006832022241149 7.3825435980404173 25.6734168173754860 Os
atom 13.2064348131955285 0.0000020960480577 27.8744779765884658 Os
atom 18.6041135550607386 8.1246469005850184 26.0053044757268665 O
atom 0.3320648043744543 9.1012829016694443 27.9793602115031881 O
atom 20.5781965560933280 6.6404346804245025 27.7695842338627230 O
atom 1.2056023929891957 6.6404347235031782 27.5425873554391494 O
atom 21.2419080635746553 8.1246452336624326 25.7783024588563912 O
atom 20.9100548254049201 4.9216889470436742 26.7739424273242186 Os
atom 13.2064303455404382 4.9216986560476705 27.8744793316654018 Os
atom 18.6041174279015387 3.2029465005850111 26.0052998738833985 O
atom 0.3320648401492375 4.1795837716693427 27.9793598090197371 O
atom 20.5782035952498816 1.7187433304255892 27.7695866353630834 O
atom 1.2056041415724350 1.7187417135030154 27.5425840058065781 O
atom 21.2419142395929086 3.2029477636631527 25.7783022173305021 O
atom 7.7038329540389014 7.3825436060481291 27.8744820663646173 Os
atom 4.4022573066659891 7.3825454470438396 26.7739460206907900 Os
atom 15.7393130218393171 9.1012834636630764 25.7783041258984049 O
atom 6.7081993756447460 5.6638008335029992 27.5425878484259918 O
atom 4.0704045496094361 5.6638011004255420 27.7695898787150419 O
atom 13.1015168631044823 9.1012847705853996 26.0053057045101177 O
atom 5.8346620106790379 8.1246457116699276 27.9793672561680999 O
atom 7.7038360442510632 2.4608431860479478 27.8744767042630315 Os
atom 4.4022600793946935 2.4608448670441989 26.7739466423091521 Os
atom 15.7393114655535573 4.1795847436630726 25.7783068449759760 O
atom 6.7082031546024687 0.7421057235034748 27.5425883358733294 O
atom 4.0704062535014778 0.7421066104258295 27.7695912248256533 O
atom 13.1015173908448137 4.1795840105858293 26.0053100648484836 O
atom 5.8346645866208657 3.2029471016700688 27.9793658966313004 O
atom 9.9048650824916784 0.0000033970450477 26.7739471230267903 Os
atom 12.1058820236226765 7.3825483180409526 25.6734201893554967 Os
atom 2.2012366134150536 0.0000032060474830 27.8744733434615846 Os
atom 7.5989196172737028 8.1246464405857246 26.0053073155121268 O
atom 11.3372630220535786 9.1012815816701735 27.9793664232939641 O
atom 9.5730019027739761 6.6404352104252613 27.7695885718179944 O
atom 12.2108004317582193 6.6404397235035235 27.5425898329969279 O
atom 10.2367098459170798 8.1246465236620296 25.7782996235282660 O
atom 9.9048616926059516 4.9216915470445501 26.7739458932030807 Os
atom 2.2012352494152974 4.9216896560473735 27.8744733926560038 Os
atom 7.5989202165219112 3.2029500005854676 26.0053045070156763 O
atom 11.3372645828192091 4.1795835816701619 27.9793648669895987 O
atom 9.5730070368014548 1.7187413404261085 27.7695910538291990 O
atom 12.2108079941202359 1.7187420935041422 27.5425867069345180 O
atom 10.2367195683692636 3.2029480236636703 25.7783040821947367 O
