#===============================================================================
# Created using the Atomic Simulation Environment (ASE)

# Mon Mar 23 14:01:10 2026

#=======================================================
lattice_vector 9.0245745700181317 0.0000000000000000 0.0000000000000000 
lattice_vector -0.0000361800215085 9.0245852999456080 0.0000000000000000 
lattice_vector 0.0000000000000000 0.0000000000000000 47.6732917700000058 
atom -0.0000332900110248 9.0245800699514014 15.0000000000000000 Os
atom 1.3914457408577661 1.3914232891928298 15.0000004600000025 O
atom 9.0245532749959505 4.5122983499663789 15.0000003700000022 Os
atom 4.5122511799916971 9.0245832349457569 15.0000003600000014 Os
atom 7.6331642142419778 3.1208232808871670 15.0000007800000006 O
atom -0.0000332900110248 9.0245800699514014 21.4266484300000002 Os
atom 2.2561446675106263 2.2561406025065880 16.6066631999999998 Os
atom 1.3914457408577661 1.3914232891928298 21.4266488900000027 O
atom 3.6475619066867182 0.8647032116366937 16.6066542200000029 O
atom 0.8646910983638411 3.6475633733036572 16.6066579499999989 O
atom 3.1208489641921711 3.1208436058311100 15.0000012300000023 O
atom 9.0245717200162670 0.0000009299942871 18.2133244700000034 Os
atom 2.2561459975098246 2.2561410025092536 19.8199873900000014 Os
atom 1.3914393908613145 1.3914215191801012 18.2133254700000009 O
atom 3.6475632966864375 0.8647033516394799 19.8199949099999984 O
atom 0.8646910483636203 3.6475634833035566 19.8199910100000025 O
atom 3.1208561641946164 3.1208423858455423 18.2133249700000022 O
atom 9.0245532749959505 4.5122983499663789 21.4266488000000024 Os
atom 2.2561022624402174 6.7684630124306526 16.6066616499999995 Os
atom 1.3913713457512560 5.9037637090527699 15.0000022700000013 O
atom 3.6475534316211395 5.3770232116287708 16.6066720200000013 O
atom 0.8646855432950556 8.1598849733015868 16.6066649799999979 O
atom 3.1207888490599225 7.6331968657196736 15.0000023400000018 O
atom -0.0000162650101328 4.5122923399764625 18.2133239700000011 Os
atom 2.2561033124414203 6.7684624124327568 19.8199899299999984 Os
atom 1.3913790057611781 5.9037587590681229 18.2133246200000016 O
atom 3.6475545516240859 5.3770217416310162 19.8199797199999992 O
atom 0.8646861932950555 8.1598849733028906 19.8199841699999979 O
atom 3.1207829690729714 7.6331903557078871 18.2133244899999980 O
atom 4.5122511799916971 9.0245832349457569 21.4266487900000016 Os
atom 6.7684387475579664 2.2561215075202092 16.6066626500000005 Os
atom 5.9037509709323892 1.3913905842288010 15.0000010800000005 O
atom 8.1598562067019280 0.8647001466507552 16.6066562500000003 O
atom 5.3769850083827793 3.6475584483169374 16.6066671900000031 O
atom 7.6331642142419778 3.1208232808871670 21.4266492100000008 O
atom 4.5122865400060688 0.0000014949985066 18.2133240100000009 Os
atom 6.7684373075565443 2.2561222175173219 19.8199888299999998 Os
atom 5.9037496909136866 1.3913999142262352 18.2133255299999988 O
atom 8.1598558867005853 0.8647008166501141 19.8199929700000013 O
atom 5.3769831883806125 3.6475595283132889 19.8199846199999996 O
atom 7.6331682442424782 3.1208230308952452 18.2133258900000001 O
atom 4.5122698549988804 4.5122923649741269 15.0000027600000010 Os
atom 6.7683912024849127 6.7684452374339683 16.6066615499999983 Os
atom 5.9036885358118472 5.9037380041127125 15.0000024700000019 O
atom 8.1598444616304562 5.3770230866362789 16.6066663400000003 O
atom 5.3769767133057149 8.1598841783093761 16.6066598399999990 O
atom 7.6330947691398565 7.6331615107570281 15.0000014600000018 O
atom 4.5122699850014882 4.5122910649743870 18.2133248000000023 Os
atom 6.7683900724858947 6.7684447474317047 19.8199897599999986 Os
atom 5.9036881558085597 5.9037396441119521 18.2133243799999995 O
atom 8.1598443716316584 5.3770224866360978 19.8199826500000000 O
atom 5.3769765433040311 8.1598850183090352 19.8199893199999977 O
atom 7.6330882091266865 7.6331680807438786 18.2133251099999995 O
atom -0.0000332900110248 9.0245800699514014 27.8532968600000039 Os
atom 2.2561446675106263 2.2561406025065880 23.0333116300000000 Os
atom 1.3914457408577661 1.3914232891928298 27.8532973200000029 O
atom 3.6475619066867182 0.8647032116366937 23.0333026500000031 O
atom 0.8646910983638411 3.6475633733036572 23.0333063799999991 O
atom 3.1208489641921711 3.1208436058311100 21.4266496600000025 O
atom 9.0245717200162670 0.0000009299942871 24.6399729000000036 Os
atom 2.2561459975098246 2.2561410025092536 26.2466358200000016 Os
atom 1.3914393908613145 1.3914215191801012 24.6399739000000011 O
atom 3.6475632966864375 0.8647033516394799 26.2466433400000021 O
atom 0.8646910483636203 3.6475634833035566 26.2466394400000027 O
atom 3.1208561641946164 3.1208423858455423 24.6399734000000024 O
atom 9.0245532749959505 4.5122983499663789 27.8532972299999990 Os
atom 2.2561022624402174 6.7684630124306526 23.0333100799999997 Os
atom 1.3913713457512560 5.9037637090527699 21.4266507000000033 O
atom 3.6475534316211395 5.3770232116287708 23.0333204500000015 O
atom 0.8646855432950556 8.1598849733015868 23.0333134099999981 O
atom 3.1207888490599225 7.6331968657196736 21.4266507700000020 O
atom -0.0000162650101328 4.5122923399764625 24.6399724000000013 Os
atom 2.2561033124414203 6.7684624124327568 26.2466383600000022 Os
atom 1.3913790057611781 5.9037587590681229 24.6399730500000018 O
atom 3.6475545516240859 5.3770217416310162 26.2466281500000029 O
atom 0.8646861932950555 8.1598849733028906 26.2466326000000016 O
atom 3.1207829690729714 7.6331903557078871 24.6399729200000017 O
atom 4.5122511799916971 9.0245832349457569 27.8532972200000017 Os
atom 6.7684387475579664 2.2561215075202092 23.0333110800000007 Os
atom 5.9037509709323892 1.3913905842288010 21.4266495100000007 O
atom 8.1598562067019280 0.8647001466507552 23.0333046800000005 O
atom 5.3769850083827793 3.6475584483169374 23.0333156199999998 O
atom 7.6331642142419778 3.1208232808871670 27.8532976400000045 O
atom 4.5122865400060688 0.0000014949985066 24.6399724400000011 Os
atom 6.7684373075565443 2.2561222175173219 26.2466372600000035 Os
atom 5.9037496909136866 1.3913999142262352 24.6399739600000025 O
atom 8.1598558867005853 0.8647008166501141 26.2466414000000015 O
atom 5.3769831883806125 3.6475595283132889 26.2466330500000034 O
atom 7.6331682442424782 3.1208230308952452 24.6399743200000039 O
atom 4.5122698549988804 4.5122923649741269 21.4266511900000012 Os
atom 6.7683912024849127 6.7684452374339683 23.0333099799999985 Os
atom 5.9036885358118472 5.9037380041127125 21.4266508999999985 O
atom 8.1598444616304562 5.3770230866362789 23.0333147700000005 O
atom 5.3769767133057149 8.1598841783093761 23.0333082699999991 O
atom 7.6330947691398565 7.6331615107570281 21.4266498900000002 O
atom 4.5122699850014882 4.5122910649743870 24.6399732300000025 Os
atom 6.7683900724858947 6.7684447474317047 26.2466381900000023 Os
atom 5.9036881558085597 5.9037396441119521 24.6399728100000033 O
atom 8.1598443716316584 5.3770224866360978 26.2466310800000038 O
atom 5.3769765433040311 8.1598850183090352 26.2466377500000014 O
atom 7.6330882091266865 7.6331680807438786 24.6399735400000033 O
atom 2.2561446675106263 2.2561406025065880 29.4599600600000038 Os
atom 3.6475619066867182 0.8647032116366937 29.4599510800000033 O
atom 0.8646910983638411 3.6475633733036572 29.4599548100000028 O
atom 3.1208489641921711 3.1208436058311100 27.8532980900000027 O
atom 9.0245717200162670 0.0000009299942871 31.0666213300000038 Os
atom 2.2561459975098246 2.2561410025092536 32.6732842500000018 Os
atom 1.3914393908613145 1.3914215191801012 31.0666223300000013 O
atom 3.6475632966864375 0.8647033516394799 32.6732917700000058 O
atom 0.8646910483636203 3.6475634833035566 32.6732878700000029 O
atom 3.1208561641946164 3.1208423858455423 31.0666218300000025 O
atom 2.2561022624402174 6.7684630124306526 29.4599585100000034 Os
atom 1.3913713457512560 5.9037637090527699 27.8532991300000035 O
atom 3.6475534316211395 5.3770232116287708 29.4599688800000017 O
atom 0.8646855432950556 8.1598849733015868 29.4599618400000018 O
atom 3.1207888490599225 7.6331968657196736 27.8532992000000021 O
atom -0.0000162650101328 4.5122923399764625 31.0666208300000015 Os
atom 2.2561033124414203 6.7684624124327568 32.6732867900000059 Os
atom 1.3913790057611781 5.9037587590681229 31.0666214800000020 O
atom 3.6475545516240859 5.3770217416310162 32.6732765800000067 O
atom 0.8646861932950555 8.1598849733028906 32.6732810299999983 O
atom 3.1207829690729714 7.6331903557078871 31.0666213500000019 O
atom 6.7684387475579664 2.2561215075202092 29.4599595100000009 Os
atom 5.9037509709323892 1.3913905842288010 27.8532979400000045 O
atom 8.1598562067019280 0.8647001466507552 29.4599531100000043 O
atom 5.3769850083827793 3.6475584483169374 29.4599640500000035 O
atom 4.5122865400060688 0.0000014949985066 31.0666208700000013 Os
atom 6.7684373075565443 2.2561222175173219 32.6732856900000002 Os
atom 5.9037496909136866 1.3913999142262352 31.0666223900000027 O
atom 8.1598558867005853 0.8647008166501141 32.6732898300000016 O
atom 5.3769831883806125 3.6475595283132889 32.6732814800000000 O
atom 7.6331682442424782 3.1208230308952452 31.0666227500000041 O
atom 4.5122698549988804 4.5122923649741269 27.8532996200000014 Os
atom 6.7683912024849127 6.7684452374339683 29.4599584100000023 Os
atom 5.9036885358118472 5.9037380041127125 27.8532993300000022 O
atom 8.1598444616304562 5.3770230866362789 29.4599632000000042 O
atom 5.3769767133057149 8.1598841783093761 29.4599567000000029 O
atom 7.6330947691398565 7.6331615107570281 27.8532983200000039 O
atom 4.5122699850014882 4.5122910649743870 31.0666216600000027 Os
atom 6.7683900724858947 6.7684447474317047 32.6732866199999989 Os
atom 5.9036881558085597 5.9037396441119521 31.0666212399999999 O
atom 8.1598443716316584 5.3770224866360978 32.6732795100000004 O
atom 5.3769765433040311 8.1598850183090352 32.6732861800000052 O
atom 7.6330882091266865 7.6331680807438786 31.0666219700000035 O
