#===============================================================================
# Created using the Atomic Simulation Environment (ASE)

# Mon Mar 23 14:01:10 2026

#=======================================================
lattice_vector 9.0245745700181317 0.0000000000000000 0.0000000000000000 
lattice_vector -0.0000361800215085 9.0245852999456080 0.0000000000000000 
lattice_vector 0.0000000000000000 0.0000000000000000 33.2133406900000026 
atom 2.2561446675106263 2.2561406025065880 15.0000089800000005 Os
atom 3.6475619066867182 0.8647032116366937 15.0000000000000000 O
atom 0.8646910983638411 3.6475633733036572 15.0000037299999995 O
atom 9.0245717200162670 0.0000009299942871 16.6066702500000005 Os
atom 2.2561459975098246 2.2561410025092536 18.2133331699999985 Os
atom 1.3914393908613145 1.3914215191801012 16.6066712499999980 O
atom 3.6475632966864375 0.8647033516394799 18.2133406900000026 O
atom 0.8646910483636203 3.6475634833035566 18.2133367899999996 O
atom 3.1208561641946164 3.1208423858455423 16.6066707499999993 O
atom 2.2561022624402174 6.7684630124306526 15.0000074300000001 Os
atom 3.6475534316211395 5.3770232116287708 15.0000177999999984 O
atom 0.8646855432950556 8.1598849733015868 15.0000107599999986 O
atom -0.0000162650101328 4.5122923399764625 16.6066697499999982 Os
atom 2.2561033124414203 6.7684624124327568 18.2133357100000026 Os
atom 1.3913790057611781 5.9037587590681229 16.6066703999999987 O
atom 3.6475545516240859 5.3770217416310162 18.2133255000000034 O
atom 0.8646861932950555 8.1598849733028906 18.2133299499999950 O
atom 3.1207829690729714 7.6331903557078871 16.6066702699999986 O
atom 6.7684387475579664 2.2561215075202092 15.0000084299999976 Os
atom 8.1598562067019280 0.8647001466507552 15.0000020300000010 O
atom 5.3769850083827793 3.6475584483169374 15.0000129700000002 O
atom 4.5122865400060688 0.0000014949985066 16.6066697899999980 Os
atom 6.7684373075565443 2.2561222175173219 18.2133346099999969 Os
atom 5.9037496909136866 1.3913999142262352 16.6066713099999994 O
atom 8.1598558867005853 0.8647008166501141 18.2133387499999984 O
atom 5.3769831883806125 3.6475595283132889 18.2133303999999967 O
atom 7.6331682442424782 3.1208230308952452 16.6066716700000008 O
atom 6.7683912024849127 6.7684452374339683 15.0000073299999990 Os
atom 8.1598444616304562 5.3770230866362789 15.0000121200000009 O
atom 5.3769767133057149 8.1598841783093761 15.0000056199999996 O
atom 4.5122699850014882 4.5122910649743870 16.6066705799999994 Os
atom 6.7683900724858947 6.7684447474317047 18.2133355399999957 Os
atom 5.9036881558085597 5.9037396441119521 16.6066701599999966 O
atom 8.1598443716316584 5.3770224866360978 18.2133284299999971 O
atom 5.3769765433040311 8.1598850183090352 18.2133351000000019 O
atom 7.6330882091266865 7.6331680807438786 16.6066708900000002 O
