#===============================================================================
# Created using the Atomic Simulation Environment (ASE)

# Mon Mar 23 14:01:07 2026

#=======================================================
lattice_vector 9.8433162200001281 0.0000000000000000 0.0000000000000000 
lattice_vector -0.0000031600105307 9.8433818399996227 0.0000000000000000 
lattice_vector 0.0000000000000000 0.0000000000000000 53.6320499300000364 
atom 2.4608323749974104 2.4608373149980389 18.2029851671406497 Os
atom 9.8433124099886040 9.8433797999969137 18.2029880071407852 Os
atom 7.3824882549967210 2.4608418949976203 18.2029873071407629 Os
atom 2.4608248999888085 9.8433798549974316 15.7421224271407816 Os
atom 0.0000015049970805 2.4608408099981673 15.7421250971407325 Os
atom 1.7187376869118562 0.7421004469903977 17.4608744522190413 O
atom 0.7420907651445560 4.1795835602246649 15.0000040820624641 O
atom 3.2029217598460984 3.2029499030052917 16.4842338542816300 O
atom 0.7420914319086461 3.2029492802239652 17.4608773242816078 O
atom 4.1795662648495551 0.7420992397712752 16.4842368522190021 O
atom 1.7187402401470639 1.7187387669914282 15.0000077400000364 O
atom 2.4608297599929250 4.9216961449981795 15.7421213371410111 Os
atom 9.8433121349904518 7.3825412299974484 15.7421211071409672 Os
atom 1.7187398669053298 5.6637991669907812 17.4608756122192936 O
atom 0.7420871751386054 9.1012786702241097 15.0000056320625639 O
atom 3.2029139598404712 8.1246427430039159 16.4842404542816361 O
atom 0.7420868819034216 8.1246400402233530 17.4608754942815771 O
atom 4.1795673148426804 5.6637999997714088 16.4842404122193038 O
atom 1.7187369001405697 6.6404373769909784 15.0000071000002428 O
atom 7.3824799099887137 9.8433808049969169 15.7421230271407815 Os
atom 4.9216605449979856 2.4608356699983736 15.7421230571405921 Os
atom 6.6403958869115334 0.7421027569903552 17.4608764522191073 O
atom 5.6637444051449073 4.1795817302239326 15.0000046020623721 O
atom 8.1245770598462812 3.2029491430048318 16.4842341342815892 O
atom 5.6637476319094890 3.2029445302237161 17.4608753342814538 O
atom 9.1012233548491501 0.7421021497711291 16.4842362322190787 O
atom 6.6403978101473911 1.7187375269915617 15.0000000000000000 O
atom 7.3824828199935526 4.9216926549973774 15.7421209871408720 Os
atom 4.9216498349901023 7.3825429799967646 15.7421215271409842 Os
atom 6.6403933669051414 5.6638007569900513 17.4608751822193007 O
atom 5.6637421551383840 9.1012804802236342 15.0000047820625895 O
atom 8.1245731498405132 8.1246430130041585 16.4842380742816523 O
atom 5.6637390419031464 8.1246421602224039 17.4608753442815861 O
atom 9.1012223648428385 5.6637996297710487 16.4842357922192697 O
atom 6.6403906801408432 6.6404360269902627 15.0000077600001696 O
atom 2.4608286399883763 9.8433786649968589 20.6638543171407782 Os
atom 0.0000016149966661 2.4608396599970930 20.6638541471407002 Os
atom 2.4608322149961799 2.4608367549954040 28.0464582671406362 Os
atom 9.8433122499873758 9.8433792399942774 28.0464611071407717 Os
atom 4.1795698880838570 1.7187392397712569 18.9451037300000600 O
atom 1.7187401769116037 0.7420980169895538 22.3826088622189978 O
atom 0.7420910351442938 4.1795811202234248 19.9217398520623981 O
atom 3.2029202898469005 3.2029408630037906 21.4059690042813706 O
atom 0.7420898319082387 3.2029479702225521 22.3826086742815598 O
atom 3.2029221430824868 4.1795768330047132 18.9451020920622923 O
atom 4.1795691748486989 0.7421006997705804 21.4059683922190693 O
atom 1.7187403001469426 1.7187357169903035 19.9217383099999523 O
atom 2.4608316499948231 4.9216804049972840 20.6638541071405832 Os
atom 9.8433121849897027 7.3825420999963320 20.6638513171409990 Os
atom 2.4608256949903153 7.3825392049967933 18.2029935771409193 Os
atom 0.0000004599926126 4.9216958599974996 18.2029891871410037 Os
atom 4.1795662380787650 6.6404291997708054 18.9451013200000169 O
atom 1.7187382269049352 5.6637979169894397 22.3826041722192493 O
atom 0.7420897251378457 9.1012794002232784 19.9217400420626056 O
atom 3.2029159198403674 8.1246395930031063 21.4059707442815643 O
atom 0.7420895019027748 8.1246402602226393 22.3826060842816084 O
atom 3.2029173830755635 9.1012781030040202 18.9451018520625603 O
atom 4.1795648248422506 5.6637990297699661 21.4059677722192596 O
atom 1.7187373401416328 6.6404265569896967 19.9217452799999393 O
atom 7.3824868499984380 0.0000001049967264 20.6638549971408487 Os
atom 4.9216603649966402 2.4608401099971462 20.6638558871407199 Os
atom 7.3824880949954901 2.4608413349949854 28.0464604071407457 Os
atom 4.9216573699986705 0.0000003399972087 18.2029902971408539 Os
atom 9.1012254280842910 1.7187369697708645 18.9451030499999753 O
atom 6.6403938969111778 0.7421011569889019 22.3826070122190508 O
atom 5.6637474551441249 4.1795824102230670 19.9217429520624201 O
atom 8.1245773598456221 3.2029493930037187 21.4059656442816042 O
atom 5.6637471519080904 3.2029492502224071 22.3826093142815878 O
atom 8.1245765930812155 4.1795852230041746 18.9451004620625021 O
atom 9.1012256548485571 0.7421019697703027 21.4059689622190952 O
atom 6.6403981301465436 1.7187385369902239 19.9217395200000311 O
atom 7.3824848699925578 4.9216949749965417 20.6638525971409592 Os
atom 4.9216529049897639 7.3825412699961239 20.6638520971409640 Os
atom 7.3824777249894771 7.3825449649958959 18.2029907871410366 Os
atom 4.9216592399943115 4.9216856199975814 18.2029900871407193 Os
atom 9.1012194780775246 6.6404373697700585 18.9451000900002064 O
atom 6.6403932569046029 5.6638002869888897 22.3826060922192873 O
atom 5.6637440551376494 9.1012808302225725 19.9217434820626167 O
atom 8.1245717098402501 8.1246407430027432 21.4059703642815791 O
atom 5.6637436619025134 8.1246422602219930 22.3826065242816341 O
atom 8.1245740430752900 9.1012801530037635 18.9451028220626050 O
atom 9.1012233048419588 5.6638011697699779 21.4059693922193226 O
atom 6.6403920701402095 6.6404360069892610 19.9217414900001835 O
atom 2.4608247399875784 9.8433792949947971 25.5855955271407645 Os
atom 0.0000013449958505 2.4608402499955324 25.5855981971407154 Os
atom 2.4608300149965694 2.4608383349963017 23.1247236371406579 Os
atom 9.8433118799881356 9.8433786899955606 23.1247231171407464 Os
atom 4.1795691080834976 1.7187372997697972 23.8668413499999978 O
atom 1.7187375269106264 0.7420998869877631 27.3043475522190313 O
atom 0.7420906051433258 4.1795830002220296 24.8434771820624469 O
atom 3.2029215998448684 3.2029493430026572 26.3277069542816200 O
atom 0.7420912719074161 3.2029487202213311 27.3043504242815942 O
atom 3.2029181930808490 4.1795828330027200 23.8668405820624265 O
atom 4.1795661048483250 0.7420986797686407 26.3277099522189921 O
atom 1.7187400801458339 1.7187382069887938 24.8434808400000264 O
atom 2.4608295999916949 4.9216955849955442 25.5855944371410011 Os
atom 9.8433119749892199 7.3825406699948148 25.5855942071409537 Os
atom 2.4608273849897442 7.3825389149959104 23.1247248571409294 Os
atom 9.8433141999925660 4.9216930399959180 23.1247214871408993 Os
atom 4.1795652080771726 6.6404348997692768 23.8668400000001704 O
atom 1.7187397069040999 5.6637986069881459 27.3043487122192836 O
atom 0.7420870151373754 9.1012781102214770 24.8434787320625503 O
atom 3.2029137998392407 8.1246421830012814 26.3277135542816261 O
atom 0.7420867219021916 8.1246394802207202 27.3043485942815636 O
atom 3.2029168430749984 9.1012773230025310 23.8668419720625344 O
atom 4.1795671548414512 5.6637994397687743 26.3277135122192938 O
atom 1.7187367401393399 6.6404368169883430 24.8434802000002293 O
atom 7.3824797499874837 9.8433802449942842 25.5855961271407715 Os
atom 4.9216603849967546 2.4608351099957395 25.5855961571405821 Os
atom 7.3824876149965659 2.4608390849964068 23.1247170571406748 Os
atom 4.9216529099877384 9.8433807899954484 23.1247222771408012 Os
atom 9.1012236580835708 1.7187371497691613 23.8668436199999654 O
atom 6.6403957269103033 0.7421021969877206 27.3043495522190973 O
atom 5.6637442451436764 4.1795811702212973 24.8434777020623621 O
atom 8.1245768998450529 3.2029485830021978 26.3277072342815721 O
atom 5.6637474719082581 3.2029439702210811 27.3043484342814438 O
atom 8.1245763730812328 4.1795808330027446 23.8668401520623732 O
atom 9.1012231948479219 0.7421015897684947 26.3277093322190652 O
atom 6.6403976501461601 1.7187369669889270 24.8434730999999864 O
atom 7.3824826599923217 4.9216920949947438 25.5855940871408585 Os
atom 4.9216496749888705 7.3825424199941292 25.5855946271409707 Os
atom 7.3824812549896119 7.3825400649951947 23.1247261471409224 Os
atom 4.9216545799922882 4.9216943399956516 23.1247222871409299 Os
atom 9.1012214380774381 6.6404335897689499 23.8668408000001158 O
atom 6.6403932069039113 5.6638001969874168 27.3043482822192871 O
atom 5.6637419951371539 9.1012799202209997 24.8434778820625759 O
atom 8.1245729898392831 8.1246424530015240 26.3277111742816423 O
atom 5.6637388819019163 8.1246416002197677 27.3043484442815760 O
atom 8.1245722630748798 9.1012784530020898 23.8668423220625456 O
atom 9.1012222048416120 5.6637990697684133 26.3277088922192597 O
atom 6.6403905201396132 6.6404354669876273 24.8434808600001524 O
atom 2.4608284799871458 9.8433781049942244 30.5073274171407682 Os
atom 0.0000014549954360 2.4608390999944589 30.5073272471406902 Os
atom 2.4608320549949498 2.4608361949927691 37.8899313671406333 Os
atom 9.8433120899861439 9.8433786799916430 37.8899342071407688 Os
atom 4.1795697280826269 1.7187386797686226 28.7885768300000500 O
atom 1.7187400169103737 0.7420974569869192 32.2260819622189842 O
atom 0.7420908751430638 4.1795805602207894 29.7652129520623809 O
atom 3.2029201298456700 3.2029403030011556 31.2494421042813535 O
atom 0.7420896719070087 3.2029474102199176 32.2260817742815533 O
atom 3.2029219830812572 4.1795762730020787 28.7885751920622788 O
atom 4.1795690148474698 0.7421001397679460 31.2494414922190593 O
atom 1.7187401401457125 1.7187351569876692 29.7652114099999459 O
atom 2.4608314899935926 4.9216798449946495 30.5073272071405732 Os
atom 9.8433120249884727 7.3825415399936984 30.5073244171409890 Os
atom 2.4608255349890853 7.3825386449941579 28.0464666771409092 Os
atom 0.0000002999913825 4.9216952999948642 28.0464622871409937 Os
atom 4.1795660780775350 6.6404286397681718 28.7885744200000033 O
atom 1.7187380669037053 5.6637973569868061 32.2260772722192428 O
atom 0.7420895651366156 9.1012788402206422 29.7652131420626027 O
atom 3.2029157598391373 8.1246390330004701 31.2494438442815543 O
atom 0.7420893419015446 8.1246397002200048 32.2260791842816019 O
atom 3.2029172230743335 9.1012775430013875 28.7885749520625502 O
atom 4.1795646648410214 5.6637984697673307 31.2494408722192496 O
atom 1.7187371801404030 6.6404259969870614 29.7652183799999328 O
atom 7.3824835299866782 9.8433813849937142 30.5073280971408387 Os
atom 4.9216602049954110 2.4608395499945117 30.5073289871407134 Os
atom 7.3824879349942618 2.4608407749923509 37.8899335071407393 Os
atom 4.9216540499869090 9.8433816199941973 28.0464633971408404 Os
atom 9.1012252680830610 1.7187364097682301 28.7885761499999582 O
atom 6.6403937369099477 0.7421005969862674 32.2260801122190372 O
atom 5.6637472951428949 4.1795818502204325 29.7652160520624101 O
atom 8.1245771998443903 3.2029488330010838 31.2494387442815871 O
atom 5.6637469919068586 3.2029486902197721 32.2260824142815778 O
atom 8.1245764330799872 4.1795846630015392 28.7885735620624885 O
atom 9.1012254948473252 0.7421014097676680 31.2494420622190852 O
atom 6.6403979701453144 1.7187379769875899 29.7652126200000247 O
atom 7.3824847099913287 4.9216944149939081 30.5073256971409528 Os
atom 4.9216527449885330 7.3825407099934894 30.5073251971409540 Os
atom 7.3824775649882470 7.3825444049932623 28.0464638871410230 Os
atom 4.9216590799930824 4.9216850599949469 28.0464631871407093 Os
atom 9.1012193180762964 6.6404368097674240 28.7885731900002000 O
atom 6.6403930969033738 5.6637997269862561 32.2260791922192738 O
atom 5.6637438951364203 9.1012802702199380 29.7652165820626102 O
atom 8.1245715498390219 8.1246401830001105 31.2494434642815655 O
atom 5.6637435019012852 8.1246417002193567 32.2260796242816241 O
atom 8.1245738830740581 9.1012795930011290 28.7885759220625985 O
atom 9.1012231448407288 5.6638006097673443 31.2494424922193126 O
atom 6.6403919101389803 6.6404354469866274 29.7652145900001734 O
atom 2.4608245799863484 9.8433787349921609 35.4290686271407651 Os
atom 0.0000011849946204 2.4608396899928979 35.4290712971407089 Os
atom 2.4608298549953402 2.4608377749936663 32.9681967371406444 Os
atom 9.8433117199869038 9.8433781299929262 32.9681962171407434 Os
atom 4.1795689480822684 1.7187367397671631 33.7103144499999843 O
atom 1.7187373669093962 0.7420993269851287 37.1478206522190106 O
atom 0.7420904451420957 4.1795824402193951 34.6869502820624405 O
atom 3.2029214398436383 3.2029487830000223 36.1711800542816064 O
atom 0.7420911119061859 3.2029481602186962 37.1478235242815913 O
atom 3.2029180330796194 4.1795822730000856 33.7103136820624201 O
atom 4.1795659448470950 0.7420981197660064 36.1711830522189786 O
atom 1.7187399201446041 1.7187376469861595 34.6869539400000093 O
atom 2.4608294399904653 4.9216950249929097 35.4290675371409947 Os
atom 9.8433118149879899 7.3825401099921795 35.4290673071409401 Os
atom 2.4608272249885137 7.3825383549932750 32.9681979571409158 Os
atom 9.8433140399913341 4.9216924799932826 32.9681945871408999 Os
atom 4.1795650480759416 6.6404343397666423 33.7103131000001497 O
atom 1.7187395469028701 5.6637980469855114 37.1478218122192629 O
atom 0.7420868551361453 9.1012775502188408 34.6869518320625332 O
atom 3.2029136398380116 8.1246416229986469 36.1711866542816125 O
atom 0.7420865619009616 8.1246389202180840 37.1478216942815607 O
atom 3.2029166830737688 9.1012767629998965 33.7103150720625280 O
atom 4.1795669948402212 5.6637988797661407 36.1711866122192873 O
atom 1.7187365801381098 6.6404362569857094 34.6869533000002264 O
atom 7.3824795899862536 9.8433796849916479 35.4290692271407579 Os
atom 4.9216602249955246 2.4608345499931046 35.4290692571405685 Os
atom 7.3824874549953368 2.4608385249937723 32.9681901571406684 Os
atom 4.9216527499865084 9.8433802299928157 32.9681953771407876 Os
atom 9.1012234980823390 1.7187365897665272 33.7103167199999518 O
atom 6.6403955669090733 0.7421016369850862 37.1478226522190909 O
atom 5.6637440851424481 4.1795806102186628 34.6869508020623556 O
atom 8.1245767398438211 3.2029480229995628 36.1711803342815728 O
atom 5.6637473119070281 3.2029434102184466 37.1478215342814337 O
atom 8.1245762130800045 4.1795802730001101 33.7103132520623632 O
atom 9.1012230348466918 0.7421010297658601 36.1711824322190552 O
atom 6.6403974901449310 1.7187364069862929 34.6869461999999800 O
atom 7.3824824999910916 4.9216915349921084 35.4290671871408591 Os
atom 4.9216495149876405 7.3825418599914947 35.4290677271409606 Os
atom 7.3824810949883828 7.3825395049925593 32.9681992471409160 Os
atom 4.9216544199910590 4.9216937799930180 32.9681953871409235 Os
atom 9.1012212780762063 6.6404330297663163 33.7103139000001022 O
atom 6.6403930469026813 5.6637996369847832 37.1478213822192913 O
atom 5.6637418351359239 9.1012793602183653 34.6869509820625694 O
atom 8.1245728298380513 8.1246418929988895 36.1711842742816287 O
atom 5.6637387219006863 8.1246410402171332 37.1478215442815696 O
atom 8.1245721030736444 9.1012778929994536 33.7103154220625356 O
atom 9.1012220448403802 5.6637985097657788 36.1711819922192461 O
atom 6.6403903601383822 6.6404349069849928 34.6869539600001389 O
atom 4.1795695680813969 1.7187381197659883 38.6320499300000364 O
atom 3.2029218230800272 4.1795757129994442 38.6320482920622652 O
atom 2.4608253749878553 7.3825380849915234 37.8899397771408957 Os
atom 0.0000001399901524 4.9216947399922297 37.8899353871409801 Os
atom 4.1795659180763041 6.6404280797655364 38.6320475199999862 O
atom 3.2029170630731030 9.1012769829987512 38.6320480520625296 O
atom 4.9216538899856799 9.8433810599915628 37.8899364971408232 Os
atom 9.1012251080818292 1.7187358497655958 38.6320492499999517 O
atom 8.1245762730787572 4.1795841029989047 38.6320466620624785 O
atom 7.3824774049870161 7.3825438449906269 37.8899369871410130 Os
atom 4.9216589199918515 4.9216844999923124 37.8899362871406993 Os
atom 9.1012191580750663 6.6404362497647904 38.6320462900001900 O
atom 8.1245737230728299 9.1012790329984945 38.6320490220625885 O
