#===============================================================================
# Created using the Atomic Simulation Environment (ASE)

# Mon Mar 23 14:01:12 2026

#=======================================================
lattice_vector 12.7627089219227017 0.0000000000000000 0.0000000000000000 
lattice_vector 0.0000000000000000 6.4266484300000002 0.0000000000000000 
lattice_vector 0.0000000000000000 0.0000000000000000 38.8270964281015267 
atom 6.3813374409477408 0.0000009300000002 19.4135474026375654 Os
atom 12.7627011208033352 4.8199861600000009 16.2228876925006418 Os
atom 0.0000034759003882 0.0000004699999996 15.0000057417089856 O
atom 1.9677675788204840 4.8199951400000005 16.2228706684586861 O
atom 10.7949103895966836 4.8199914100000001 16.2228686894429615 O
atom 12.7627037596487956 6.4266481300000002 17.4457633217659414 O
atom 6.3813290263768749 3.2133248900000004 19.4135476996174141 Os
atom 12.7627017784119143 1.6066619700000002 16.2228889157957603 Os
atom 0.0000002373547510 3.2133238900000007 15.0000000000000000 O
atom 1.9677684627033181 1.6066544500000004 16.2228717503325903 O
atom 10.7949102764595768 1.6066583500000000 16.2228687318693012 O
atom 0.0000007915626736 3.2133243900000004 17.4457675502680338 O
atom 9.5720064265537133 0.0000005599999998 16.2228863825749485 Os
atom 9.5719577815874786 6.4266470900000003 18.1906641454256039 O
atom 9.5720142330129878 3.2133253899999996 16.2228856896149374 Os
atom 9.5719666982028482 3.2133247400000005 18.1906660616902833 O
atom 3.1906597755886423 0.0000005700000003 16.2228832112056764 Os
atom 3.1906839427407676 4.8199867100000002 19.4135434340148585 Os
atom 3.1907127277254639 6.4266482800000002 18.1906597437509312 O
atom 5.1584481433155798 4.8199931099999995 19.4135379004514554 O
atom 1.2228830716169912 4.8199821700000003 19.4135343304460939 O
atom 3.1906566784597912 3.2133253500000003 16.2228851486764150 Os
atom 3.1906824224615029 1.6066605299999999 19.4135429178260104 Os
atom 3.1907052253191273 3.2133238300000007 18.1906654359560669 O
atom 5.1584474432797185 1.6066563900000004 19.4135381479384215 O
atom 1.2228810210076335 1.6066647400000000 19.4135338071858605 O
atom 6.3813221621320375 4.8199878099999998 16.2228801441211843 Os
atom 6.3813236669334135 6.4266468900000007 15.0000026763807135 O
atom 8.3491122357292529 4.8199830199999996 16.2228993663815722 O
atom 4.4135476307185213 4.8199895200000000 16.2229002087227983 O
atom 6.3813149014772872 6.4266479000000016 17.4457646404996360 O
atom 12.7626878395799892 3.2133245600000002 19.4135484951151263 Os
atom 6.3813217095843795 1.6066596000000004 16.2228789986079320 Os
atom 6.3813222385771846 3.2133249800000008 15.0000035673344101 O
atom 8.3491125963539989 1.6066667099999996 16.2228988784781123 O
atom 4.4135469165403896 1.6066600400000002 16.2229006824839210 O
atom 6.3813056171652454 3.2133242500000003 17.4457646475651877 O
atom 6.3813390726014312 4.8199861600000009 22.6042165703341418 Os
atom 6.3813503496211910 0.0000004699999996 21.3813346195424892 O
atom 8.3491144525412810 4.8199951400000005 22.6041995462921896 O
atom 4.4135483413947849 4.8199914100000001 22.6041975672764615 O
atom 6.3813417114468916 6.4266481300000002 23.8270921995994378 O
atom 6.3813397302100157 1.6066619700000002 22.6042177936292568 Os
atom 6.3813471110755478 3.2133238900000007 21.3813288778335000 O
atom 8.3491153364241146 1.6066544500000004 22.6042006281660868 O
atom 4.4135482282576746 1.6066583500000000 22.6041976097028048 O
atom 6.3813476652834709 3.2133243900000004 23.8270964281015303 O
atom 3.1906443783518124 0.0000005599999998 22.6042152604084485 Os
atom 9.5719818599009034 4.8199877100000004 19.4135559815910774 Os
atom 11.5397829360879332 4.8199773400000003 19.4135612455701470 O
atom 7.6042177583204813 4.8199843800000002 19.4135624626776284 O
atom 9.5719501616355362 6.4266470200000008 20.6364409022190749 O
atom 3.1906521848110896 3.2133253899999996 22.6042145674484480 Os
atom 9.5719830266268993 1.6066594300000006 19.4135562997898283 Os
atom 11.5397847674946430 1.6066696400000005 19.4135609980838701 O
atom 7.6042182179396178 1.6066651900000002 19.4135629222973130 O
atom 9.5719506071180174 3.2133248699999997 20.6364321411663276 O
atom 9.5720066493094418 0.0000005700000003 22.6042120890391764 Os
atom 3.1907024207697434 0.0000001500000003 20.6364331629988023 O
atom 9.5720035521805933 3.2133253500000003 22.6042140265099114 Os
atom 3.1907054471851808 3.2133234700000002 20.6364358358642299 O
atom 12.7626868284167951 6.4266466000000007 19.4135493224294642 Os
atom 12.7626690358528414 4.8199878099999998 22.6042090219546843 Os
atom 12.7626705406542111 6.4266468900000007 21.3813315542142171 O
atom 1.9677501875273533 4.8199830199999996 22.6042282442150757 O
atom 10.7948945044393216 4.8199895200000000 22.6042290865563054 O
atom 12.7626617751980849 6.4266479000000016 23.8270935183331396 O
atom 12.7626685833051798 1.6066596000000004 22.6042078764414320 Os
atom 12.7626691122979814 3.2133249800000008 21.3813324451679101 O
atom 1.9677505481520972 1.6066667099999996 22.6042277563116123 O
atom 10.7948937902611899 1.6066600400000002 22.6042295603174246 O
atom 12.7626524908860457 3.2133242500000003 23.8270935253986842 O
