#===============================================================================
# Created using the Atomic Simulation Environment (ASE)

# Mon Mar 23 14:01:11 2026

#=======================================================
lattice_vector 9.0245853000181313 0.0000000000000000 0.0000000000000000 
lattice_vector 0.0000000000000000 6.4266484300000002 0.0000000000000000 
lattice_vector 0.0000000000000000 0.0000000000000000 38.4978721724451916 
atom 9.0244776900883696 3.2133235400000006 18.1208598957938207 Os
atom 4.5121898100800157 6.4266478700000009 18.1208595408033872 Os
atom 2.2560220125298764 1.6066617200000000 15.8647359682558076 Os
atom 1.3912945558226968 0.0000001500000000 15.0000447248869264 O
atom 0.8645950734082352 1.6066553200000000 17.2561478491095741 O
atom 3.1207203191615043 6.4266482800000002 16.7294649015662671 O
atom 2.2560227225327618 4.8199879000000001 15.8647345282572303 Os
atom 1.3913038858252624 3.2133246000000000 15.0000434449056215 O
atom 0.8645957434088768 4.8199920399999998 17.2561475291109261 O
atom 3.1207200691534256 3.2133249599999996 16.7294689315657621 O
atom 6.7683457425979840 1.6066606200000000 15.8647065133181115 Os
atom 5.9036419759206504 0.0000015400000000 15.0000003799967132 O
atom 5.3769180134045831 1.6066654100000000 17.2561541941702998 O
atom 7.6330585492735104 0.0000005300000000 16.7294135466576321 O
atom 6.7683452526002501 4.8199888299999998 15.8647053833171299 Os
atom 5.9036436159214141 3.2133234499999999 15.0000000000000000 O
atom 5.3769174134047608 4.8199817200000012 17.2561541041690916 O
atom 7.6330651192866616 3.2133241799999999 16.7294069866708028 O
atom 9.0244715300768625 6.4266474999999996 18.1208656357814775 Os
atom 2.2560230175542504 1.6066622699999999 20.3770164582668869 Os
atom 1.3913091708694223 6.4266479600000004 19.5123140649252846 O
atom 0.8645800484330514 1.6066532899999999 21.7684281190885258 O
atom 3.6474513667482742 1.6066570200000003 18.9855684674159519 O
atom 3.1207225542283146 0.0000003000000000 21.2417242215798083 O
atom 2.2560234175515839 4.8199864600000000 20.3770177882676933 Os
atom 1.3913074008821509 3.2133245399999999 19.5123077149217394 O
atom 0.8645801884302650 4.8199939800000005 21.7684295090887971 O
atom 3.6474514767483739 4.8199900800000002 18.9855684174161681 O
atom 3.1207213342138815 3.2133240400000003 21.2417314215773629 O
atom 6.7683454276120578 1.6066607200000003 20.3769921433265466 Os
atom 5.9036495909913524 0.0000013400000000 19.5122577600210505 O
atom 5.3769000484228462 1.6066710900000003 21.7684377341433475 O
atom 8.1597729667322128 1.6066640500000000 18.9855810024739853 O
atom 7.6330758143216215 0.0000014100000000 21.2416821967013121 O
atom 4.5121838000699324 3.2133230400000006 18.1208645707913405 Os
atom 6.7683448276099529 4.8199889999999996 20.3769931933253403 Os
atom 5.9036446409759966 3.2133236900000002 19.5122654200111256 O
atom 5.3768985784205992 4.8199787900000004 21.7684388541404061 O
atom 8.1597729667309089 4.8199832400000000 18.9855816524739822 O
atom 7.6330693043334090 3.2133235600000001 21.2416763166882561 O
atom 9.0244566050932615 6.4266478600000001 22.6331501057606275 Os
atom 3.6474283517457486 1.6066662599999999 23.4978623773788868 O
atom 9.0244601650949061 3.2133230799999999 22.6331492857677574 Os
atom 3.6474294317493969 4.8199836899999999 23.4978605573810455 O
atom 4.5121657350830215 0.0000018300000000 22.6331506907641895 Os
atom 8.1597540817351781 1.6066589100000002 23.4978721724451916 O
atom 4.5121644350827630 3.2133238700000000 22.6331508207615926 Os
atom 8.1597549217355212 4.8199883899999998 23.4978720024468757 O
