#===============================================================================
# Created using the Atomic Simulation Environment (ASE)

# Mon Mar 23 14:01:10 2026

#=======================================================
lattice_vector 11.0790232517419795 0.0000000000000000 0.0000000000000000 
lattice_vector 3.7278993459126002 10.4330108955597858 0.0000000000000000 
lattice_vector 0.0000000000000000 0.0000000000000000 41.3205723960293057 
atom 7.3510678575034731 5.1795911639853713 18.3961749413150883 Os
atom 11.9847859259725613 8.4445177688423190 17.2641243762117753 Os
atom 12.2124157967710207 8.6048925136150682 15.2643068822981860 O
atom 13.1181896619275271 6.8359358103296790 17.2641059685662839 O
atom 10.8513608513745474 10.0531034713116298 17.2641071924074296 O
atom 13.6211251249726590 9.5974829718325942 16.9998276546816456 O
atom 9.2150274424063152 6.4929517455054615 16.1320659508424562 Os
atom 13.8487514322735681 9.7578714245904781 15.0000158457683952 Os
atom 10.3484457547038442 7.2915388192174140 17.5284127489976811 O
atom 3.9031223941471320 8.1492824798137420 15.0000089636756400 O
atom 8.9874207424125228 0.9334427569547028 15.0000040738195644 O
atom 7.3510774135635115 1.2764504801157939 16.1320682471670871 Os
atom 11.9847817543852457 4.5413994608454153 15.0000166352973281 Os
atom 8.4844548013425314 2.0750903487580747 17.5284132559044501 O
atom 2.0391786523386357 2.9327976332570413 15.0000276773454786 O
atom 10.8513817194443920 6.1499702302769492 15.0000235806237470 O
atom 9.2150168050589958 10.3961012776981736 18.3961767029943459 Os
atom 10.1208158432499413 3.2280432881404026 17.2641291061768989 Os
atom 10.3484265311783528 3.3884382863751292 15.2643039207306330 O
atom 11.2542479878800314 1.6194490991067765 17.2641252461371906 O
atom 8.9874207553511134 4.8366184082736083 17.2641297470390107 O
atom 11.7571369842052018 4.3810386542973649 16.9998300901985679 O
atom 3.6755181382324720 6.4929482605539324 16.1320659897036336 Os
atom 8.3092445625658211 9.7578531852827091 15.0000084360829540 Os
atom 4.8089540202309680 7.2915050605588787 17.5284092939825129 O
atom 9.4426469811089344 8.1492839742430210 15.0000000000000000 O
atom 3.4479143246360477 0.9334362973921990 15.0000051750365202 O
atom 12.8905766413380665 5.1795981229247579 18.3961763473260262 Os
atom 6.4452778413182505 8.4444997287859671 17.2641188352167099 Os
atom 6.6729172496859785 8.6048670941874938 15.2643041178932251 O
atom 7.5786750581979216 6.8359258492377482 17.2641183675291714 O
atom 5.3118517154097367 10.0530977434196984 17.2641094038992904 O
atom 8.0816393029808111 9.5974556800424367 16.9998336984127931 O
atom 4.5813071262246430 3.2280299579370606 17.2641178572582561 Os
atom 4.8089318274676938 3.3884130145899864 15.2643061233746060 O
atom 5.7147322151406073 1.6194450700102605 17.2641348724936385 O
atom 3.4479118313047388 4.8366168260199691 17.2641308903203381 O
atom 6.2176446400329830 4.3810060836022409 16.9998287525189014 O
atom 1.8115689171721714 1.2764429279056499 16.1320667478492155 Os
atom 6.4452682968037216 4.5413819167802387 15.0000104783915660 Os
atom 2.9449684465706358 2.0750617992625200 17.5284145123793280 O
atom 7.5787011357418628 2.9328014947828778 15.0000195755254992 O
atom 5.3118730471697617 6.1499691368244500 15.0000255553402404 O
atom 3.6231390406443258 2.5528837907086235 22.9243937030829237 Os
atom 8.2568571091134118 5.8178103955655729 21.7923431379796071 Os
atom 8.4844869799118712 5.9781851403383239 19.7925256440660178 O
atom 9.3902608450683829 4.2092284370529329 21.7923247303341157 O
atom 7.1234320345153970 7.4263960980348855 21.7923259541752614 O
atom 9.8931963081135113 6.9707755985558482 21.5280464164494774 O
atom 5.4870986255471692 3.8662443722287159 20.6602847126102880 Os
atom 10.1208226154144203 7.1311640513137329 19.5282346075362270 Os
atom 6.6205169378446920 4.6648314459406679 22.0566315107655129 O
atom 11.2542168290299642 5.5225751065369968 19.5282277254434717 O
atom 8.9873912714659721 8.7397462792377425 19.5282228355873997 O
atom 11.7571668569415113 8.2841263284012197 19.2639397014438885 O
atom 7.3510479426169599 9.0827540023988327 20.6602870089349153 Os
atom 8.2568529375260962 1.9146920875686690 19.5282353970651599 Os
atom 8.4844253303959807 9.8813938710411140 22.0566320176722819 O
atom 9.3902730872214715 0.3060902599802945 19.5282464391133104 O
atom 7.1234529025852495 3.5232628570002009 19.5282423423915823 O
atom 9.8931761675499921 3.0676880433906213 19.2639471429634028 O
atom 5.4870879881998489 7.7693939044214275 22.9243954647621777 Os
atom 6.3928870263907944 0.6013359148636562 21.7923478679447342 Os
atom 6.6204977143192085 0.7617309130983819 19.7925226824984684 O
atom 11.2542185169334843 9.4257526213898153 21.7923440079050224 O
atom 5.2594919384919621 2.2099110349968623 21.7923485088068389 O
atom 8.0292081673460540 1.7543312810206177 21.5280488519664033 O
atom 11.0266125731153100 3.8662408872771854 20.6602847514714689 Os
atom 4.5813157457066715 7.1311458120059630 19.5282271978507858 Os
atom 12.1600484551138042 4.6647976872821317 22.0566280557503447 O
atom 5.7147181642497893 5.5225766009662740 19.5282187617678318 O
atom 3.4478848536894984 8.7397398196752381 19.5282239368043520 O
atom 6.2176721310233507 8.2841037484317894 19.2639405520024383 O
atom 9.1626478244789222 2.5528907496480127 22.9243951090938545 Os
atom 2.7173490244591059 5.8177923555092219 21.7923375969845416 Os
atom 2.9449884328268299 5.9781597209107495 19.7925228796610568 O
atom 3.8507462413387752 4.2092184759610021 21.7923371292970032 O
atom 12.6629461502925693 7.4263903701429514 21.7923281656671222 O
atom 4.3537104861216669 6.9707483067656923 21.5280524601806249 O
atom 14.7545257388417301 10.3961004102008712 18.3961782483047571 Os
atom 0.8533783093654915 0.6013225846603152 21.7923366190260914 Os
atom 1.0810030106085446 0.7617056413132404 19.7925248851424413 O
atom 5.7147027441940601 9.4257485922932993 21.7923536342614703 O
atom 10.7990062661875665 2.2099094527432217 21.7923496520881699 O
atom 2.4897158231738366 1.7542987103254950 21.5280475142867367 O
atom 12.8905626979675976 9.0827464501886901 20.6602855096170472 Os
atom 2.7173394799445725 1.9146745435034924 19.5282292401593978 Os
atom 14.0239622273660682 9.8813653215455588 22.0566332741471598 O
atom 3.8507723188827141 0.3060941215061326 19.5282383372933310 O
atom 1.5839442303106142 3.5232617635477017 19.5282443171080722 O
atom 4.3536752157937624 3.0676602203175278 19.2639377403173597 O
atom 4.5289282922542631 3.1911030222888259 26.3205618997474389 Os
atom 4.7565581630527145 3.3514777670615787 24.3207444058338496 O
atom 5.6623320282092360 1.5825210637761866 26.3205434921019474 O
atom 3.3955032176562474 4.7996887247581341 26.3205447159431003 O
atom 6.1652674912543644 4.3440682252791003 26.0562651782173162 O
atom 1.7591698086880263 1.2395369989519684 25.1885034743781233 Os
atom 6.3928937985552734 4.5044566780369841 24.0564533693040588 Os
atom 7.5262880121708173 2.8958677332602498 24.0564464872113035 O
atom 5.2594624546068305 6.1130389059609973 24.0564415973552279 O
atom 8.0292380400823617 5.6574189551244736 23.7921584632117273 O
atom 3.6231191257578175 6.4560466291220866 25.1885057707027471 Os
atom 8.2568234665795490 9.7209956098517072 24.0564541588329988 Os
atom 9.3902436162749225 8.1123937822633359 24.0564652008811422 O
atom 3.3955240857261031 0.8965554837234557 24.0564611041594105 O
atom 6.1652473506908461 0.4409806701138758 23.7921659047312346 O
atom 6.3928575554442428 8.4076394371466971 26.3205666297125660 Os
atom 6.6204682433726614 8.5680344353814224 24.3207414442663001 O
atom 7.5262897000743285 6.7990452481130701 26.3205627696728612 O
atom 5.2594624675454256 10.0162145572799020 26.3205672705746778 O
atom 8.0291786963995087 9.5606348033036586 26.0562676137342351 O
atom 7.2986837562561568 1.2395335140004391 25.1885035132393043 Os
atom 11.9324101805895051 4.5044384387292160 24.0564459596186211 Os
atom 1.9867893473906468 2.8958692276895257 24.0564375235356636 O
atom 10.7989792885723350 6.1130324463984920 24.0564426985721838 O
atom 2.4897433141642087 5.6573963751550416 23.7921593137702736 O
atom 10.0684434593419372 3.1910849822324754 26.3205563587523770 Os
atom 10.2960828677096661 3.3514523476339999 24.3207416414288922 O
atom 11.2018406762216127 1.5825111026842547 26.3205558910648350 O
atom 8.9350173334334180 4.7996829968662089 26.3205469274349539 O
atom 11.7048049210044987 4.3440409334889445 26.0562712219484567 O
atom 11.0265969219825859 7.7693930369241260 22.9243970100725889 Os
atom 11.9323720901609196 8.4076261069433542 26.3205553807939268 Os
atom 12.1599967914039819 8.5680091635962796 24.3207436469102767 O
atom 13.0657971790768883 6.7990412190165532 26.3205723960293057 O
atom 10.7989767952410194 10.0162129750262601 26.3205684138560088 O
atom 13.5687096039692747 9.5606022326085363 26.0562662760545649 O
atom 9.1626338811084516 6.4560390769119431 25.1885042713848826 Os
atom 13.7963332607400098 9.7209780657865306 24.0564480019272295 Os
atom 3.8507428479361718 8.1123976437891709 24.0564570990611699 O
atom 8.9350386651934421 0.8965543902709572 24.0564630788759075 O
atom 0.6257463989346256 0.4409528470407817 23.7921565020851986 O
