#===============================================================================
# Created using the Atomic Simulation Environment (ASE)

# Mon Mar 23 14:01:10 2026

#=======================================================
lattice_vector 11.0790232517419795 0.0000000000000000 0.0000000000000000 
lattice_vector 3.7278993459126002 10.4330108955597858 0.0000000000000000 
lattice_vector 0.0000000000000000 0.0000000000000000 38.7921631020467927 
atom 7.3510678575034731 5.1795911639853713 15.8677656473325754 Os
atom 10.3484457547038442 7.2915388192174140 15.0000034550151682 O
atom 8.4844548013425314 2.0750903487580747 15.0000039619219372 O
atom 9.2150168050589958 10.3961012776981736 15.8677674090118330 Os
atom 4.8089540202309680 7.2915050605588787 15.0000000000000000 O
atom 12.8905766413380665 5.1795981229247579 15.8677670533435133 Os
atom 2.9449684465706358 2.0750617992625200 15.0000052183968151 O
atom 3.6231390406443258 2.5528837907086235 20.3959844091004108 Os
atom 8.2568571091134118 5.8178103955655729 19.2639338439970942 Os
atom 8.4844869799118712 5.9781851403383239 17.2641163500835049 O
atom 9.3902608450683829 4.2092284370529329 19.2639154363516028 O
atom 7.1234320345153970 7.4263960980348855 19.2639166601927485 O
atom 9.8931963081135113 6.9707755985558482 18.9996371224669645 O
atom 5.4870986255471692 3.8662443722287159 18.1318754186277751 Os
atom 10.1208226154144203 7.1311640513137329 16.9998253135537141 Os
atom 6.6205169378446920 4.6648314459406679 19.5282222167830000 O
atom 11.2542168290299642 5.5225751065369968 16.9998184314609588 O
atom 8.9873912714659721 8.7397462792377425 16.9998135416048868 O
atom 11.7571668569415113 8.2841263284012197 16.7355304074613755 O
atom 7.3510479426169599 9.0827540023988327 18.1318777149524024 Os
atom 8.2568529375260962 1.9146920875686690 16.9998261030826470 Os
atom 8.4844253303959807 9.8813938710411140 19.5282227236897690 O
atom 9.3902730872214715 0.3060902599802945 16.9998371451307975 O
atom 7.1234529025852495 3.5232628570002009 16.9998330484090694 O
atom 9.8931761675499921 3.0676880433906213 16.7355378489808899 O
atom 5.4870879881998489 7.7693939044214275 20.3959861707796648 Os
atom 6.3928870263907944 0.6013359148636562 19.2639385739622213 Os
atom 6.6204977143192085 0.7617309130983819 17.2641133885159554 O
atom 11.2542185169334843 9.4257526213898153 19.2639347139225094 O
atom 5.2594919384919621 2.2099110349968623 19.2639392148243260 O
atom 8.0292081673460540 1.7543312810206177 18.9996395579838904 O
atom 11.0266125731153100 3.8662408872771854 18.1318754574889560 Os
atom 4.5813157457066715 7.1311458120059630 16.9998179038682729 Os
atom 12.1600484551138042 4.6647976872821317 19.5282187617678318 O
atom 5.7147181642497893 5.5225766009662740 16.9998094677853189 O
atom 3.4478848536894984 8.7397398196752381 16.9998146428218391 O
atom 6.2176721310233507 8.2841037484317894 16.7355312580199254 O
atom 9.1626478244789222 2.5528907496480127 20.3959858151113416 Os
atom 2.7173490244591059 5.8177923555092219 19.2639283030020287 Os
atom 2.9449884328268299 5.9781597209107495 17.2641135856785439 O
atom 3.8507462413387752 4.2092184759610021 19.2639278353144903 O
atom 12.6629461502925693 7.4263903701429514 19.2639188716846093 O
atom 4.3537104861216669 6.9707483067656923 18.9996431661981120 O
atom 14.7545257388417301 10.3961004102008712 15.8677689543222442 Os
atom 0.8533783093654915 0.6013225846603152 19.2639273250435785 Os
atom 1.0810030106085446 0.7617056413132404 17.2641155911599284 O
atom 5.7147027441940601 9.4257485922932993 19.2639443402789574 O
atom 10.7990062661875665 2.2099094527432217 19.2639403581056570 O
atom 2.4897158231738366 1.7542987103254950 18.9996382203042238 O
atom 12.8905626979675976 9.0827464501886901 18.1318762156345343 Os
atom 2.7173394799445725 1.9146745435034924 16.9998199461768849 Os
atom 14.0239622273660682 9.8813653215455588 19.5282239801646469 O
atom 3.8507723188827141 0.3060941215061326 16.9998290433108181 O
atom 1.5839442303106142 3.5232617635477017 16.9998350231255593 O
atom 4.3536752157937624 3.0676602203175278 16.7355284463348468 O
atom 4.5289282922542631 3.1911030222888259 23.7921526057649260 Os
atom 4.7565581630527145 3.3514777670615787 21.7923351118513366 O
atom 5.6623320282092360 1.5825210637761866 23.7921341981194345 O
atom 3.3955032176562474 4.7996887247581341 23.7921354219605874 O
atom 6.1652674912543644 4.3440682252791003 23.5278558842348033 O
atom 1.7591698086880263 1.2395369989519684 22.6600941803956104 Os
atom 6.3928937985552734 4.5044566780369841 21.5280440753215458 Os
atom 7.5262880121708173 2.8958677332602498 21.5280371932287906 O
atom 5.2594624546068305 6.1130389059609973 21.5280323033727150 O
atom 8.0292380400823617 5.6574189551244736 21.2637491692292144 O
atom 3.6231191257578175 6.4560466291220866 22.6600964767202342 Os
atom 8.2568234665795490 9.7209956098517072 21.5280448648504859 Os
atom 9.3902436162749225 8.1123937822633359 21.5280559068986292 O
atom 3.3955240857261031 0.8965554837234557 21.5280518101768976 O
atom 6.1652473506908461 0.4409806701138758 21.2637566107487217 O
atom 6.3928575554442428 8.4076394371466971 23.7921573357300531 Os
atom 6.6204682433726614 8.5680344353814224 21.7923321502837872 O
atom 7.5262897000743285 6.7990452481130701 23.7921534756903483 O
atom 5.2594624675454256 10.0162145572799020 23.7921579765921649 O
atom 8.0291786963995087 9.5606348033036586 23.5278583197517221 O
atom 7.2986837562561568 1.2395335140004391 22.6600942192567913 Os
atom 11.9324101805895051 4.5044384387292160 21.5280366656361082 Os
atom 1.9867893473906468 2.8958692276895257 21.5280282295531507 O
atom 10.7989792885723350 6.1130324463984920 21.5280334045896709 O
atom 2.4897433141642087 5.6573963751550416 21.2637500197877607 O
atom 10.0684434593419372 3.1910849822324754 23.7921470647698641 Os
atom 10.2960828677096661 3.3514523476339999 21.7923323474463793 O
atom 11.2018406762216127 1.5825111026842547 23.7921465970823220 O
atom 8.9350173334334180 4.7996829968662089 23.7921376334524410 O
atom 11.7048049210044987 4.3440409334889445 23.5278619279659438 O
atom 11.0265969219825859 7.7693930369241260 20.3959877160900760 Os
atom 11.9323720901609196 8.4076261069433542 23.7921460868114139 Os
atom 12.1599967914039819 8.5680091635962796 21.7923343529277638 O
atom 13.0657971790768883 6.7990412190165532 23.7921631020467927 O
atom 10.7989767952410194 10.0162129750262601 23.7921591198734959 O
atom 13.5687096039692747 9.5606022326085363 23.5278569820720520 O
atom 9.1626338811084516 6.4560390769119431 22.6600949774023697 Os
atom 13.7963332607400098 9.7209780657865306 21.5280387079447166 Os
atom 3.8507428479361718 8.1123976437891709 21.5280478050786570 O
atom 8.9350386651934421 0.8965543902709572 21.5280537848933946 O
atom 0.6257463989346256 0.4409528470407817 21.2637472081026857 O
