#===============================================================================
# Created using the Atomic Simulation Environment (ASE)

# Mon Mar 23 14:01:11 2026

#=======================================================
lattice_vector 11.0790232517419795 0.0000000000000000 0.0000000000000000 
lattice_vector -0.0000294709465473 9.0245852999700116 0.0000000000000000 
lattice_vector 0.0000000000000000 0.0000000000000000 39.4666879011342289 
atom 5.2594919255533785 3.6475410122736265 15.0000243279575614 O
atom 8.0292675110289125 3.1208199147955176 15.0000323558798208 O
atom 3.6231485967043651 4.5122740019198169 15.8071553255922161 Os
atom 6.3928870263907918 6.7684380643996391 15.8071521678292655 Os
atom 5.2594919384919709 8.1598625022802640 15.0000264336462017 O
atom 8.0292081673460576 7.6331678847453102 15.0000000000000000 O
atom 10.7990087595188786 3.6475359772772538 15.0000285216955191 O
atom 2.4897727851107510 3.1208008098090834 15.0000444214491289 O
atom 9.1626478244789222 9.0245624469075256 15.8071562841939226 Os
atom 0.8533783093654924 6.7684208894079250 15.8071491260943375 Os
atom 10.7990062661875683 8.1598617072826034 15.0000282165083654 O
atom 2.4897158231738374 7.6331390397591345 15.0000151857281736 O
atom 3.6231390406443249 9.0245557219095183 15.8071585597391220 Os
atom 4.5289577632008129 2.2561101674186119 18.4246221519336473 Os
atom 4.7565876339992741 1.3913970640838569 16.6143013746555042 O
atom 5.6623614991557814 0.8646708995659866 19.2317359490335029 O
atom 3.3955326886028034 3.6475348152743776 17.6174756894973470 O
atom 6.1652969622009097 3.1208150477738617 17.6174871036252476 O
atom 1.7591698086880212 9.0245557948892383 18.4246139751935871 Os
atom 6.3929232695018214 2.2561166544355675 15.8071643657121612 Os
atom 2.8926175919320931 1.3913892070621514 19.2317568761204853 O
atom 7.5263174831173654 0.8646771265517258 16.6142916379237349 O
atom 1.5315631086942254 3.6475288382415529 20.2349414026689089 O
atom 4.3013386941697638 3.1208077407634440 20.2349494305911719 O
atom 10.9742430315871964 4.5122618278877429 21.0420724003035673 Os
atom 4.5289241206669484 6.7684325773906151 18.4246067849053503 Os
atom 4.7565259844833845 5.9037374840285235 16.6142701880304173 O
atom 5.6623442703623175 5.3769908995235767 19.2317560257134872 O
atom 3.3955240857261062 8.1598564152542821 17.6174886871386533 O
atom 6.1652473506908496 7.6331683077292150 17.6174636302706205 O
atom 1.7591886422872522 4.5122619049082440 18.4246162797539803 Os
atom 2.6649582095316457 6.7684258903675651 21.0420692425406202 Os
atom 2.8925688974600563 5.9037264470210395 19.2317316495817394 O
atom 7.5263191710208828 5.3769955165716317 16.6142846855124233 O
atom 1.5315631216328172 8.1598503282481900 20.2349435083575493 O
atom 4.3012793504869107 7.6331557107132362 20.2349170747113547 O
atom 7.2986837562561586 9.0245527998909552 18.4246157574344878 Os
atom 0.8534163997940737 2.2560971594401455 15.8071671081453360 Os
atom 8.4321491092012035 1.3913582720784092 19.2317708264228777 O
atom 1.9868188183371878 0.8646739215827766 16.6142831344553841 O
atom 7.0710799426597299 3.6475238032451802 20.2349455964068703 O
atom 9.8408672199935818 3.1207886357770098 20.2349614961604729 O
atom 5.4347190076197736 9.0245502728754516 21.0420733589052702 Os
atom 10.0684729302884808 2.2560917824194417 18.4246264108143620 Os
atom 10.2961123386562079 1.3913736890931618 16.6143117380064567 O
atom 0.1228468954261746 0.8646685045428416 19.2317516723123347 O
atom 8.9350468043799669 3.6475309702728769 17.6174804765011785 O
atom 0.6258111402090669 3.1207944727939929 17.6175060255358176 O
atom 7.2986975760699897 4.5122619299017863 18.4246180517334253 Os
atom 8.2044727442483154 6.7684087153758510 21.0420662008056851 Os
atom 8.4320974454913795 5.9037056920317097 19.2317462353687532 O
atom 1.9868033982814581 5.3769968615528283 16.6142950340090678 O
atom 7.0710774493284161 8.1598495332505294 20.2349452912197165 O
atom 9.8408102580566652 7.6331268657270606 20.2349322604395212 O
atom 9.1626633520550040 4.5122667169220287 15.8071578181088874 Os
atom 10.0684339148274020 6.7684143123835794 18.4246102621498835 Os
atom 10.2960628814534623 5.9037134190518650 16.6142856000167924 O
atom 0.1228435020235700 5.3769901745517066 19.2317470800282351 O
atom 8.9350386651934475 8.1598564602564814 17.6174909439324807 O
atom 0.6257463989346180 7.6331395227398673 17.6174694575802349 O
atom 10.9742334755271607 9.0245435478774443 21.0420756344504767 Os
atom 0.8010289463416671 2.2560979933865379 23.6595392266449949 Os
atom 1.0286588171401210 1.3913848900517833 21.8492184493668482 O
atom 1.9344326822966358 0.8646587255339129 24.4666530237448576 O
atom 10.7466271234856308 3.6475226412423036 22.8523927642087017 O
atom 2.4373681453417642 3.1208028737417872 22.8524041783365988 O
atom 9.1102642435708585 9.0245436208571643 23.6595310499049418 Os
atom 2.6649944526426750 2.2561044804034940 21.0420814404235124 Os
atom 10.2437120268149311 1.3913770330300776 24.4666739508318365 O
atom 3.7983886662582140 0.8646649525196521 21.8492087126350825 O
atom 0.8009953038078025 6.7684204033585420 23.6595238596167050 Os
atom 1.0285971676242336 5.9037253099964504 21.8491872627417649 O
atom 1.9344154535031766 5.3769787254915027 24.4666731004248348 O
atom 10.7466185206089300 8.1598442412222081 22.8524057618500045 O
atom 2.4373185338316987 7.6331561336971419 22.8523807049819752 O
atom 9.1102830771700862 4.5122497308761709 23.6595333544653279 Os
atom 10.2436633323428961 5.9037142729889673 24.4666487242930906 O
atom 3.7983903541617345 5.3769833425395586 21.8492017602237745 O
atom 3.5707549393970157 9.0245406258588829 23.6595328321458389 Os
atom 8.2045108346769027 2.2560849854080716 21.0420841828566871 Os
atom 4.7042202923420531 1.3913460980463352 24.4666879011342289 O
atom 9.3379132532200213 0.8646617475507028 21.8492002091667423 O
atom 6.3405441134293383 2.2560796083873678 23.6595434855257132 Os
atom 6.5681835217970646 1.3913615150610881 21.8492288127178078 O
atom 7.4739413303090085 0.8646563305107678 24.4666687470236859 O
atom 5.2071179875208271 3.6475187962408033 22.8523975512125261 O
atom 7.9769055750919060 3.1207822987619194 22.8524231002471687 O
atom 3.5707687592108339 4.5122497558697132 23.6595351264447764 Os
atom 4.7041686286322344 5.9036935179996366 24.4666633100801079 O
atom 9.3378978331642930 5.3769846875207543 21.8492121087204154 O
atom 5.4347345351958571 4.5122545428899556 21.0420748928202386 Os
atom 6.3405050979682587 6.7684021383515063 23.6595273368612382 Os
atom 6.5681340645943189 5.9037012450197919 21.8492026747281400 O
atom 7.4739379369063990 5.3769780005196335 24.4666641547395862 O
atom 5.2071098483342961 8.1598442862244074 22.8524080186438319 O
atom 7.9768408338174517 7.6331273487077951 22.8523865322915896 O
