#===============================================================================
# Created using the Atomic Simulation Environment (ASE)

# Mon Mar 23 14:01:11 2026

#=======================================================
lattice_vector 11.0790232517419795 0.0000000000000000 0.0000000000000000 
lattice_vector -0.0000294709465473 9.0245852999700116 0.0000000000000000 
lattice_vector 0.0000000000000000 0.0000000000000000 44.7016049758455765 
atom 8.9874207424125210 3.6475531863057000 15.0000243279575578 O
atom 0.6781730761460792 3.1208320888275916 15.0000323558798190 O
atom 7.3510774135635133 4.5122861759518909 15.8071553255922126 Os
atom 10.1208158432499378 6.7684502384317122 15.8071521678292637 Os
atom 8.9874207553511134 8.1598746763123380 15.0000264336461981 O
atom 0.6781137324632249 7.6331800587773833 15.0000000000000000 O
atom 3.4479143246360446 3.6475481513093277 15.0000285216955191 O
atom 6.2177016019698996 3.1208129838411574 15.0000444214491253 O
atom 1.8115533895960887 9.0245746209395996 15.8071562841939208 Os
atom 4.5813071262246376 6.7684330634399990 15.8071491260943340 Os
atom 3.4479118313047326 8.1598738813146774 15.0000282165083636 O
atom 6.2176446400329857 7.6331512137912085 15.0000151857281718 O
atom 7.3510678575034731 9.0245678959415923 15.8071585597391184 Os
atom 8.2568865800599625 2.2561223414506855 18.4246221519336402 Os
atom 8.4845164508584165 1.3914092381159306 16.6143013746554971 O
atom 9.3902903160149283 0.8646830735980605 19.2317359490334994 O
atom 7.1234615054619521 3.6475469893064507 17.6174756894973434 O
atom 9.8932257790600548 3.1208272218059352 17.6174871036252476 O
atom 5.4870986255471665 9.0245679689213123 18.4246139751935871 Os
atom 10.1208520863609728 2.2561288284676411 15.8071643657121612 Os
atom 6.6205464087912436 1.3914013810942250 19.2317568761204853 O
atom 0.1752230482345314 0.8646893005837997 16.6142916379237313 O
atom 5.2594919255533785 3.6475410122736265 20.2349414026689089 O
atom 8.0292675110289125 3.1208199147955176 20.2349494305911684 O
atom 3.6231485967043651 4.5122740019198169 21.0420724003035637 Os
atom 8.2568529375260944 6.7684447514226882 18.4246067849053503 Os
atom 8.4844548013425314 5.9037496580605975 16.6142701880304138 O
atom 9.3902730872214715 5.3770030735556498 19.2317560257134836 O
atom 7.1234529025852495 8.1598685892863561 17.6174886871386498 O
atom 9.8931761675499992 7.6331804817612889 17.6174636302706205 O
atom 5.4871174591463951 4.5122740789403180 18.4246162797539768 Os
atom 6.3928870263907918 6.7684380643996391 21.0420692425406131 Os
atom 6.6204977143192050 5.9037386210531135 19.2317316495817394 O
atom 0.1752247361380516 5.3770076906037056 16.6142846855124233 O
atom 5.2594919384919709 8.1598625022802640 20.2349435083575493 O
atom 8.0292081673460576 7.6331678847453102 20.2349170747113476 O
atom 11.0266125731153064 9.0245649739230309 18.4246157574344842 Os
atom 4.5813452166532214 2.2561093334722186 15.8071671081453360 Os
atom 1.0810546743183702 1.3913704461104830 19.2317708264228742 O
atom 5.7147476351963356 0.8646860956148504 16.6142831344553841 O
atom 10.7990087595188786 3.6475359772772538 20.2349455964068667 O
atom 2.4897727851107510 3.1208008098090834 20.2349614961604765 O
atom 9.1626478244789222 9.0245624469075256 21.0420733589052702 Os
atom 2.7173784954056499 2.2561039564515153 18.4246264108143620 Os
atom 2.9450179037733792 1.3913858631252356 16.6143117380064567 O
atom 3.8507757122853228 0.8646806785749154 19.2317516723123312 O
atom 1.5839523694971389 3.6475431443049504 17.6174804765011750 O
atom 4.3537399570682105 3.1208066468260660 17.6175060255358105 O
atom 11.0266263929291348 4.5122741039338603 18.4246180517334217 Os
atom 0.8533783093654924 6.7684208894079250 21.0420662008056851 Os
atom 1.0810030106085460 5.9037178660637837 19.2317462353687532 O
atom 5.7147322151406090 5.3770090355849023 16.6142950340090643 O
atom 10.7990062661875683 8.1598617072826034 20.2349452912197130 O
atom 2.4897158231738374 7.6331390397591345 20.2349322604395212 O
atom 1.8115689171721721 4.5122788909541027 15.8071578181088856 Os
atom 2.7173394799445729 6.7684264864156525 18.4246102621498835 Os
atom 2.9449684465706336 5.9037255930839390 16.6142856000167889 O
atom 3.8507723188827159 5.3770023485837806 19.2317470800282351 O
atom 1.5839442303106128 8.1598686342885554 17.6174909439324772 O
atom 4.3536752157937668 7.6331516967719413 17.6174694575802349 O
atom 3.6231390406443249 9.0245557219095183 21.0420756344504696 Os
atom 4.5289577632008129 2.2561101674186119 23.6595392266449949 Os
atom 4.7565876339992741 1.3913970640838569 21.8492184493668518 O
atom 5.6623614991557814 0.8646708995659866 24.4666530237448505 O
atom 3.3955326886028034 3.6475348152743776 22.8523927642086946 O
atom 6.1652969622009097 3.1208150477738617 22.8524041783365952 O
atom 1.7591698086880212 9.0245557948892383 23.6595310499049347 Os
atom 6.3929232695018214 2.2561166544355675 21.0420814404235088 Os
atom 2.8926175919320931 1.3913892070621514 24.4666739508318329 O
atom 7.5263174831173654 0.8646771265517258 21.8492087126350825 O
atom 1.5315631086942254 3.6475288382415529 25.4698584773802565 O
atom 4.3013386941697638 3.1208077407634440 25.4698665053025195 O
atom 10.9742430315871964 4.5122618278877429 26.2769894750149149 Os
atom 4.5289241206669484 6.7684325773906151 23.6595238596166979 Os
atom 4.7565259844833845 5.9037374840285235 21.8491872627417649 O
atom 5.6623442703623175 5.3769908995235767 24.4666731004248348 O
atom 3.3955240857261062 8.1598564152542821 22.8524057618500009 O
atom 6.1652473506908496 7.6331683077292150 22.8523807049819681 O
atom 1.7591886422872522 4.5122619049082440 23.6595333544653279 Os
atom 2.6649582095316457 6.7684258903675651 26.2769863172519678 Os
atom 2.8925688974600563 5.9037264470210395 24.4666487242930870 O
atom 7.5263191710208828 5.3769955165716317 21.8492017602237709 O
atom 1.5315631216328172 8.1598503282481900 25.4698605830688969 O
atom 4.3012793504869107 7.6331557107132362 25.4698341494227023 O
atom 7.2986837562561586 9.0245527998909552 23.6595328321458354 Os
atom 0.8534163997940737 2.2560971594401455 21.0420841828566836 Os
atom 8.4321491092012035 1.3913582720784092 24.4666879011342253 O
atom 1.9868188183371878 0.8646739215827766 21.8492002091667317 O
atom 7.0710799426597299 3.6475238032451802 25.4698626711182179 O
atom 9.8408672199935818 3.1207886357770098 25.4698785708718205 O
atom 5.4347190076197736 9.0245502728754516 26.2769904336166178 Os
atom 10.0684729302884808 2.2560917824194417 23.6595434855257096 Os
atom 10.2961123386562079 1.3913736890931618 21.8492288127178043 O
atom 0.1228468954261746 0.8646685045428416 24.4666687470236823 O
atom 8.9350468043799669 3.6475309702728769 22.8523975512125261 O
atom 0.6258111402090669 3.1207944727939929 22.8524231002471652 O
atom 7.2986975760699897 4.5122619299017863 23.6595351264447729 Os
atom 8.2044727442483154 6.7684087153758510 26.2769832755170327 Os
atom 8.4320974454913795 5.9037056920317097 24.4666633100801008 O
atom 1.9868033982814581 5.3769968615528283 21.8492121087204154 O
atom 7.0710774493284161 8.1598495332505294 25.4698623659310641 O
atom 9.8408102580566652 7.6331268657270606 25.4698493351508688 O
atom 9.1626633520550040 4.5122667169220287 21.0420748928202350 Os
atom 10.0684339148274020 6.7684143123835794 23.6595273368612311 Os
atom 10.2960628814534623 5.9037134190518650 21.8492026747281400 O
atom 0.1228435020235700 5.3769901745517066 24.4666641547395827 O
atom 8.9350386651934475 8.1598564602564814 22.8524080186438283 O
atom 0.6257463989346180 7.6331395227398673 22.8523865322915825 O
atom 10.9742334755271607 9.0245435478774443 26.2769927091618243 Os
atom 0.8010289463416671 2.2560979933865379 28.8944563013563425 Os
atom 1.0286588171401210 1.3913848900517833 27.0841355240781958 O
atom 1.9344326822966358 0.8646587255339129 29.7015700984562052 O
atom 10.7466271234856308 3.6475226412423036 28.0873098389200493 O
atom 2.4373681453417642 3.1208028737417872 28.0873212530479464 O
atom 9.1102642435708585 9.0245436208571643 28.8944481246162894 Os
atom 2.6649944526426750 2.2561044804034940 26.2769985151348600 Os
atom 10.2437120268149311 1.3913770330300776 29.7015910255431841 O
atom 3.7983886662582140 0.8646649525196521 27.0841257873464301 O
atom 0.8009953038078025 6.7684204033585420 28.8944409343280526 Os
atom 1.0285971676242336 5.9037253099964504 27.0841043374531125 O
atom 1.9344154535031766 5.3769787254915027 29.7015901751361824 O
atom 10.7466185206089300 8.1598442412222081 28.0873228365613521 O
atom 2.4373185338316987 7.6331561336971419 28.0872977796933228 O
atom 9.1102830771700862 4.5122497308761709 28.8944504291766755 Os
atom 10.2436633323428961 5.9037142729889673 29.7015657990044382 O
atom 3.7983903541617345 5.3769833425395586 27.0841188349351221 O
atom 3.5707549393970157 9.0245406258588829 28.8944499068571865 Os
atom 8.2045108346769027 2.2560849854080716 26.2770012575680347 Os
atom 4.7042202923420531 1.3913460980463352 29.7016049758455765 O
atom 9.3379132532200213 0.8646617475507028 27.0841172838780899 O
atom 6.3405441134293383 2.2560796083873678 28.8944605602370608 Os
atom 6.5681835217970646 1.3913615150610881 27.0841458874291554 O
atom 7.4739413303090085 0.8646563305107678 29.7015858217350335 O
atom 5.2071179875208271 3.6475187962408033 28.0873146259238737 O
atom 7.9769055750919060 3.1207822987619194 28.0873401749585163 O
atom 3.5707687592108339 4.5122497558697132 28.8944522011561240 Os
atom 4.7041686286322344 5.9036935179996366 29.7015803847914555 O
atom 9.3378978331642930 5.3769846875207543 27.0841291834317630 O
atom 5.4347345351958571 4.5122545428899556 26.2769919675315862 Os
atom 6.3405050979682587 6.7684021383515063 28.8944444115725858 Os
atom 6.5681340645943189 5.9037012450197919 27.0841197494394876 O
atom 7.4739379369063990 5.3769780005196335 29.7015812294509338 O
atom 5.2071098483342961 8.1598442862244074 28.0873250933551795 O
atom 7.9768408338174517 7.6331273487077951 28.0873036070029372 O
