#===============================================================================
# Created using the Atomic Simulation Environment (ASE)

# Mon Mar 23 14:01:09 2026

#=======================================================
lattice_vector 22.0103944943716279 0.0000000000000000 0.0000000000000000 
lattice_vector -8.8041042034015895 10.7828962547440934 0.0000000000000000 
lattice_vector 0.0000000000000000 0.0000000000000000 38.4515673082567915 
atom 12.1058117346950453 3.1450462349423365 15.2072177874946419 Os
atom 14.3068380136220945 0.4493244433883460 15.2072164382274089 Os
atom 4.4021916553725715 3.5943374418122089 16.2118593628338417 Os
atom 9.7998720832560320 1.2622605306184955 15.2072272107259288 O
atom 4.5071030940319865 9.5277396899291844 15.6059224843464861 O
atom 1.8693046008480843 9.6204175671206187 15.8131445307333394 O
atom 12.4376677947565302 1.1695888992848356 15.0000000000000000 O
atom 11.7739596369363486 5.1205031178026204 15.4144341216031364 O
atom 14.4117528529989123 5.0278285178273494 15.2072105361436059 O
atom 6.6032151302756814 0.8986149765692093 16.2118592015871812 Os
atom 7.3719036891746130 10.5119490451579374 15.4144309658715812 O
atom 10.0097040204421077 10.4192775343316750 15.2072123038374158 O
atom 7.7037619584862069 8.5364865024902166 15.2072179222212185 Os
atom 9.9047896819066548 5.8407611069191789 15.2072169893671472 Os
atom 5.3978245609828228 6.6536994799681715 15.2072243488998780 O
atom 8.9091599585694237 4.1362842230749521 15.6059276037691532 O
atom 6.2713611702052781 4.2289575413865554 15.8131482988665226 O
atom 8.0356213726741927 6.5610287651712937 15.0000044784696129 O
atom 1.1006199882522658 3.1450464083802396 15.2072204043334480 Os
atom 3.3016442905217822 0.4493263531204844 15.2072228395354401 Os
atom 15.4073886610534281 3.5943375915196838 16.2118576645220216 Os
atom 20.8050704350633140 1.2622623088881095 15.2072271209006686 O
atom -6.4980934912739707 9.5277379390443020 15.6059238601434132 O
atom 12.8745061770623543 9.6204118361121509 15.8131470986029932 O
atom 1.4324733471619184 1.1695885286661591 15.0000059563269659 O
atom 0.7687670139693881 5.1205024112417270 15.4144395716922809 O
atom 3.4065606861857898 5.0278306575924763 15.2072140960338551 O
atom 17.6084098372475424 0.8986147008726261 16.2118523879387872 Os
atom -3.6332909641447406 10.5119512999514075 15.4144347094879066 O
atom -0.9954924351604969 10.4192831101458570 15.2072125242738494 O
atom -3.3014311743127593 8.5364902908992466 15.2072200246669063 Os
atom -1.1004020734708828 5.8407614099884180 15.2072211697966573 Os
atom 11.0053368768682116 8.9857792776776026 16.2118593546830851 Os
atom 16.4030218439748303 6.6537045664914247 15.2072271494710911 O
atom -2.0960364791777812 4.1362836516091681 15.6059247827700389 O
atom 17.2765612572092238 4.2289596044704405 15.8131494337752692 O
atom -2.9695732985494434 6.5610297638494073 15.0000060747029593 O
atom 3.3017101072421329 4.9422143341848397 19.2257816557768990 Os
atom 5.5027363861691763 2.2464925426308500 19.2257803065096624 Os
atom 2.2011613649330486 1.7972028328632630 18.2211384290506224 Os
atom -4.4019099720803441 5.3915055410547099 20.2304232311160987 Os
atom 0.9957704558031200 3.0594286298609972 19.2257910790081858 O
atom 13.5382167223349619 2.9597168547728052 16.6105710269429494 O
atom 4.5071056699806613 0.5420115344275906 19.6244863526287432 O
atom 11.7739576513041744 0.6276460435976468 17.4237125856367179 O
atom 14.4117564173014863 0.5349664082230569 17.2164935153823926 O
atom 1.8693071767967568 0.6346894116190263 19.8317083990155965 O
atom 10.9004189044230166 3.0523869944680335 16.8177928447248206 O
atom 3.6335661673036181 2.9667569985273397 19.0185638682822571 O
atom 3.3017074463239768 9.4350852968055747 17.2164971374161198 Os
atom 5.5027374728727789 6.7393443276575118 17.2164991031476546 Os
atom 2.2011683996385925 6.2900590361903186 16.2118657580326371 Os
atom -4.4019131383364627 9.8843641689821684 18.2211462082256404 Os
atom 0.9957699414885138 7.5522923260223545 17.2165059401143239 O
atom 4.7341120403873589 9.2497390540905045 18.6198526467665246 O
atom 4.5071042254843867 5.0348690121295734 17.6152076885727169 O
atom 2.9698580094834290 6.9176712170451236 19.4329979898853900 O
atom 5.6076512255460020 6.8249966170698517 19.2257744044258629 O
atom 1.8693086257605371 5.1275433729337472 17.8224291960630126 O
atom 2.0963181892761820 9.3424116749630279 18.8270761669146687 O
atom 3.6335692307533933 7.4596234424406394 17.0092870290487070 O
atom 7.7037639620166223 4.0436269799647686 17.2165003666578897 Os
atom 9.9047874056257044 1.3479088344271599 17.2165002380612187 Os
atom -2.2008864971772297 2.6957830758117107 20.2304230698694383 Os
atom 0.0001419462768136 4.4929201385625319 18.2211441016373854 Os
atom 5.3978232640906985 2.1608459349293532 17.2165066137127809 O
atom 9.1361690077760507 3.8582965609417665 18.6198509402469412 O
atom 0.1050551782626612 10.4263233853548289 17.6152067863114894 O
atom 7.3719062651232923 1.5262208896563458 19.4329948341538312 O
atom 10.0097065963907799 1.4335493788300850 19.2257761721196729 O
atom -2.5327436682516637 10.5189926943364807 17.8224270650052858 O
atom 6.4983698035234001 3.9509697952783420 18.8270750972924574 O
atom 8.0356177726046152 2.0681707653215762 17.0092839590530822 O
atom -1.1003396689667060 10.3336546017327215 19.2257817905034756 Os
atom 1.1006880544537443 7.6379292061616804 19.2257808576494043 Os
atom -2.2008782237289890 7.1886356988439877 18.2211452835014320 Os
atom 0.0001374786217192 8.9857899181105694 16.2118611019736250 Os
atom -3.4062770664700888 8.4508675792106729 19.2257882171821350 O
atom 9.1361664676021501 8.3511529797155291 16.6105719904260170 O
atom 0.1050583311165077 5.9334523223174536 19.6244914720514103 O
atom 7.3719107283311676 6.0190855552872415 17.4237152678176201 O
atom 10.0097057690253504 5.9264101811937042 17.2164920334427052 O
atom -2.5327404572476331 6.0261256406290578 19.8317121671487797 O
atom 6.4983693965611833 8.4438263308952894 16.8177965802019109 O
atom -0.7684802547787207 8.3581968644137952 19.0185683467518700 O
atom 14.3069128551709817 4.9422145076227411 19.2257842726157051 Os
atom 16.5079371574404981 2.2464944523629886 19.2257867078176972 Os
atom 13.2063615100675822 1.7972019309423022 18.2211395966258038 Os
atom 6.6032870336005178 5.3915056907621857 20.2304215328042787 Os
atom 12.0009688076104037 3.0594304081306110 19.2257909891829257 O
atom 2.5330227308692836 2.9597152042977446 16.6105726027660587 O
atom 15.5123035790463337 0.5420097835427118 19.6244877284256702 O
atom 0.7687597869767018 0.6276388118479943 17.4237178724725510 O
atom 3.4065601361311861 0.5349676442602095 17.2164988021892000 O
atom 12.8745087530110336 0.6346836806105571 19.8317109668852503 O
atom -0.1047734278655526 3.0523898663527955 16.8177950043226971 O
atom 14.6387662140806327 2.9667566279086608 19.0185698246092230 O
atom -7.7034863483549021 9.4350722044221467 17.2165057310528411 Os
atom -5.5024568226676482 6.7393476687686196 17.2165037571530348 Os
atom 13.2063617068476091 6.2900574441448596 16.2118621736395099 Os
atom 6.6032843547853979 9.8843644976023075 18.2211407213664032 Os
atom 12.0009689909553448 7.5522874713791106 17.2165097327416561 O
atom -6.2710830288180688 9.2497413709691134 18.6198602034241780 O
atom 15.5123047820553790 5.0348702353690040 17.6152079498293226 O
atom 13.9750598808881001 6.9176705104842293 19.4330034399745379 O
atom -5.3975409412671240 6.8249987568349768 19.2257779643161086 O
atom 12.8745078809543969 5.1275450489656587 17.8224317190217398 O
atom 13.1015173908448226 9.3424148408149801 18.8270849360690811 O
atom 14.6387662140737778 7.4596131306577087 17.0092897888327244 O
atom -3.3014277844270365 4.0436292438746939 17.2165019506236554 Os
atom -1.1004082673473565 1.3479145197860776 17.2165013892988981 Os
atom 8.8043082097946304 2.6957828001151278 20.2304162562210443 Os
atom 11.0053382408679639 4.4929192603721546 18.2211394190371365 Os
atom 16.4030238206752976 2.1608466743530572 17.2165093938624594 O
atom -1.8690272689164598 3.8582978919196327 18.6198571496946350 O
atom 11.1102544200017874 10.4263230329743806 17.6152036468712296 O
atom 18.3771061061755638 1.5262231444498171 19.4329985777701637 O
atom -0.9954898592118209 1.4335549546442656 19.2257763925561065 O
atom 8.4724551084216362 10.5189975672396319 17.8224278937289711 O
atom 17.5035708878168599 3.9509708469010225 18.8270772038286296 O
atom 19.0408140493186728 2.0681707853998930 17.0092808441242838 O
atom 9.9048616926059516 10.3336583901417480 19.2257838929491669 Os
atom 12.1058907934478288 7.6379295092309194 19.2257850380789179 Os
atom 8.8043152623933914 7.1886401408800484 18.2211438995514854 Os
atom 11.0053394528168909 0.0000511221760123 20.2304232229653422 Os
atom 7.5989202165219139 8.4508726657339270 19.2257910177533518 O
atom -1.8690282840995016 8.3511548711888306 16.6105766852622878 O
atom 11.1102563877409324 5.9334517508516695 19.6244886510522960 O
atom -3.6332858301172593 6.0190855425166268 17.4237201137208118 O
atom -0.9954848727984744 5.9264116308217067 17.2164943440858238 O
atom 8.4724596297563100 6.0261277037129446 19.8317133020575298 O
atom -4.5068256190151006 8.4438288832797728 16.8177978294226165 O
atom 10.2367195683692724 8.3581978630919078 19.0185699429852164 O
atom -5.5023915202107831 6.7393824334273411 23.2443455240591561 Os
atom -3.3013652412837344 4.0436606418733518 23.2443441747919195 Os
atom 15.4074542318517622 3.5943709321057646 22.2397022973328831 Os
atom 14.2020633227218358 4.8565967291035008 23.2443549472904429 O
atom 4.7341150948820490 4.7568849540153071 20.6291348952252065 O
atom 2.9698560238512601 2.4248141428401482 21.4422764539189785 O
atom 5.6076547898485716 2.3321345074655584 21.2350573836646532 O
atom 2.0963172769701059 4.8495550937105349 20.8363567130070741 O
atom 16.8398590342223322 4.7639250977698415 23.0371277365645142 O
atom 3.3017100222726561 0.4493571413039846 21.2350610056983804 Os
atom -3.3013641545801335 8.5365124269000159 21.2350629714299117 Os
atom -6.6029332278143205 8.0872271354328227 20.2304296263148942 Os
atom 17.6084839319838444 0.8986360134805755 22.2397100765078974 Os
atom 14.2020628084072307 9.3494604252648568 21.2350698083965810 O
atom 4.7341146163360364 0.2640108985889142 22.6384165150487782 O
atom -4.2969974019685315 6.8320371113720757 21.6337715568549740 O
atom -5.8342436179694861 8.7148393162876268 23.4515618581676506 O
atom -3.1964504019069149 8.6221647163123531 23.2443382727081200 O
atom 15.0756014926792510 6.9247114721762495 21.8409930643452697 O
atom 2.0963207652248621 0.3566835194614363 22.8456400351969222 O
atom -5.1705323966995191 9.2567915416831408 21.0278508973309641 O
atom -1.1003376654362964 5.8407950792072700 21.2350642349401468 Os
atom 1.1006857781727906 3.1450769336696616 21.2350641063434757 Os
atom 13.2064348131955303 6.2900882378050316 22.2397079699196425 Os
atom 18.6041161310094125 3.9580140341718524 21.2350704819950380 O
atom 0.3320673803231348 5.6554646601842684 22.6384148085291983 O
atom 0.1050577542113444 1.4405952298532338 21.6337706545937465 O
atom -1.4321953623296282 3.3233889888988473 23.4515587024360954 O
atom 1.2056049689378689 3.2307174780725840 23.2443400404019336 O
atom 19.4776534020686434 1.5332645388348896 21.8409909332875429 O
atom -2.3057318239295190 5.7481378945208439 22.8456389655747145 O
atom -0.7684838548482981 3.8653388645640780 21.0278478273353393 O
atom -1.1003370930180285 1.3479264462311280 23.2443456587857327 Os
atom -7.7034135729991702 9.4350973054041827 23.2443447259316613 Os
atom 11.0054146431897308 8.9858037980864900 22.2397091517836891 Os
atom 0.0001400545703940 0.0000617626089790 20.2304249702558820 Os
atom 9.8000158004486178 10.2480356784531779 23.2443520854643992 O
atom 0.3320648401492352 10.1483210789580305 20.6291358587082776 O
atom -1.4321908991217462 7.8162536545297447 21.4422791360998772 O
atom 1.2056041415724348 7.7235782804362074 21.2350559017249623 O
atom -2.3057322308917332 10.2409944301377909 20.8363604484841716 O
atom 12.4378126121399930 10.1553649636562984 23.0371322150341271 O
atom 5.5028112277180661 6.7393826068652443 23.2443481408979622 Os
atom 7.7038355299875807 4.0436625516054878 23.2443505760999543 Os
atom 4.4022598826146684 3.5943700301848041 22.2397034649080609 Os
atom 3.1968671801574868 4.8565985073731124 23.2443548574651828 O
atom 15.7393155977879982 4.7568833035402482 20.6291364710483194 O
atom 13.9750526538954141 2.4248069110904984 21.4422817407548152 O
atom 16.6128530030499029 2.3321357435027110 21.2350626704714571 O
atom 13.1015194390531580 4.8495579655952969 20.8363588726049542 O
atom 5.8346645866277180 4.7639247271511627 23.0371336928914801 O
atom 14.3069107219653979 0.4493440489205563 21.2350695993351017 Os
atom 7.7038360442510658 8.5365157680111245 21.2350676254352919 Os
atom 4.4022600793946989 8.0872255433873619 20.2304260419217670 Os
atom 6.6032869307340754 0.8986363421007174 22.2397045896486603 Os
atom 3.1968673635024283 9.3494555706216129 21.2350736010239132 O
atom 15.7393140415022330 0.2640132154675232 22.6384240717064387 O
atom 6.7082031546024652 6.8320383346115063 21.6337718181115761 O
atom 5.1709582534351872 8.7148386097267316 23.4515673082567950 O
atom 7.8087519256515883 8.6221668560774791 23.2443418325983693 O
atom 4.0704062535014804 6.9247131482081610 21.8409955873039969 O
atom 13.1015199667934965 0.3566866853133898 22.8456488043513417 O
atom 5.8346645866208622 9.2567812299002092 21.0278536571149814 O
atom 9.9048650824916766 5.8407973431171971 21.2350658189059125 Os
atom 12.1058845995713575 3.1450826190285790 21.2350652575811587 Os
atom 2.2012366134150514 6.2900873596146569 22.2397032873193972 Os
atom 7.5989221932223803 3.9580147735955586 21.2350732621447236 O
atom 11.3372655980022561 5.6554659911621341 22.6384210179768885 O
atom 11.1102569959504649 1.4405948774727881 21.6337675151534903 O
atom 9.5730044787226483 3.3233912436923188 23.4515624460524208 O
atom 12.2108030077068914 3.2307230538867695 23.2443402608383671 O
atom 8.4724576843703083 1.5332694117380408 21.8409917620112282 O
atom 8.6994692603639425 5.7481389461435217 22.8456410721108902 O
atom 10.2367124218657572 3.8653388846423944 21.0278447124065444 O
atom 9.9048642685546273 1.3479302346401583 23.2443477612314240 Os
atom 3.3017891659949141 9.4350976084734217 23.2443489063611750 Os
atom 0.0002136349404792 8.9858082401225516 22.2397077678337425 Os
atom -1.2051814109310020 10.2480407649764285 23.2443548860356053 O
atom 11.3372645828192109 10.1483229704313320 20.6291405535445449 O
atom 9.5730070368014530 7.8162536417591282 21.4422839820030688 O
atom 12.2108079941202377 7.7235797300642108 21.2350582123680809 O
atom 8.6994672479036161 10.2409969825222742 20.8363616977048736 O
atom 1.4326179409163549 10.1553659623344110 23.0371338112674735 O
