#===============================================================================
# Created using the Atomic Simulation Environment (ASE)

# Mon Mar 23 14:01:11 2026

#=======================================================
lattice_vector 9.0245853000181313 0.0000000000000000 0.0000000000000000 
lattice_vector 0.0000000000000000 6.4266484300000002 0.0000000000000000 
lattice_vector 0.0000000000000000 0.0000000000000000 54.2908737832254786 
atom 9.0245500500453524 3.2133235400000006 15.8647123666829053 Os
atom 4.5122621700369994 6.4266478700000009 15.8647120116924647 Os
atom 0.8646674333652180 1.6066553200000000 15.0000003199986551 O
atom 0.8646681033658595 4.8199920399999998 15.0000000000000000 O
atom 5.3769903733615649 1.6066654100000000 15.0000066650593737 O
atom 5.3769897733617444 4.8199817200000012 15.0000065750581690 O
atom 9.0245438900338453 6.4266474999999996 15.8647181066705549 Os
atom 2.2560953775112331 1.6066622699999999 18.1208689291559715 Os
atom 1.3913815308264048 6.4266479600000004 17.2561665358143621 O
atom 0.8646524083900342 1.6066532899999999 19.5122805899776033 O
atom 3.6475237267052574 1.6066570200000003 16.7294209383050294 O
atom 3.1207949141852969 0.0000003000000000 18.9855766924688858 O
atom 9.0245138700668619 3.2133235400000006 24.8892869366285119 Os
atom 2.2560957775085666 4.8199864600000000 18.1208702591567707 Os
atom 1.3913797608391336 3.2133245399999999 17.2561601858108169 O
atom 0.8646525483872478 4.8199939800000005 19.5122819799778817 O
atom 3.6475238367053562 4.8199900800000002 16.7294208883052526 O
atom 3.1207936941708647 3.2133240400000003 18.9855838924664440 O
atom 4.5122259900585080 6.4266478700000009 24.8892865816380713 Os
atom 6.7684177875690406 1.6066607200000003 18.1208446142156241 Os
atom 5.9037219509483343 0.0000013400000000 17.2561102309101209 O
atom 5.3769724083798280 1.6066710900000003 19.5122902050324250 O
atom 8.1598453266891973 1.6066640500000000 16.7294334733630627 O
atom 7.6331481742786043 0.0000014100000000 18.9855346675903824 O
atom 4.5122561600269151 3.2133230400000006 15.8647170416804180 Os
atom 6.7684171875669339 4.8199889999999996 18.1208456642144213 Os
atom 5.9037170009329785 3.2133236900000002 17.2561178909001960 O
atom 5.3769709383775810 4.8199787900000004 19.5122913250294800 O
atom 8.1598453266878916 4.8199832400000000 16.7294341233630597 O
atom 7.6331416642903909 3.2133235600000001 18.9855287875773335 O
atom 9.0245289650502443 6.4266478600000001 20.3770025766497049 Os
atom 2.2560581925083674 1.6066617200000000 22.6331630090904916 Os
atom 1.3913307358011879 0.0000001500000000 21.7684717657216069 O
atom 0.8646312533867266 1.6066553200000000 24.0245748899442617 O
atom 3.6475007117027309 1.6066662599999999 21.2417148482679607 O
atom 3.1207564991399956 6.4266482800000002 23.4978919424009511 O
atom 9.0245325250518871 3.2133230799999999 20.3770017566568384 Os
atom 2.2560589025112532 4.8199879000000001 22.6331615690919215 Os
atom 1.3913400658037538 3.2133246000000000 21.7684704857403091 O
atom 0.8646319233873682 4.8199920399999998 24.0245745699456066 O
atom 3.6475017917063792 4.8199836899999999 21.2417130282701230 O
atom 3.1207562491319165 3.2133249599999996 23.4978959724004497 O
atom 4.5122380950400043 0.0000018300000000 20.3770031616532705 Os
atom 6.7683819225764754 1.6066606200000000 22.6331335541527956 Os
atom 5.9036781558991427 0.0000015400000000 21.7684274208313973 O
atom 5.3769541933830736 1.6066654100000000 24.0245812350049803 O
atom 8.1598264416921609 1.6066589100000002 21.2417246433342690 O
atom 7.6330947292520026 0.0000005300000000 23.4978405874923162 O
atom 4.5122367950397457 3.2133238700000000 20.3770032916506629 Os
atom 6.7683814325787424 4.8199888299999998 22.6331324241518139 Os
atom 5.9036797958999063 3.2133234499999999 21.7684270408346840 O
atom 5.3769535933832522 4.8199817200000012 24.0245811450037756 O
atom 8.1598272816925039 4.8199883899999998 21.2417244733359531 O
atom 7.6331012992651539 3.2133241799999999 23.4978340275054869 O
atom 9.0245077100553530 6.4266474999999996 24.8892926766161615 Os
atom 2.2560591975327422 1.6066622699999999 27.1454434991015745 Os
atom 1.3913453508479134 6.4266479600000004 26.2807411057599722 O
atom 0.8646162284115427 1.6066532899999999 28.5368551599232099 O
atom 3.6474875467267660 1.6066570200000003 25.7539955082506360 O
atom 3.1207587342068059 0.0000003000000000 28.0101512624144995 O
atom 9.0244776900883696 3.2133235400000006 33.9138615065741078 Os
atom 2.2560595975300757 4.8199864600000000 27.1454448291023809 Os
atom 1.3913435808606425 3.2133245399999999 26.2807347557564235 O
atom 0.8646163684087563 4.8199939800000005 28.5368565499234883 O
atom 3.6474876567268653 4.8199900800000002 25.7539954582508557 O
atom 3.1207575141923729 3.2133240400000003 28.0101584624120470 O
atom 4.5121898100800157 6.4266478700000009 33.9138611515836743 Os
atom 6.7683816075905501 1.6066607200000003 27.1454191841612307 Os
atom 5.9036857709698438 0.0000013400000000 26.2806848008557310 O
atom 5.3769362284013358 1.6066710900000003 28.5368647749780315 O
atom 8.1598091467107050 1.6066640500000000 25.7540080433086658 O
atom 7.6331119943001111 0.0000014100000000 28.0101092375359890 O
atom 4.5122199800484237 3.2133230400000006 24.8892916116260245 Os
atom 6.7683810075884425 4.8199889999999996 27.1454202341600279 Os
atom 5.9036808209544871 3.2133236900000002 26.2806924608458061 O
atom 5.3769347583990887 4.8199787900000004 28.5368658949750831 O
atom 8.1598091467093994 4.8199832400000000 25.7540086933086698 O
atom 7.6331054843118986 3.2133235600000001 28.0101033575229401 O
atom 9.0244927850717520 6.4266478600000001 29.4015771465953115 Os
atom 2.2560220125298764 1.6066617200000000 31.6577375790360982 Os
atom 1.3912945558226968 0.0000001500000000 30.7930463356672171 O
atom 0.8645950734082352 1.6066553200000000 33.0491494598898612 O
atom 3.6474645317242396 1.6066662599999999 30.2662894182135638 O
atom 3.1207203191615043 6.4266482800000002 32.5224665123465542 O
atom 9.0244963450733966 3.2133230799999999 29.4015763266024486 Os
atom 2.2560227225327618 4.8199879000000001 31.6577361390375209 Os
atom 1.3913038858252624 3.2133246000000000 30.7930450556859121 O
atom 0.8645957434088768 4.8199920399999998 33.0491491398912132 O
atom 3.6474656117278879 4.8199836899999999 30.2662875982157296 O
atom 3.1207200691534256 3.2133249599999996 32.5224705423460563 O
atom 4.5122019150615129 0.0000018300000000 29.4015777315988807 Os
atom 6.7683457425979840 1.6066606200000000 31.6577081240984022 Os
atom 5.9036419759206504 0.0000015400000000 30.7930019907770038 O
atom 5.3769180134045831 1.6066654100000000 33.0491558049505869 O
atom 8.1597902617136686 1.6066589100000002 30.2662992132798756 O
atom 7.6330585492735104 0.0000005300000000 32.5224151574379192 O
atom 4.5122006150612535 3.2133238700000000 29.4015778615962695 Os
atom 6.7683452526002501 4.8199888299999998 31.6577069940974205 Os
atom 5.9036436159214141 3.2133234499999999 30.7930016107802906 O
atom 5.3769174134047608 4.8199817200000012 33.0491557149493786 O
atom 8.1597911017140117 4.8199883899999998 30.2662990432815668 O
atom 7.6330651192866616 3.2133241799999999 32.5224085974510899 O
atom 9.0244715300768625 6.4266474999999996 33.9138672465617645 Os
atom 2.2560230175542504 1.6066622699999999 36.1700180690471740 Os
atom 1.3913091708694223 6.4266479600000004 35.3053156757055717 O
atom 0.8645800484330514 1.6066532899999999 37.5614297298688200 O
atom 3.6474513667482742 1.6066570200000003 34.7785700781962390 O
atom 3.1207225542283146 0.0000003000000000 37.0347258323600954 O
atom 2.2560234175515839 4.8199864600000000 36.1700193990479875 Os
atom 1.3913074008821509 3.2133245399999999 35.3053093257020265 O
atom 0.8645801884302650 4.8199939800000005 37.5614311198690842 O
atom 3.6474514767483739 4.8199900800000002 34.7785700281964552 O
atom 3.1207213342138815 3.2133240400000003 37.0347330323576500 O
atom 6.7683454276120578 1.6066607200000003 36.1699937541068408 Os
atom 5.9036495909913524 0.0000013400000000 35.3052593708013376 O
atom 5.3769000484228462 1.6066710900000003 37.5614393449236417 O
atom 8.1597729667322128 1.6066640500000000 34.7785826132542724 O
atom 7.6330758143216215 0.0000014100000000 37.0346838074815992 O
atom 4.5121838000699324 3.2133230400000006 33.9138661815716347 Os
atom 6.7683448276099529 4.8199889999999996 36.1699948041056274 Os
atom 5.9036446409759966 3.2133236900000002 35.3052670307914127 O
atom 5.3768985784205992 4.8199787900000004 37.5614404649206932 O
atom 8.1597729667309089 4.8199832400000000 34.7785832632542764 O
atom 7.6330693043334090 3.2133235600000001 37.0346779274685503 O
atom 9.0244566050932615 6.4266478600000001 38.4261517165409145 Os
atom 3.6474283517457486 1.6066662599999999 39.2908639881591739 O
atom 9.0244601650949061 3.2133230799999999 38.4261508965480516 Os
atom 3.6474294317493969 4.8199836899999999 39.2908621681613397 O
atom 4.5121657350830215 0.0000018300000000 38.4261523015444766 Os
atom 8.1597540817351781 1.6066589100000002 39.2908737832254786 O
atom 4.5121644350827630 3.2133238700000000 38.4261524315418797 Os
atom 8.1597549217355212 4.8199883899999998 39.2908736132271628 O
