#===============================================================================
# Created using the Atomic Simulation Environment (ASE)

# Mon Mar 23 14:01:09 2026

#=======================================================
lattice_vector 22.0103944943716279 0.0000000000000000 0.0000000000000000 
lattice_vector -8.8041042034015895 10.7828962547440934 0.0000000000000000 
lattice_vector 0.0000000000000000 0.0000000000000000 34.4330034399745344 
atom 3.3017101072421329 4.9422143341848397 15.2072177874946419 Os
atom 5.5027363861691763 2.2464925426308500 15.2072164382274053 Os
atom -4.4019099720803441 5.3915055410547099 16.2118593628338417 Os
atom 0.9957704558031200 3.0594286298609972 15.2072272107259288 O
atom 4.5071056699806613 0.5420115344275906 15.6059224843464861 O
atom 1.8693071767967568 0.6346894116190263 15.8131445307333394 O
atom 3.6335661673036181 2.9667569985273397 15.0000000000000000 O
atom 2.9698580094834290 6.9176712170451236 15.4144341216031329 O
atom 5.6076512255460020 6.8249966170698517 15.2072105361436059 O
atom -2.2008864971772297 2.6957830758117107 16.2118592015871812 Os
atom 7.3719062651232923 1.5262208896563458 15.4144309658715741 O
atom 10.0097065963907799 1.4335493788300850 15.2072123038374158 O
atom -1.1003396689667060 10.3336546017327215 15.2072179222212185 Os
atom 1.1006880544537443 7.6379292061616804 15.2072169893671472 Os
atom -3.4062770664700888 8.4508675792106729 15.2072243488998780 O
atom 0.1050583311165077 5.9334523223174536 15.6059276037691532 O
atom -2.5327404572476331 6.0261256406290578 15.8131482988665226 O
atom -0.7684802547787207 8.3581968644137952 15.0000044784696129 O
atom 14.3069128551709817 4.9422145076227411 15.2072204043334480 Os
atom 16.5079371574404981 2.2464944523629886 15.2072228395354401 Os
atom 6.6032870336005178 5.3915056907621857 16.2118576645220216 Os
atom 12.0009688076104037 3.0594304081306110 15.2072271209006686 O
atom 15.5123035790463337 0.5420097835427118 15.6059238601434132 O
atom 12.8745087530110336 0.6346836806105571 15.8131470986029932 O
atom 14.6387662140806327 2.9667566279086608 15.0000059563269659 O
atom 13.9750598808881001 6.9176705104842293 15.4144395716922809 O
atom -5.3975409412671240 6.8249987568349768 15.2072140960338515 O
atom 8.8043082097946304 2.6957828001151278 16.2118523879387872 Os
atom 18.3771061061755638 1.5262231444498171 15.4144347094879066 O
atom -0.9954898592118209 1.4335549546442656 15.2072125242738494 O
atom 9.9048616926059516 10.3336583901417480 15.2072200246669098 Os
atom 12.1058907934478288 7.6379295092309194 15.2072211697966608 Os
atom 11.0053394528168909 0.0000511221760123 16.2118593546830851 Os
atom 7.5989202165219139 8.4508726657339270 15.2072271494710947 O
atom 11.1102563877409324 5.9334517508516695 15.6059247827700389 O
atom 8.4724596297563100 6.0261277037129446 15.8131494337752727 O
atom 10.2367195683692724 8.3581978630919078 15.0000060747029593 O
atom -5.5023915202107831 6.7393824334273411 19.2257816557768990 Os
atom -3.3013652412837344 4.0436606418733518 19.2257803065096624 Os
atom 15.4074542318517622 3.5943709321057646 18.2211384290506260 Os
atom 14.2020633227218358 4.8565967291035008 19.2257910790081858 O
atom 4.7341150948820490 4.7568849540153071 16.6105710269429494 O
atom 2.9698560238512601 2.4248141428401482 17.4237125856367214 O
atom 5.6076547898485716 2.3321345074655584 17.2164935153823961 O
atom 2.0963172769701059 4.8495550937105349 16.8177928447248171 O
atom 16.8398590342223322 4.7639250977698415 19.0185638682822571 O
atom 3.3017100222726561 0.4493571413039846 17.2164971374161233 Os
atom -3.3013641545801335 8.5365124269000159 17.2164991031476546 Os
atom -6.6029332278143205 8.0872271354328227 16.2118657580326371 Os
atom 17.6084839319838444 0.8986360134805755 18.2211462082256404 Os
atom 14.2020628084072307 9.3494604252648568 17.2165059401143239 O
atom 4.7341146163360364 0.2640108985889142 18.6198526467665211 O
atom -4.2969974019685315 6.8320371113720757 17.6152076885727169 O
atom -5.8342436179694861 8.7148393162876268 19.4329979898853935 O
atom -3.1964504019069149 8.6221647163123531 19.2257744044258629 O
atom 15.0756014926792510 6.9247114721762495 17.8224291960630126 O
atom 2.0963207652248621 0.3566835194614363 18.8270761669146651 O
atom -5.1705323966995191 9.2567915416831408 17.0092870290487070 O
atom -1.1003376654362964 5.8407950792072700 17.2165003666578897 Os
atom 1.1006857781727906 3.1450769336696616 17.2165002380612187 Os
atom 13.2064348131955303 6.2900882378050316 18.2211441016373854 Os
atom 18.6041161310094125 3.9580140341718524 17.2165066137127809 O
atom 0.3320673803231348 5.6554646601842684 18.6198509402469412 O
atom 0.1050577542113444 1.4405952298532338 17.6152067863114894 O
atom -1.4321953623296282 3.3233889888988473 19.4329948341538383 O
atom 1.2056049689378689 3.2307174780725840 19.2257761721196765 O
atom 19.4776534020686434 1.5332645388348896 17.8224270650052858 O
atom -2.3057318239295190 5.7481378945208439 18.8270750972924574 O
atom -0.7684838548482981 3.8653388645640780 17.0092839590530822 O
atom -1.1003370930180285 1.3479264462311280 19.2257817905034756 Os
atom -7.7034135729991702 9.4350973054041827 19.2257808576494043 Os
atom 11.0054146431897308 8.9858037980864900 18.2211452835014320 Os
atom 0.0001400545703940 0.0000617626089790 16.2118611019736250 Os
atom 9.8000158004486178 10.2480356784531779 19.2257882171821421 O
atom 0.3320648401492352 10.1483210789580305 16.6105719904260205 O
atom -1.4321908991217462 7.8162536545297447 17.4237152678176201 O
atom 1.2056041415724348 7.7235782804362074 17.2164920334427052 O
atom -2.3057322308917332 10.2409944301377909 16.8177965802019145 O
atom 12.4378126121399930 10.1553649636562984 19.0185683467518700 O
atom 5.5028112277180661 6.7393826068652443 19.2257842726157051 Os
atom 7.7038355299875807 4.0436625516054878 19.2257867078176972 Os
atom 4.4022598826146684 3.5943700301848041 18.2211395966258038 Os
atom 3.1968671801574868 4.8565985073731124 19.2257909891829257 O
atom 15.7393155977879982 4.7568833035402482 16.6105726027660623 O
atom 13.9750526538954141 2.4248069110904984 17.4237178724725581 O
atom 16.6128530030499029 2.3321357435027110 17.2164988021892000 O
atom 13.1015194390531580 4.8495579655952969 16.8177950043226971 O
atom 5.8346645866277180 4.7639247271511627 19.0185698246092230 O
atom 14.3069107219653979 0.4493440489205563 17.2165057310528447 Os
atom 7.7038360442510658 8.5365157680111245 17.2165037571530348 Os
atom 4.4022600793946989 8.0872255433873619 16.2118621736395099 Os
atom 6.6032869307340754 0.8986363421007174 18.2211407213664032 Os
atom 3.1968673635024283 9.3494555706216129 17.2165097327416561 O
atom 15.7393140415022330 0.2640132154675232 18.6198602034241816 O
atom 6.7082031546024652 6.8320383346115063 17.6152079498293190 O
atom 5.1709582534351872 8.7148386097267316 19.4330034399745379 O
atom 7.8087519256515883 8.6221668560774791 19.2257779643161122 O
atom 4.0704062535014804 6.9247131482081610 17.8224317190217398 O
atom 13.1015199667934965 0.3566866853133898 18.8270849360690846 O
atom 5.8346645866208622 9.2567812299002092 17.0092897888327244 O
atom 9.9048650824916766 5.8407973431171971 17.2165019506236554 Os
atom 12.1058845995713575 3.1450826190285790 17.2165013892989016 Os
atom 2.2012366134150514 6.2900873596146569 18.2211394190371401 Os
atom 7.5989221932223803 3.9580147735955586 17.2165093938624665 O
atom 11.3372655980022561 5.6554659911621341 18.6198571496946315 O
atom 11.1102569959504649 1.4405948774727881 17.6152036468712332 O
atom 9.5730044787226483 3.3233912436923188 19.4329985777701637 O
atom 12.2108030077068914 3.2307230538867695 19.2257763925561100 O
atom 8.4724576843703083 1.5332694117380408 17.8224278937289711 O
atom 8.6994692603639425 5.7481389461435217 18.8270772038286331 O
atom 10.2367124218657572 3.8653388846423944 17.0092808441242873 O
atom 9.9048642685546273 1.3479302346401583 19.2257838929491669 Os
atom 3.3017891659949141 9.4350976084734217 19.2257850380789179 Os
atom 0.0002136349404792 8.9858082401225516 18.2211438995514854 Os
atom -1.2051814109310020 10.2480407649764285 19.2257910177533482 O
atom 11.3372645828192109 10.1483229704313320 16.6105766852622878 O
atom 9.5730070368014530 7.8162536417591282 17.4237201137208118 O
atom 12.2108079941202377 7.7235797300642108 17.2164943440858238 O
atom 8.6994672479036161 10.2409969825222742 16.8177978294226165 O
atom 1.4326179409163549 10.1553659623344110 19.0185699429852164 O
