#===============================================================================
# Created using the Atomic Simulation Environment (ASE)

# Mon Mar 23 14:01:07 2026

#=======================================================
lattice_vector 13.9206623415420374 0.0000000000000000 0.0000000000000000 
lattice_vector -0.0000018384659456 9.8433818399999584 0.0000000000000000 
lattice_vector 0.0000000000000000 0.0000000000000000 50.5220961773942321 
atom 0.0000519582107948 0.0000034050081321 15.6905918570167024 Os
atom 6.9604424128056630 0.0000033400167207 19.1707563459143024 Os
atom 11.4900408396476745 8.1246429280179466 15.6906027587799102 O
atom 1.7401366004801697 9.1012841397819546 16.3811831483201118 O
atom 0.0000768698222407 6.6404414452385296 16.7400827150228793 O
atom 2.4307269527637336 6.6404340019987940 15.6905819946666121 O
atom 12.1806283281540964 5.6638051502346292 15.0000024183203777 O
atom 13.2301493257593723 9.1012817930215206 17.4306822706126425 O
atom 0.0000498793288917 4.9217016650081167 15.6905927196952355 Os
atom 11.4900415184390070 3.2029529680175211 15.6905995909433180 O
atom 1.7401344649841743 4.1795842397812120 16.3811795703853420 O
atom 0.0000809922437476 1.7187427152387500 16.7400819725362737 O
atom 2.4307251566992432 1.7187417119984334 15.6905810471653453 O
atom 12.1806313262627057 0.7421038802345196 15.0000000000000000 O
atom 13.2301517652535132 4.1795834630213617 17.4306798735095327 O
atom 10.4406068243890040 0.0000010550165287 19.1707557024567912 Os
atom 12.1806587589742783 7.3825424250125469 17.4306759434863672 Os
atom 8.7004938099765141 7.3825407800124632 17.4306748757502774 Os
atom 10.4405542156625142 0.0000000300087135 15.6905923731612660 Os
atom 11.1311707872458143 5.6638001670033873 17.4306664131460849 O
atom 12.8712801855376533 6.6404336520072462 19.1707474169675720 O
atom 8.7005196436217531 5.6637976902426344 18.4801642060900555 O
atom 10.4405776418724923 8.1246442247859765 18.1212652404413461 O
atom 10.4406044909270594 4.9216880250161079 19.1707537225696036 Os
atom 12.1806611560068898 2.4608412650117906 17.4306691057533882 Os
atom 8.7005035185170936 2.4608377100127883 17.4306710078077671 Os
atom 10.4405507084364491 4.9216965900087573 15.6905946642071044 Os
atom 11.1311733681731528 0.7421017470034399 17.4306655009660929 O
atom 12.8712804824903682 1.7187406420067632 19.1707440935709386 O
atom 8.7005229175285113 0.7421027602430050 18.4801651889502487 O
atom 10.4405831219306737 3.2029467547861845 18.1212634655678535 O
atom 5.2203322480647643 7.3825420050134474 17.4306794294857212 Os
atom 1.7401625189955179 7.3825440600124264 17.4306746848319669 Os
atom 3.4802206619182927 0.0000032400081058 15.6905894811130899 Os
atom 4.1708370284585357 5.6637992970030542 17.4306657202021782 O
atom 5.9109506057955832 6.6404339020080423 19.1707522747784473 O
atom 1.7401911457330967 5.6637998002432006 18.4801665819472589 O
atom 3.4802497450335381 8.1246442747867444 18.1212687123095435 O
atom 5.2203331813956826 2.4608415850127137 17.4306737726326304 Os
atom 1.7401650433627416 2.4608434800126133 17.4306748050286195 Os
atom 3.4802180668377272 4.9216888900078430 15.6905888518021115 Os
atom 4.1708404649894453 0.7421041870032654 17.4306653949135537 O
atom 5.9109523311032195 1.7187431420076853 19.1707488806594526 O
atom 1.7401928852194013 0.7421053102434498 18.4801677274541802 O
atom 3.4802514562132969 3.2029456647866126 18.1212670152479838 O
atom 6.9603917415332299 0.0000015450087792 15.6905906831510613 Os
atom 0.0001105561209603 0.0000020700163175 19.1707538074065944 Os
atom 4.5297150428828381 8.1246447380183611 15.6906021081986076 O
atom 8.7004724523078494 9.1012796797825484 16.3811843220806637 O
atom 6.9604102326264936 6.6404334452387594 16.7400828988542436 O
atom 9.3910606691347027 6.6404377219992989 15.6905839886869494 O
atom 5.2203009121075832 5.6638008702347635 15.0000007990164974 O
atom 6.2698240946875652 9.1012806230221077 17.4306825392660443 O
atom 6.9603884393466622 4.9216896950084683 15.6905901811246089 Os
atom 0.0001095803204246 4.9216885200163007 19.1707538781183224 Os
atom 4.5297144206040487 3.2029482980179114 15.6905996616221621 O
atom 8.7004731381837939 4.1795816797823386 16.3811827593774844 O
atom 6.9604155854283318 1.7187395752393453 16.7400840372612230 O
atom 9.3910665522184633 1.7187400919991203 15.6905790389008253 O
atom 5.2203051547410233 0.7421032502350585 15.0000005444324671 O
atom 6.2698242856020094 4.1795831430220787 17.4306826453387451 O
atom 6.9604940598926639 0.0000052650248748 22.6509229137664363 Os
atom 8.7005478612132769 7.3825438050206200 20.9108397889532327 Os
atom 5.2203805999898742 7.3825462900205547 20.9108404677887663 Os
atom 0.0002221729454863 0.0000052000334634 26.1310874026640363 Os
atom 4.5298205997874996 8.1246447880346899 22.6509338155296405 O
atom 8.7005787021620336 9.1012859997986979 23.3415142050698421 O
atom 7.6510572802661789 5.6638023870113097 20.9108309445272056 O
atom 6.9605189715041034 6.6404433052552720 23.7004137717726096 O
atom 9.3911690544455961 6.6404358620155381 22.6509130514163388 O
atom 5.2204080882939241 5.6638070102513707 21.9603334750701080 O
atom 6.2699290858992001 9.1012836530382621 24.3910133273623764 O
atom 6.9604664683478008 8.1246479747941596 21.6014301112149241 O
atom 6.9604919810107511 4.9217035250248591 22.6509237764449693 Os
atom 8.7005496572208525 2.4608413650200713 20.9108349099109958 Os
atom 5.2203910722551381 2.4608444000217804 20.9108428082375468 Os
atom 6.9604404258639150 4.9216872800169655 19.1707590824269900 Os
atom 4.5298212785788357 3.2029548280342635 22.6509306476930519 O
atom 8.7005765666660366 4.1795860997979544 23.3415106271350723 O
atom 7.6510581429338842 0.7421041070113670 20.9108312697977574 O
atom 6.9605230939256106 1.7187445752554926 23.7004130292860040 O
atom 9.3911672583811026 1.7187435720151762 22.6509121039150756 O
atom 5.2204110864025299 0.7421057402512623 21.9603310567497338 O
atom 6.2699315253933419 4.1795853230381041 24.3910109302592630 O
atom 6.9604732919538872 3.2029571347952599 21.6014340638947715 O
atom 3.4803865845288269 0.0000029150332707 26.1310867592065250 Os
atom 5.2204385191141007 7.3825442850292902 24.3910070002360975 Os
atom 1.7402735701163394 7.3825426400292065 24.3910059325000113 Os
atom 3.4803339758023366 0.0000018900254577 22.6509234299109927 Os
atom 8.0099320561308751 8.1246461280261340 19.1707659890467852 O
atom 12.1806906181084766 9.1012819297899039 19.8613442643347682 O
atom 4.1709505473856421 5.6638020270201288 24.3909974698958152 O
atom 10.4406274509224648 6.6404338452463323 20.2202451321421179 O
atom 5.9110599456774864 6.6404355120239886 26.1310784737173059 O
atom 1.7402994037615751 5.6637995502593768 25.4404952628397893 O
atom 9.7500407614583473 9.1012814530299355 20.9108470494420970 O
atom 3.4803574020123191 8.1246460848027198 25.0815962971910764 O
atom 3.4803842510668836 4.9216898850328512 26.1310847793193375 Os
atom 5.2204409161467140 2.4608431250285334 24.3910001625031185 Os
atom 1.7402832786569153 2.4608395700295311 24.3910020645574974 Os
atom 3.4803304685762737 4.9216984500254997 22.6509257209568347 Os
atom 8.0099339723439922 3.2029457280255560 19.1707608059474026 O
atom 12.1806902221237134 4.1795827997898023 19.8613442784884882 O
atom 4.1709531283129770 0.7421036070201825 24.3909965577158232 O
atom 10.4406345856277429 1.7187424952469950 20.2202455917120574 O
atom 5.9110602426301950 1.7187425020235061 26.1310751503206689 O
atom 1.7403026776683372 0.7421046202597478 25.4404962456999826 O
atom 9.7500425292183177 4.1795822530300049 20.9108468090201356 O
atom 3.4803628820705033 3.2029486148029278 25.0815945223175873 O
atom 3.4802790053220503 0.0000034250171422 19.1707579793135992 Os
atom 12.1807743497466276 7.3825438650301907 24.3910104862354551 Os
atom 8.7006046206773799 7.3825459200291697 24.3910057415816937 Os
atom 10.4406627636001534 0.0000051000248485 22.6509205378628238 Os
atom 1.0496008005274993 8.1246455180264689 19.1707685487740918 O
atom 5.2203609817918153 9.1012829197905951 19.8613483726128095 O
atom 11.1312791301403990 5.6638011570197966 24.3909967769519085 O
atom 3.4802979277507817 6.6404336152471668 20.2202502162267805 O
atom 12.8713927074774421 6.6404357620247856 26.1310833315281812 O
atom 8.7006332474149630 5.6638016602599430 25.4404976386969892 O
atom 2.7897136919237382 9.1012844630306091 20.9108492272978950 O
atom 10.4406918467154046 8.1246461348034877 25.0815997690592809 O
atom 3.4802749960454604 4.9216871350170388 19.1707595279030407 Os
atom 12.1807752830775424 2.4608434450294565 24.3910048293823607 Os
atom 8.7006071450446072 2.4608453400293562 24.3910058617783534 Os
atom 10.4406601685195888 4.9216907500245863 22.6509199085518418 Os
atom 1.0496024056339939 3.2029479180262070 19.1707659536876349 O
atom 5.2203600625756117 4.1795841997909084 19.8613518515938665 O
atom 11.1312825666713113 0.7421060470200082 24.3909964516632876 O
atom 3.4803079120950069 1.7187407752480681 20.2202504848553772 O
atom 12.8713944327850793 1.7187450020244281 26.1310799374091829 O
atom 8.7006349869012620 0.7421071702601926 25.4404987842039176 O
atom 2.7897152688018156 4.1795837030312768 20.9108536042849451 O
atom 10.4406935578951607 3.2029475248033554 25.0815980719977176 O
atom 0.0001715016730554 0.0000034050255219 22.6509217399007952 Os
atom 1.7402200280208067 7.3825480750215187 20.9108441729881100 Os
atom 12.1807104484294246 7.3825442400197279 20.9108351998540591 Os
atom 6.9605526578028263 0.0000039300330602 26.1310848641563283 Os
atom 11.4901571445647015 8.1246465980351044 22.6509331649483414 O
atom 1.7402522124476711 9.1012815397992899 23.3415153788303940 O
atom 0.6907304369688583 5.6638020570113818 20.9108284554768957 O
atom 0.0001899927663155 6.6404353052555010 23.7004139556039704 O
atom 2.4308404292745256 6.6404395820160413 22.6509150454366797 O
atom 12.1807430137894421 5.6638027302515059 21.9603318557662277 O
atom 13.2302661963694295 9.1012824830388510 24.3910135960157746 O
atom 0.0001345338878521 8.1246464447938607 21.6014283858806699 O
atom 0.0001681994864874 4.9216915550252116 22.6509212378743392 Os
atom 1.7402263212067761 2.4608407650210329 20.9108366351891846 Os
atom 12.1807211752586788 2.4608432600210701 20.9108382474074759 Os
atom 6.9605516820022872 4.9216903800330432 26.1310849348680563 Os
atom 11.4901565222859094 3.2029501580346542 22.6509307183718960 O
atom 1.7402528983236150 4.1795835397990810 23.3415138161272147 O
atom 0.6907319572405636 0.7421033070114103 20.9108281089908274 O
atom 0.0001953455681576 1.7187414352560881 23.7004150940109568 O
atom 2.4308463123582866 1.7187419520158631 22.6509100956505520 O
atom 12.1807472564228885 0.7421051102518011 21.9603316011822010 O
atom 13.2302663872838746 4.1795850030388211 24.3910137020884790 O
atom 0.0001448647252427 3.2029479447949658 21.6014299485126671 O
atom 0.0002738200324856 0.0000071250416175 29.6112539705161595 Os
atom 1.7403276213531094 7.3825456650373633 27.8711708457029665 Os
atom 12.1808227016717385 7.3825481500372980 27.8711715245384966 Os
atom 6.9606642746273488 0.0000070600502061 33.0914184594137737 Os
atom 11.4902627014693657 8.1246466480514332 29.6112648722793743 O
atom 1.7403584623018542 9.1012878598154394 30.3018452618195724 O
atom 0.6908370404060040 5.6638042470280530 27.8711620012769359 O
atom 0.0002987316439254 6.6404451652720144 30.6607448285223398 O
atom 2.4309488145854212 6.6404377220322797 29.6112441081660762 O
atom 12.1808501899757875 5.6638088702681131 28.9206645318198419 O
atom 13.2303711875810599 9.1012855130550054 31.3513443841121102 O
atom 0.0002462284876260 8.1246498348109011 28.5617611679646544 O
atom 0.0002717411505794 4.9217053850416024 29.6112548331946996 Os
atom 1.7403294173606811 2.4608432250368142 27.8711659666607261 Os
atom 12.1808331739369997 2.4608462600385232 27.8711738649872878 Os
atom 0.0002201860037399 4.9216891400337079 26.1310901391767203 Os
atom 11.4902633802606946 3.2029566880510068 29.6112617044427786 O
atom 1.7403563268058653 4.1795879598146968 30.3018416838848026 O
atom 0.6908379030737126 0.7421059670281097 27.8711623265474842 O
atom 0.0003028540654291 1.7187464352722353 30.6607440860357343 O
atom 2.4309470185209312 1.7187454320319189 29.6112431606648094 O
atom 12.1808531880843880 0.7421076002680052 28.9206621134994677 O
atom 13.2303736270752026 4.1795871830548474 31.3513419870089933 O
atom 0.0002530520937123 3.2029589948120027 28.5617651206445018 O
atom 10.4408286862106934 0.0000047750500128 33.0914178159562624 Os
atom 12.1808806207959659 7.3825461450460326 31.3513380569858384 Os
atom 8.7007156717982017 7.3825445000459489 31.3513369892497451 Os
atom 10.4407760774842000 0.0000037500421998 29.6112544866607301 Os
atom 1.0497118162707020 8.1246479880428772 26.1310970457965190 O
atom 5.2204703782483000 9.1012837898066454 26.8216753210845056 O
atom 11.1313926490675019 5.6638038870368739 31.3513285266455455 O
atom 3.4804072110622908 6.6404357052630756 27.1805761888918482 O
atom 12.8715020473593356 6.6404373720407319 33.0914095304670326 O
atom 8.7007415054434336 5.6638014102761209 32.4008263195895196 O
atom 2.7898205215981706 9.1012833130466788 27.8711781061918273 O
atom 10.4407995036941816 8.1246479448194613 32.0419273539408067 O
atom 10.4408263527487470 4.9216917450495936 33.0914158360690607 Os
atom 12.1808830178285792 2.4608449850452763 31.3513312192528559 Os
atom 8.7007253803387776 2.4608414300462740 31.3513331213072348 Os
atom 10.4407725702581349 4.9217003100422438 29.6112567777065721 Os
atom 1.0497137324838204 3.2029475880422988 26.1310918626971329 O
atom 5.2204699822635332 4.1795846598065456 26.8216753352382149 O
atom 11.1313952299948475 0.7421054670369254 31.3513276144655606 O
atom 3.4804143457675654 1.7187443552637376 27.1805766484617877 O
atom 12.8715023443120540 1.7187443620402487 33.0914062070703991 O
atom 8.7007447793501971 0.7421064802764906 32.4008273024497129 O
atom 2.7898222893581370 4.1795841130467473 27.8711778657698659 O
atom 10.4408049837523613 3.2029504748196702 32.0419255790673247 O
atom 10.4407211070039150 0.0000052850338849 26.1310890360633330 Os
atom 5.2205541098864581 7.3825457250469322 31.3513415429851818 Os
atom 1.7403843808172088 7.3825477800459121 31.3513367983314311 Os
atom 3.4804425237399812 0.0000069600415912 29.6112515946125541 Os
atom 8.0100429022093653 8.1246473780432105 26.1310996055238220 O
atom 12.1808030834736805 9.1012847798073384 26.8216794293625398 O
atom 4.1710588902802233 5.6638030170365399 31.3513278337016459 O
atom 10.4407400294326376 6.6404354752639092 27.1805812729765108 O
atom 5.9111724676172646 6.6404376220415289 33.0914143882779115 O
atom 1.7404130075547877 5.6638035202766872 32.4008286954467195 O
atom 9.7501557936056020 9.1012863230473524 27.8711802840476324 O
atom 3.4804716068552231 8.1246479948202293 32.0419308258090112 O
atom 10.4407170977273225 4.9216889950337821 26.1310905846527746 Os
atom 5.2205550432173702 2.4608453050461989 31.3513358861320910 Os
atom 1.7403869051844261 2.4608472000460990 31.3513369185280837 Os
atom 3.4804399286594130 4.9216926100413287 29.6112509653015792 Os
atom 8.0100445073158575 3.2029497780429494 26.1310970104373652 O
atom 12.1808021642574786 4.1795860598076517 26.8216829083436004 O
atom 4.1710623268111364 0.7421079070367510 31.3513275084130214 O
atom 10.4407500137768672 1.7187426352648105 27.1805815416051075 O
atom 5.9111741929249106 1.7187468620411708 33.0914109941589203 O
atom 1.7404147470410829 0.7421090302769353 32.4008298409536479 O
atom 9.7501573704836755 4.1795855630480192 27.8711846610346790 O
atom 3.4804733180349849 3.2029493848200983 32.0419291287474479 O
atom 6.9606136033549184 0.0000052650422646 29.6112527966505290 Os
atom 8.7006621297026658 7.3825499350382611 27.8711752297378439 Os
atom 5.2204902085692479 7.3825461000364712 27.8711662566037930 Os
atom 0.0003324179426419 0.0000057900498029 33.0914159209060585 Os
atom 4.5299369047045248 8.1246484580518477 29.6112642216980717 O
atom 8.7006943141295370 9.1012833998160332 30.3018464355801314 O
atom 7.6511725386507203 5.6638039170281234 27.8711595122266260 O
atom 6.9606320944481839 6.6404371652722443 30.6607450123537078 O
atom 9.3912825309563903 6.6404414420327837 29.6112461021864171 O
atom 5.2205227739292717 5.6638045902682483 28.9206629125159616 O
atom 6.2700459565092537 9.1012843430555943 31.3513446527655049 O
atom 6.9605766355697147 8.1246483048106040 28.5617594426304002 O
atom 6.9606103011683498 4.9216934150419540 29.6112522946240766 Os
atom 8.7006684228886417 2.4608426250377757 27.8711676919389184 Os
atom 5.2205009353985012 2.4608451200378130 27.8711693041572062 Os
atom 0.0003314421421154 4.9216922400497856 33.0914159916177937 Os
atom 4.5299362824257399 3.2029520180513971 29.6112617751216263 O
atom 8.7006950000054850 4.1795853998158243 30.3018448728769414 O
atom 7.6511740589224262 0.7421051670281530 27.8711591657405648 O
atom 6.9606374472500168 1.7187432952728305 30.6607461507606871 O
atom 9.3912884140401491 1.7187438120326057 29.6112411524002894 O
atom 5.2205270165627118 0.7421069702685440 28.9206626579319348 O
atom 6.2700461474236944 4.1795868630555635 31.3513447588382093 O
atom 6.9605869664071056 3.2029498048117087 28.5617610052624009 O
atom 8.7007697230349681 7.3825475250541057 34.8315019024526933 Os
atom 5.2206024618115592 7.3825500100540404 34.8315025812882340 Os
atom 7.6512791420878701 5.6638061070447954 34.8314930580266804 O
atom 6.9606883301694857 8.1246516948276444 35.5220922247143847 O
atom 8.7007715190425419 2.4608450850535566 34.8314970234104635 Os
atom 5.2206129340768221 2.4608481200552652 34.8315049217370145 Os
atom 6.9606622876856061 4.9216910000504512 33.0914211959264577 Os
atom 7.6512800047555718 0.7421078270448525 34.8314933832972287 O
atom 6.9606951537755650 3.2029608548287447 35.5220961773942321 O
atom 8.0101539179525645 8.1246498480596188 33.0914281025462458 O
atom 12.1809124799301571 9.1012856498233887 33.7820063778342359 O
atom 10.4408493127441506 6.6404375652798189 34.1409072456415856 O
atom 9.7502626232800331 9.1012851730634221 34.8315091629415576 O
atom 8.0101558341656798 3.2029494480590412 33.0914229194468561 O
atom 12.1809120839454028 4.1795865198232880 33.7820063919879487 O
atom 10.4408564474494288 1.7187462152804802 34.1409077052115180 O
atom 9.7502643910400018 4.1795859730634906 34.8315089225196033 O
atom 3.4805008671437405 0.0000071450506276 33.0914200928130668 Os
atom 1.0498226623491871 8.1246492380599538 33.0914306622735523 O
atom 5.2205828436135029 9.1012866398240799 33.7820104861122701 O
atom 3.4805197895724662 6.6404373352806525 34.1409123297262411 O
atom 2.7899355537454169 9.1012881830640957 34.8315113407973627 O
atom 3.4804968578671418 4.9216908550505245 33.0914216414025049 Os
atom 1.0498242674556848 3.2029516380596914 33.0914280671870955 O
atom 5.2205819243973028 4.1795879198243941 33.7820139650933271 O
atom 3.4805297739166976 1.7187444952815534 34.1409125983548378 O
atom 2.7899371306234908 4.1795874230647625 34.8315157177844057 O
atom 1.7404418898424976 7.3825517950550044 34.8315062864875671 Os
atom 12.1809323102511087 7.3825479600532127 34.8314973133535233 Os
atom 0.6909522987905461 5.6638057770448667 34.8314905689763634 O
atom 0.0003563957095336 8.1246501648273455 35.5220904993801270 O
atom 1.7404481830284608 2.4608444850545181 34.8314987486886452 Os
atom 12.1809430370803646 2.4608469800545554 34.8315003609069436 Os
atom 0.6909538190622513 0.7421070270448955 34.8314902224902951 O
atom 0.0003667265469304 3.2029516648284511 35.5220920620121348 O
