#===============================================================================
# Created using the Atomic Simulation Environment (ASE)

# Mon Mar 23 14:01:10 2026

#=======================================================
lattice_vector 11.0790232517419795 0.0000000000000000 0.0000000000000000 
lattice_vector 3.7278993459126002 10.4330108955597858 0.0000000000000000 
lattice_vector 0.0000000000000000 0.0000000000000000 34.2639443402789610 
atom 3.6231390406443258 2.5528837907086235 15.8677656473325790 Os
atom 6.6205169378446920 4.6648314459406679 15.0000034550151682 O
atom 8.4844253303959807 9.8813938710411140 15.0000039619219372 O
atom 5.4870879881998489 7.7693939044214275 15.8677674090118330 Os
atom 12.1600484551138042 4.6647976872821317 15.0000000000000000 O
atom 9.1626478244789222 2.5528907496480127 15.8677670533435098 Os
atom 14.0239622273660682 9.8813653215455588 15.0000052183968151 O
atom 4.5289282922542631 3.1911030222888259 19.2639338439970942 Os
atom 4.7565581630527145 3.3514777670615787 17.2641163500835049 O
atom 5.6623320282092360 1.5825210637761866 19.2639154363516028 O
atom 3.3955032176562474 4.7996887247581341 19.2639166601927556 O
atom 6.1652674912543644 4.3440682252791003 18.9996371224669716 O
atom 1.7591698086880263 1.2395369989519684 18.1318754186277786 Os
atom 6.3928937985552734 4.5044566780369841 16.9998253135537141 Os
atom 7.5262880121708173 2.8958677332602498 16.9998184314609588 O
atom 5.2594624546068305 6.1130389059609973 16.9998135416048832 O
atom 8.0292380400823617 5.6574189551244736 16.7355304074613827 O
atom 3.6231191257578175 6.4560466291220866 18.1318777149524024 Os
atom 8.2568234665795490 9.7209956098517072 16.9998261030826541 Os
atom 9.3902436162749225 8.1123937822633359 16.9998371451307975 O
atom 3.3955240857261031 0.8965554837234557 16.9998330484090658 O
atom 6.1652473506908461 0.4409806701138758 16.7355378489808899 O
atom 6.3928575554442428 8.4076394371466971 19.2639385739622213 Os
atom 6.6204682433726614 8.5680344353814224 17.2641133885159554 O
atom 7.5262897000743285 6.7990452481130701 19.2639347139225166 O
atom 5.2594624675454256 10.0162145572799020 19.2639392148243331 O
atom 8.0291786963995087 9.5606348033036586 18.9996395579838904 O
atom 7.2986837562561568 1.2395335140004391 18.1318754574889596 Os
atom 11.9324101805895051 4.5044384387292160 16.9998179038682764 Os
atom 1.9867893473906468 2.8958692276895257 16.9998094677853189 O
atom 10.7989792885723350 6.1130324463984920 16.9998146428218391 O
atom 2.4897433141642087 5.6573963751550416 16.7355312580199289 O
atom 10.0684434593419372 3.1910849822324754 19.2639283030020323 Os
atom 10.2960828677096661 3.3514523476339999 17.2641135856785475 O
atom 11.2018406762216127 1.5825111026842547 19.2639278353144903 O
atom 8.9350173334334180 4.7996829968662089 19.2639188716846093 O
atom 11.7048049210044987 4.3440409334889445 18.9996431661981120 O
atom 11.0265969219825859 7.7693930369241260 15.8677689543222442 Os
atom 11.9323720901609196 8.4076261069433542 19.2639273250435821 Os
atom 12.1599967914039819 8.5680091635962796 17.2641155911599320 O
atom 13.0657971790768883 6.7990412190165532 19.2639443402789610 O
atom 10.7989767952410194 10.0162129750262601 19.2639403581056641 O
atom 13.5687096039692747 9.5606022326085363 18.9996382203042202 O
atom 9.1626338811084516 6.4560390769119431 18.1318762156345379 Os
atom 13.7963332607400098 9.7209780657865306 16.9998199461768849 Os
atom 3.8507428479361718 8.1123976437891709 16.9998290433108252 O
atom 8.9350386651934421 0.8965543902709572 16.9998350231255628 O
atom 0.6257463989346256 0.4409528470407817 16.7355284463348539 O
