#===============================================================================
# Created using the Atomic Simulation Environment (ASE)

# Mon Mar 23 14:01:09 2026

#=======================================================
lattice_vector 22.0103944943716279 0.0000000000000000 0.0000000000000000 
lattice_vector -8.8041042034015895 10.7828962547440934 0.0000000000000000 
lattice_vector 0.0000000000000000 0.0000000000000000 39.8549275296678189 
atom 12.1058117346950453 3.1450462349423365 16.6105780089056694 Os
atom 14.3068380136220945 0.4493244433883460 16.6105766596384363 Os
atom 11.0052629923859620 0.0000347336207614 15.6059347821793963 Os
atom 4.4021916553725715 3.5943374418122089 17.6152195842448691 Os
atom 9.7998720832560320 1.2622605306184955 16.6105874321369562 O
atom 4.5071030940319865 9.5277396899291844 17.0092827057575136 O
atom 1.8693046008480843 9.6204175671206187 17.2165047521443668 O
atom 12.4376677947565302 1.1695888992848356 16.4033602214110275 O
atom 4.4021884891164493 8.0871960697396652 15.6059425613544107 Os
atom 13.5382136678402780 7.4525709548480030 16.0046489998952914 O
atom 13.3112058529372987 3.2377009128870715 15.0000040417014873 O
atom 11.7739596369363486 5.1205031178026204 16.8177943430141639 O
atom 14.4117528529989123 5.0278285178273494 16.6105707575546333 O
atom 10.6734102532134525 3.3303752736912440 15.2072255491917829 O
atom 10.9004198167290962 7.5452435757205265 16.2118725200434355 O
atom 6.6032151302756814 0.8986149765692093 17.6152194229982086 Os
atom 8.8042435737297282 2.6957520393200283 15.6059404547661558 Os
atom 17.9402706352289627 2.0611284616992602 16.0046472933757116 O
atom 8.9091568057155790 8.6291552861123240 15.0000031394402633 O
atom 7.3719036891746130 10.5119490451579374 16.8177911872826087 O
atom 10.0097040204421077 10.4192775343316750 16.6105725252484433 O
atom 6.2713579592012536 8.7218245950939792 15.2072234181340562 O
atom 15.3024714309763112 2.1538016960358402 16.2118714504212242 O
atom 7.7037619584862069 8.5364865024902166 16.6105781436322459 Os
atom 9.9047896819066548 5.8407611069191789 16.6105772107781746 Os
atom 6.6032234037239261 5.3914675996014845 15.6059416366301988 Os
atom 5.3978245609828228 6.6536994799681715 16.6105845703109054 O
atom 8.9091599585694237 4.1362842230749521 17.0092878251801807 O
atom 6.2713611702052781 4.2289575413865554 17.2165085202775501 O
atom 8.0356213726741927 6.5610287651712937 16.4033646998806404 O
atom 1.1006199882522658 3.1450464083802396 16.6105806257444755 Os
atom 3.3016442905217822 0.4493263531204844 16.6105830609464675 Os
atom 0.0000686431488681 0.0000338316998006 15.6059359497545742 Os
atom 15.4073886610534281 3.5943375915196838 17.6152178859330490 Os
atom 20.8050704350633140 1.2622623088881095 16.6105873423116961 O
atom -6.4980934912739707 9.5277379390443020 17.0092840815544406 O
atom 12.8745061770623543 9.6204118361121509 17.2165073200140206 O
atom 1.4324733471619184 1.1695885286661591 16.4033661777379933 O
atom -6.6030085121333144 8.0871963983598043 15.6059370744951735 Os
atom 2.5330185986348472 7.4525732717266138 16.0046565565529484 O
atom 2.3060119151366636 3.2377021361265022 15.0000043029580894 O
atom 0.7687670139693881 5.1205024112417270 16.8177997931033083 O
atom 3.4065606861857898 5.0278306575924763 16.6105743174448826 O
atom -0.3317849859643200 3.3303769497231555 15.2072280721505102 O
atom -0.1047754760738935 7.5452467415724787 16.2118812891978550 O
atom 17.6084098372475424 0.8986147008726261 17.6152126093498147 Os
atom -2.2009546260507493 2.6957511611296532 15.6059357721659069 Os
atom 6.9350743585364549 2.0611297926771286 16.0046535028234089 O
atom -2.0960384469169258 8.6291549337318756 15.0000000000000000 O
atom -3.6332909641447406 10.5119512999514075 16.8177949308989341 O
atom -0.9954924351604969 10.4192831101458570 16.6105727456848768 O
atom -4.7338377584970797 8.7218294679971304 15.2072242468577414 O
atom 4.2972780208981440 2.1538027476585184 16.2118735569574000 O
atom -3.3014311743127593 8.5364902908992466 16.6105802460779337 Os
atom -1.1004020734708828 5.8407614099884180 16.6105813912076847 Os
atom -4.4019776045253236 5.3914720416375461 15.6059402526802522 Os
atom 11.0053368768682116 8.9857792776776026 17.6152195760941126 Os
atom 16.4030218439748303 6.6537045664914247 16.6105873708821186 O
atom -2.0960364791777812 4.1362836516091681 17.0092850041810664 O
atom 17.2765612572092238 4.2289596044704405 17.2165096551862966 O
atom -2.9695732985494434 6.5610297638494073 16.4033662961139868 O
atom 3.3017101072421329 4.9422143341848397 20.6291418771879265 Os
atom 5.5027363861691763 2.2464925426308500 20.6291405279206899 Os
atom 2.2011613649330486 1.7972028328632630 19.6244986504616499 Os
atom -4.4019099720803441 5.3915055410547099 21.6337834525271262 Os
atom 0.9957704558031200 3.0594286298609972 20.6291513004192133 O
atom 13.5382167223349619 2.9597168547728052 18.0139312483539769 O
atom 4.5071056699806613 0.5420115344275906 21.0278465740397706 O
atom 11.7739576513041744 0.6276460435976468 18.8270728070477453 O
atom 14.4117564173014863 0.5349664082230569 18.6198537367934200 O
atom 1.8693071767967568 0.6346894116190263 21.2350686204266239 O
atom 10.9004189044230166 3.0523869944680335 18.2211530661358481 O
atom 3.6335661673036181 2.9667569985273397 20.4219240896932845 O
atom 3.3017074463239768 9.4350852968055747 18.6198573588271472 Os
atom 5.5027374728727789 6.7393443276575118 18.6198593245586821 Os
atom 2.2011683996385925 6.2900590361903186 17.6152259794436645 Os
atom -4.4019131383364627 9.8843641689821684 19.6245064296366678 Os
atom 0.9957699414885138 7.5522923260223545 18.6198661615253513 O
atom 4.7341120403873589 9.2497390540905045 20.0232128681775521 O
atom 4.5071042254843867 5.0348690121295734 19.0185679099837444 O
atom 2.9698580094834290 6.9176712170451236 20.8363582112964174 O
atom 5.6076512255460020 6.8249966170698517 20.6291346258368904 O
atom 1.8693086257605371 5.1275433729337472 19.2257894174740400 O
atom 2.0963181892761820 9.3424116749630279 20.2304363883256961 O
atom 3.6335692307533933 7.4596234424406394 18.4126472504597345 O
atom 7.7037639620166223 4.0436269799647686 18.6198605880689172 Os
atom 9.9047874056257044 1.3479088344271599 18.6198604594722461 Os
atom -2.2008864971772297 2.6957830758117107 21.6337832912804657 Os
atom 0.0001419462768136 4.4929201385625319 19.6245043230484129 Os
atom 5.3978232640906985 2.1608459349293532 18.6198668351238084 O
atom 9.1361690077760507 3.8582965609417665 20.0232111616579687 O
atom 0.1050551782626612 10.4263233853548289 19.0185670077225168 O
atom 7.3719062651232923 1.5262208896563458 20.8363550555648587 O
atom 10.0097065963907799 1.4335493788300850 20.6291363935307004 O
atom -2.5327436682516637 10.5189926943364807 19.2257872864163133 O
atom 6.4983698035234001 3.9509697952783420 20.2304353187034849 O
atom 8.0356177726046152 2.0681707653215762 18.4126441804641097 O
atom -1.1003396689667060 10.3336546017327215 20.6291420119145030 Os
atom 1.1006880544537443 7.6379292061616804 20.6291410790604317 Os
atom -2.2008782237289890 7.1886356988439877 19.6245055049124595 Os
atom 0.0001374786217192 8.9857899181105694 17.6152213233846524 Os
atom -3.4062770664700888 8.4508675792106729 20.6291484385931625 O
atom 9.1361664676021501 8.3511529797155291 18.0139322118370444 O
atom 0.1050583311165077 5.9334523223174536 21.0278516934624378 O
atom 7.3719107283311676 6.0190855552872415 18.8270754892286476 O
atom 10.0097057690253504 5.9264101811937042 18.6198522548537326 O
atom -2.5327404572476331 6.0261256406290578 21.2350723885598072 O
atom 6.4983693965611833 8.4438263308952894 18.2211568016129384 O
atom -0.7684802547787207 8.3581968644137952 20.4219285681628975 O
atom 14.3069128551709817 4.9422145076227411 20.6291444940267326 Os
atom 16.5079371574404981 2.2464944523629886 20.6291469292287246 Os
atom 13.2063615100675822 1.7972019309423022 19.6244998180368313 Os
atom 6.6032870336005178 5.3915056907621857 21.6337817542153061 Os
atom 12.0009688076104037 3.0594304081306110 20.6291512105939532 O
atom 2.5330227308692836 2.9597152042977446 18.0139328241770862 O
atom 15.5123035790463337 0.5420097835427118 21.0278479498366977 O
atom 0.7687597869767018 0.6276388118479943 18.8270780938835784 O
atom 3.4065601361311861 0.5349676442602095 18.6198590236002275 O
atom 12.8745087530110336 0.6346836806105571 21.2350711882962777 O
atom -0.1047734278655526 3.0523898663527955 18.2211552257337246 O
atom 14.6387662140806327 2.9667566279086608 20.4219300460202504 O
atom -7.7034863483549021 9.4350722044221467 18.6198659524638686 Os
atom -5.5024568226676482 6.7393476687686196 18.6198639785640623 Os
atom 13.2063617068476091 6.2900574441448596 17.6152223950505373 Os
atom 6.6032843547853979 9.8843644976023075 19.6245009427774306 Os
atom 12.0009689909553448 7.5522874713791106 18.6198699541526835 O
atom -6.2710830288180688 9.2497413709691134 20.0232204248352055 O
atom 15.5123047820553790 5.0348702353690040 19.0185681712403500 O
atom 13.9750598808881001 6.9176705104842293 20.8363636613855654 O
atom -5.3975409412671240 6.8249987568349768 20.6291381857271361 O
atom 12.8745078809543969 5.1275450489656587 19.2257919404327673 O
atom 13.1015173908448226 9.3424148408149801 20.2304451574801085 O
atom 14.6387662140737778 7.4596131306577087 18.4126500102437518 O
atom -3.3014277844270365 4.0436292438746939 18.6198621720346829 Os
atom -1.1004082673473565 1.3479145197860776 18.6198616107099255 Os
atom 8.8043082097946304 2.6957828001151278 21.6337764776320718 Os
atom 11.0053382408679639 4.4929192603721546 19.6244996404481640 Os
atom 16.4030238206752976 2.1608466743530572 18.6198696152734868 O
atom -1.8690272689164598 3.8582978919196327 20.0232173711056625 O
atom 11.1102544200017874 10.4263230329743806 19.0185638682822571 O
atom 18.3771061061755638 1.5262231444498171 20.8363587991811912 O
atom -0.9954898592118209 1.4335549546442656 20.6291366139671339 O
atom 8.4724551084216362 10.5189975672396319 19.2257881151399985 O
atom 17.5035708878168599 3.9509708469010225 20.2304374252396570 O
atom 19.0408140493186728 2.0681707853998930 18.4126410655353112 O
atom 9.9048616926059516 10.3336583901417480 20.6291441143601944 Os
atom 12.1058907934478288 7.6379295092309194 20.6291452594899454 Os
atom 8.8043152623933914 7.1886401408800484 19.6245041209625128 Os
atom 11.0053394528168909 0.0000511221760123 21.6337834443763697 Os
atom 7.5989202165219139 8.4508726657339270 20.6291512391643792 O
atom -1.8690282840995016 8.3511548711888306 18.0139369066733153 O
atom 11.1102563877409324 5.9334517508516695 21.0278488724633235 O
atom -3.6332858301172593 6.0190855425166268 18.8270803351318392 O
atom -0.9954848727984744 5.9264116308217067 18.6198545654968513 O
atom 8.4724596297563100 6.0261277037129446 21.2350735234685573 O
atom -4.5068256190151006 8.4438288832797728 18.2211580508336439 O
atom 10.2367195683692724 8.3581978630919078 20.4219301643962439 O
atom -5.5023915202107831 6.7393824334273411 24.6477057454701836 Os
atom -3.3013652412837344 4.0436606418733518 24.6477043962029470 Os
atom 15.4074542318517622 3.5943709321057646 23.6430625187439105 Os
atom 14.2020633227218358 4.8565967291035008 24.6477151687014704 O
atom 4.7341150948820490 4.7568849540153071 22.0324951166362339 O
atom 2.9698560238512601 2.4248141428401482 22.8456366753300060 O
atom 5.6076547898485716 2.3321345074655584 22.6384176050756807 O
atom 2.0963172769701059 4.8495550937105349 22.2397169344181016 O
atom 16.8398590342223322 4.7639250977698415 24.4404879579755416 O
atom 3.3017100222726561 0.4493571413039846 22.6384212271094079 Os
atom -3.3013641545801335 8.5365124269000159 22.6384231928409392 Os
atom -6.6029332278143205 8.0872271354328227 21.6337898477259216 Os
atom 17.6084839319838444 0.8986360134805755 23.6430702979189249 Os
atom 14.2020628084072307 9.3494604252648568 22.6384300298076084 O
atom 4.7341146163360364 0.2640108985889142 24.0417767364598056 O
atom -4.2969974019685315 6.8320371113720757 23.0371317782660014 O
atom -5.8342436179694861 8.7148393162876268 24.8549220795786781 O
atom -3.1964504019069149 8.6221647163123531 24.6476984941191475 O
atom 15.0756014926792510 6.9247114721762495 23.2443532857562971 O
atom 2.0963207652248621 0.3566835194614363 24.2490002566079497 O
atom -5.1705323966995191 9.2567915416831408 22.4312111187419916 O
atom -1.1003376654362964 5.8407950792072700 22.6384244563511743 Os
atom 1.1006857781727906 3.1450769336696616 22.6384243277545032 Os
atom 13.2064348131955303 6.2900882378050316 23.6430681913306699 Os
atom 18.6041161310094125 3.9580140341718524 22.6384307034060654 O
atom 0.3320673803231348 5.6554646601842684 24.0417750299402257 O
atom 0.1050577542113444 1.4405952298532338 23.0371308760047739 O
atom -1.4321953623296282 3.3233889888988473 24.8549189238471229 O
atom 1.2056049689378689 3.2307174780725840 24.6477002618129610 O
atom 19.4776534020686434 1.5332645388348896 23.2443511546985704 O
atom -2.3057318239295190 5.7481378945208439 24.2489991869857420 O
atom -0.7684838548482981 3.8653388645640780 22.4312080487463668 O
atom -1.1003370930180285 1.3479264462311280 24.6477058801967601 Os
atom -7.7034135729991702 9.4350973054041827 24.6477049473426888 Os
atom 11.0054146431897308 8.9858037980864900 23.6430693731947166 Os
atom 0.0001400545703940 0.0000617626089790 21.6337851916669095 Os
atom 9.8000158004486178 10.2480356784531779 24.6477123068754267 O
atom 0.3320648401492352 10.1483210789580305 22.0324960801193050 O
atom -1.4321908991217462 7.8162536545297447 22.8456393575109047 O
atom 1.2056041415724348 7.7235782804362074 22.6384161231359897 O
atom -2.3057322308917332 10.2409944301377909 22.2397206698951990 O
atom 12.4378126121399930 10.1553649636562984 24.4404924364451546 O
atom 5.5028112277180661 6.7393826068652443 24.6477083623089896 Os
atom 7.7038355299875807 4.0436625516054878 24.6477107975109817 Os
atom 4.4022598826146684 3.5943700301848041 23.6430636863190884 Os
atom 3.1968671801574868 4.8565985073731124 24.6477150788762103 O
atom 15.7393155977879982 4.7568833035402482 22.0324966924593468 O
atom 13.9750526538954141 2.4248069110904984 22.8456419621658426 O
atom 16.6128530030499029 2.3321357435027110 22.6384228918824846 O
atom 13.1015194390531580 4.8495579655952969 22.2397190940159817 O
atom 5.8346645866277180 4.7639247271511627 24.4404939143025075 O
atom 14.3069107219653979 0.4493440489205563 22.6384298207461292 Os
atom 7.7038360442510658 8.5365157680111245 22.6384278468463194 Os
atom 4.4022600793946989 8.0872255433873619 21.6337862633327944 Os
atom 6.6032869307340754 0.8986363421007174 23.6430648110596877 Os
atom 3.1968673635024283 9.3494555706216129 22.6384338224349406 O
atom 15.7393140415022330 0.2640132154675232 24.0417842931174661 O
atom 6.7082031546024652 6.8320383346115063 23.0371320395226036 O
atom 5.1709582534351872 8.7148386097267316 24.8549275296678225 O
atom 7.8087519256515883 8.6221668560774791 24.6477020540093967 O
atom 4.0704062535014804 6.9247131482081610 23.2443558087150244 O
atom 13.1015199667934965 0.3566866853133898 24.2490090257623692 O
atom 5.8346645866208622 9.2567812299002092 22.4312138785260089 O
atom 9.9048650824916766 5.8407973431171971 22.6384260403169399 Os
atom 12.1058845995713575 3.1450826190285790 22.6384254789921862 Os
atom 2.2012366134150514 6.2900873596146569 23.6430635087304246 Os
atom 7.5989221932223803 3.9580147735955586 22.6384334835557510 O
atom 11.3372655980022561 5.6554659911621341 24.0417812393879160 O
atom 11.1102569959504649 1.4405948774727881 23.0371277365645177 O
atom 9.5730044787226483 3.3233912436923188 24.8549226674634482 O
atom 12.2108030077068914 3.2307230538867695 24.6477004822493946 O
atom 8.4724576843703083 1.5332694117380408 23.2443519834222556 O
atom 8.6994692603639425 5.7481389461435217 24.2490012935219177 O
atom 10.2367124218657572 3.8653388846423944 22.4312049338175719 O
atom 9.9048642685546273 1.3479302346401583 24.6477079826424514 Os
atom 3.3017891659949141 9.4350976084734217 24.6477091277722025 Os
atom 0.0002136349404792 8.9858082401225516 23.6430679892447699 Os
atom -1.2051814109310020 10.2480407649764285 24.6477151074466327 O
atom 11.3372645828192109 10.1483229704313320 22.0325007749555724 O
atom 9.5730070368014530 7.8162536417591282 22.8456442034140963 O
atom 12.2108079941202377 7.7235797300642108 22.6384184337791083 O
atom 8.6994672479036161 10.2409969825222742 22.2397219191159010 O
atom 1.4326179409163549 10.1553659623344110 24.4404940326785010 O
