#===============================================================================
# Created using the Atomic Simulation Environment (ASE)

# Mon Mar 23 14:01:07 2026

#=======================================================
lattice_vector 13.9206623415420374 0.0000000000000000 0.0000000000000000 
lattice_vector -0.0000018384659456 9.8433818399999584 0.0000000000000000 
lattice_vector 0.0000000000000000 0.0000000000000000 34.8613520913584978 
atom 6.9606642746273488 0.0000070600502061 17.4306743733780394 Os
atom 0.0002987316439254 6.6404451652720144 15.0000007424866055 O
atom 13.2303711875810599 9.1012855130550054 15.6906002980763759 O
atom 0.0003028540654291 1.7187464352722353 15.0000000000000000 O
atom 13.2303736270752026 4.1795871830548474 15.6905979009732590 O
atom 10.4408286862106934 0.0000047750500128 17.4306737299205281 Os
atom 12.1808806207959659 7.3825461450460326 15.6905939709501041 Os
atom 8.7007156717982017 7.3825445000459489 15.6905929032140108 Os
atom 11.1313926490675019 5.6638038870368739 15.6905844406098112 O
atom 12.8715020473593356 6.6404373720407319 17.4306654444312983 O
atom 8.7007415054434336 5.6638014102761209 16.7400822335537853 O
atom 10.4407995036941816 8.1246479448194613 16.3811832679050724 O
atom 10.4408263527487470 4.9216917450495936 17.4306717500333264 Os
atom 12.1808830178285792 2.4608449850452763 15.6905871332171216 Os
atom 8.7007253803387776 2.4608414300462740 15.6905890352715005 Os
atom 11.1313952299948475 0.7421054670369254 15.6905835284298263 O
atom 12.8715023443120540 1.7187443620402487 17.4306621210346648 O
atom 8.7007447793501971 0.7421064802764906 16.7400832164139786 O
atom 10.4408049837523613 3.2029504748196702 16.3811814930315904 O
atom 5.2205541098864581 7.3825457250469322 15.6905974569494475 Os
atom 1.7403843808172088 7.3825477800459121 15.6905927122956967 Os
atom 4.1710588902802233 5.6638030170365399 15.6905837476659116 O
atom 5.9111724676172646 6.6404376220415289 17.4306703022421772 O
atom 1.7404130075547877 5.6638035202766872 16.7400846094109852 O
atom 3.4804716068552231 8.1246479948202293 16.3811867397732769 O
atom 5.2205550432173702 2.4608453050461989 15.6905918000963567 Os
atom 1.7403869051844261 2.4608472000460990 15.6905928324923494 Os
atom 4.1710623268111364 0.7421079070367510 15.6905834223772871 O
atom 5.9111741929249106 1.7187468620411708 17.4306669081231860 O
atom 1.7404147470410829 0.7421090302769353 16.7400857549179136 O
atom 3.4804733180349849 3.2029493848200983 16.3811850427117136 O
atom 0.0003324179426419 0.0000057900498029 17.4306718348703242 Os
atom 6.9606320944481839 6.6404371652722443 15.0000009263179734 O
atom 6.2700459565092537 9.1012843430555943 15.6906005667297705 O
atom 0.0003314421421154 4.9216922400497856 17.4306719055820594 Os
atom 6.9606374472500168 1.7187432952728305 15.0000020647249528 O
atom 6.2700461474236944 4.1795868630555635 15.6906006728024749 O
atom 8.7007697230349681 7.3825475250541057 19.1707578164169590 Os
atom 5.2206024618115592 7.3825500100540404 19.1707584952524996 Os
atom 7.6512791420878701 5.6638061070447954 19.1707489719909461 O
atom 6.9606883301694857 8.1246516948276444 19.8613481386786503 O
atom 8.7007715190425419 2.4608450850535566 19.1707529373747292 Os
atom 5.2206129340768221 2.4608481200552652 19.1707608357012802 Os
atom 6.9606622876856061 4.9216910000504512 17.4306771098907234 Os
atom 7.6512800047555718 0.7421078270448525 19.1707492972614943 O
atom 6.9606951537755650 3.2029608548287447 19.8613520913584978 O
atom 8.0101539179525645 8.1246498480596188 17.4306840165105115 O
atom 12.1809124799301571 9.1012856498233887 18.1212622917985016 O
atom 10.4408493127441506 6.6404375652798189 18.4801631596058513 O
atom 9.7502626232800331 9.1012851730634221 19.1707650769058233 O
atom 8.0101558341656798 3.2029494480590412 17.4306788334111218 O
atom 12.1809120839454028 4.1795865198232880 18.1212623059522144 O
atom 10.4408564474494288 1.7187462152804802 18.4801636191757837 O
atom 9.7502643910400018 4.1795859730634906 19.1707648364838690 O
atom 3.4805008671437405 0.0000071450506276 17.4306760067773325 Os
atom 1.0498226623491871 8.1246492380599538 17.4306865762378180 O
atom 5.2205828436135029 9.1012866398240799 18.1212664000765358 O
atom 3.4805197895724662 6.6404373352806525 18.4801682436905068 O
atom 2.7899355537454169 9.1012881830640957 19.1707672547616284 O
atom 3.4804968578671418 4.9216908550505245 17.4306775553667705 Os
atom 1.0498242674556848 3.2029516380596914 17.4306839811513612 O
atom 5.2205819243973028 4.1795879198243941 18.1212698790575928 O
atom 3.4805297739166976 1.7187444952815534 18.4801685123191035 O
atom 2.7899371306234908 4.1795874230647625 19.1707716317486714 O
atom 1.7404418898424976 7.3825517950550044 19.1707622004518328 Os
atom 12.1809323102511087 7.3825479600532127 19.1707532273177890 Os
atom 0.6909522987905461 5.6638057770448667 19.1707464829406291 O
atom 0.0003563957095336 8.1246501648273455 19.8613464133443927 O
atom 1.7404481830284608 2.4608444850545181 19.1707546626529108 Os
atom 12.1809430370803646 2.4608469800545554 19.1707562748712093 Os
atom 0.6909538190622513 0.7421070270448955 19.1707461364545608 O
atom 0.0003667265469304 3.2029516648284511 19.8613479759764004 O
