#===============================================================================
# Created using the Atomic Simulation Environment (ASE)

# Mon Mar 23 14:01:08 2026

#=======================================================
lattice_vector 13.9206623415420374 0.0000000000000000 0.0000000000000000 
lattice_vector -6.9602220783261259 12.0556381450883503 0.0000000000000000 
lattice_vector 0.0000000000000000 0.0000000000000000 31.9846512508012353 
atom 0.0002756584984350 2.0093014664469933 15.9923242859894117 Os
atom -5.2198907800411343 11.0510320103584281 15.9923224759942570 Os
atom 5.2206043002775031 11.0510344312777953 15.9923215955445102 Os
atom 11.4902663784012500 0.6059610522689712 16.9846502577679033 O
atom 1.7403621392337467 1.8020920362614192 16.9846420949821351 O
atom 7.6512809805538096 9.6476809297188364 16.9846318060554893 O
atom 0.0002499054195189 0.0000319615890646 16.1277325473380841 O
atom 6.9606641261515376 8.0371150072183113 15.9923302759840240 Os
atom 0.0003046925313835 4.0185695669144605 15.8569137267660594 O
atom 2.4309488569868658 3.4126386595404385 15.0000007044327930 O
atom 12.1808550265503364 2.2165100556251600 15.0000063788246720 O
atom -0.6902868760008908 6.4265540612697256 15.0000162289749994 O
atom 10.4407779159501466 2.0092990087689464 15.9923266559777772 Os
atom -3.4798111903319411 10.0463866839702458 15.8569122083679019 O
atom -1.0491584557167646 9.4404582913683281 15.0000013394932665 O
atom 8.7007433439093731 8.2443299650797979 15.0000041675768188 O
atom 2.7898241985300647 0.3987409532314726 15.0000140292663389 O
atom -3.4798341503273469 8.0371125209899574 15.9923254695546362 Os
atom -1.7397774852475163 5.0232012333268417 15.9923244389780450 Os
atom 8.7007272188047260 5.0231994288358006 15.9923280444795068 Os
atom 8.0101576726316335 6.6337699185940533 16.9846483120888792 O
atom -1.7397484191306882 7.8298993022647947 16.9846450567935960 O
atom 11.1313970684607906 3.6198547291400294 16.9846369502179328 O
atom -3.4798555193237299 6.0278427385055169 16.1277370448652775 O
atom 3.4804443622059256 2.0092999599954866 15.9923224413358156 Os
atom 3.4805216280384035 10.0463894314765891 15.8569164922942960 O
atom 5.9111743060832058 9.4404613001535296 15.0000051615396472 O
atom 1.7404148460207280 8.2443330595902200 15.0000048892450906 O
atom 9.7501594705374917 0.3987446682723839 15.0000140696515132 O
atom 3.4804986963330879 8.0371151460223142 15.9923307234293759 Os
atom 5.2205568816833132 5.0232041890323780 15.9923280647148260 Os
atom 1.7403887436503696 5.0232063323472884 15.9923278135828042 Os
atom 1.0498261059216212 6.6337746787728342 16.9846512508012353 O
atom 5.2205837628632388 7.8299048176981456 16.9846504319143605 O
atom 4.1710641652770732 3.6198566601613016 16.9846354548908351 O
atom 3.4804751565009240 6.0278438979352122 16.1277405724779044 O
atom 6.9606154418208623 2.0092992700323036 15.9923244014043959 Os
atom 1.7404437283084293 11.0510380279238607 15.9923235902544434 Os
atom -1.7397281928249904 11.0510297160139839 15.9923184778648135 Os
atom 4.5299405816364109 0.6059621545140075 16.9846486815657016 O
atom 8.7006979910614319 1.8020890723599645 16.9846456283370131 O
atom 0.6909541372564764 9.6476792232201962 16.9846299642808560 O
atom 6.9605803125016017 0.0000297162265795 16.1277320219558149 O
atom 0.0003332806080440 8.0371130149619336 15.9923253107708803 Os
atom 6.9606392857159678 4.0185681951870098 15.8569172254871376 O
atom 9.3912902525060957 3.4126361773441087 15.0000000000000000 O
atom 5.2205288550286530 2.2165098555614109 15.0000071870823817 O
atom 6.2700479858896445 6.4265554003090184 15.0000186769150474 O
