#===============================================================================
# Created using the Atomic Simulation Environment (ASE)

# Mon Mar 23 14:01:07 2026

#=======================================================
lattice_vector 9.8433162200001281 0.0000000000000000 0.0000000000000000 
lattice_vector -0.0000031600105307 9.8433818399996227 0.0000000000000000 
lattice_vector 0.0000000000000000 0.0000000000000000 43.7885768300000535 
atom 2.4608322149961799 2.4608367549954040 18.2029851671406497 Os
atom 9.8433122499873758 9.8433792399942774 18.2029880071407852 Os
atom 7.3824880949954901 2.4608413349949854 18.2029873071407593 Os
atom 2.4608247399875784 9.8433792949947971 15.7421224271407780 Os
atom 0.0000013449958505 2.4608402499955324 15.7421250971407289 Os
atom 1.7187375269106264 0.7420998869877631 17.4608744522190449 O
atom 0.7420906051433258 4.1795830002220296 15.0000040820624605 O
atom 3.2029215998448684 3.2029493430026572 16.4842338542816336 O
atom 0.7420912719074161 3.2029487202213311 17.4608773242816078 O
atom 4.1795661048483250 0.7420986797686407 16.4842368522190057 O
atom 1.7187400801458339 1.7187382069887938 15.0000077400000400 O
atom 2.4608295999916949 4.9216955849955442 15.7421213371410147 Os
atom 9.8433119749892199 7.3825406699948148 15.7421211071409672 Os
atom 1.7187397069040999 5.6637986069881459 17.4608756122192972 O
atom 0.7420870151373754 9.1012781102214770 15.0000056320625639 O
atom 3.2029137998392407 8.1246421830012814 16.4842404542816396 O
atom 0.7420867219021916 8.1246394802207202 17.4608754942815771 O
atom 4.1795671548414512 5.6637994397687743 16.4842404122193074 O
atom 1.7187367401393399 6.6404368169883430 15.0000071000002428 O
atom 7.3824797499874837 9.8433802449942842 15.7421230271407850 Os
atom 4.9216603849967546 2.4608351099957395 15.7421230571405957 Os
atom 6.6403957269103033 0.7421021969877206 17.4608764522191109 O
atom 5.6637442451436764 4.1795811702212973 15.0000046020623756 O
atom 8.1245768998450529 3.2029485830021978 16.4842341342815857 O
atom 5.6637474719082581 3.2029439702210811 17.4608753342814573 O
atom 9.1012231948479219 0.7421015897684947 16.4842362322190787 O
atom 6.6403976501461601 1.7187369669889270 15.0000000000000000 O
atom 7.3824826599923217 4.9216920949947438 15.7421209871408720 Os
atom 4.9216496749888705 7.3825424199941292 15.7421215271409842 Os
atom 6.6403932069039113 5.6638001969874168 17.4608751822193007 O
atom 5.6637419951371539 9.1012799202209997 15.0000047820625895 O
atom 8.1245729898392831 8.1246424530015240 16.4842380742816559 O
atom 5.6637388819019163 8.1246416002197677 17.4608753442815896 O
atom 9.1012222048416120 5.6637990697684133 16.4842357922192733 O
atom 6.6403905201396132 6.6404354669876273 15.0000077600001660 O
atom 2.4608284799871458 9.8433781049942244 20.6638543171407818 Os
atom 0.0000014549954360 2.4608390999944589 20.6638541471407038 Os
atom 2.4608320549949498 2.4608361949927691 28.0464582671406433 Os
atom 9.8433120899861439 9.8433786799916430 28.0464611071407788 Os
atom 4.1795697280826269 1.7187386797686226 18.9451037300000635 O
atom 1.7187400169103737 0.7420974569869192 22.3826088622189943 O
atom 0.7420908751430638 4.1795805602207894 19.9217398520623945 O
atom 3.2029201298456700 3.2029403030011556 21.4059690042813671 O
atom 0.7420896719070087 3.2029474102199176 22.3826086742815633 O
atom 3.2029219830812572 4.1795762730020787 18.9451020920622923 O
atom 4.1795690148474698 0.7421001397679460 21.4059683922190729 O
atom 1.7187401401457125 1.7187351569876692 19.9217383099999594 O
atom 2.4608314899935926 4.9216798449946495 20.6638541071405868 Os
atom 9.8433120249884727 7.3825415399936984 20.6638513171410025 Os
atom 2.4608255349890853 7.3825386449941579 18.2029935771409228 Os
atom 0.0000002999913825 4.9216952999948642 18.2029891871410072 Os
atom 4.1795660780775350 6.6404286397681718 18.9451013200000169 O
atom 1.7187380669037053 5.6637973569868061 22.3826041722192528 O
atom 0.7420895651366156 9.1012788402206422 19.9217400420626163 O
atom 3.2029157598391373 8.1246390330004701 21.4059707442815679 O
atom 0.7420893419015446 8.1246397002200048 22.3826060842816119 O
atom 3.2029172230743335 9.1012775430013875 18.9451018520625638 O
atom 4.1795646648410214 5.6637984697673307 21.4059677722192632 O
atom 1.7187371801404030 6.6404259969870614 19.9217452799999464 O
atom 7.3824835299866782 9.8433813849937142 20.6638549971408523 Os
atom 4.9216602049954110 2.4608395499945117 20.6638558871407270 Os
atom 7.3824879349942618 2.4608407749923509 28.0464604071407493 Os
atom 4.9216540499869090 9.8433816199941973 18.2029902971408539 Os
atom 9.1012252680830610 1.7187364097682301 18.9451030499999717 O
atom 6.6403937369099477 0.7421005969862674 22.3826070122190472 O
atom 5.6637472951428949 4.1795818502204325 19.9217429520624236 O
atom 8.1245771998443903 3.2029488330010838 21.4059656442816006 O
atom 5.6637469919068586 3.2029486902197721 22.3826093142815878 O
atom 8.1245764330799872 4.1795846630015392 18.9451004620625021 O
atom 9.1012254948473252 0.7421014097676680 21.4059689622190987 O
atom 6.6403979701453144 1.7187379769875899 19.9217395200000382 O
atom 7.3824847099913287 4.9216944149939081 20.6638525971409663 Os
atom 4.9216527449885330 7.3825407099934894 20.6638520971409676 Os
atom 7.3824775649882470 7.3825444049932623 18.2029907871410366 Os
atom 4.9216590799930824 4.9216850599949469 18.2029900871407229 Os
atom 9.1012193180762964 6.6404368097674240 18.9451000900002136 O
atom 6.6403930969033738 5.6637997269862561 22.3826060922192838 O
atom 5.6637438951364203 9.1012802702199380 19.9217434820626238 O
atom 8.1245715498390219 8.1246401830001105 21.4059703642815791 O
atom 5.6637435019012852 8.1246417002193567 22.3826065242816341 O
atom 8.1245738830740581 9.1012795930011290 18.9451028220626121 O
atom 9.1012231448407288 5.6638006097673443 21.4059693922193262 O
atom 6.6403919101389803 6.6404354469866274 19.9217414900001870 O
atom 2.4608245799863484 9.8433787349921609 25.5855955271407751 Os
atom 0.0000011849946204 2.4608396899928979 25.5855981971407189 Os
atom 2.4608298549953402 2.4608377749936663 23.1247236371406544 Os
atom 9.8433117199869038 9.8433781299929262 23.1247231171407535 Os
atom 4.1795689480822684 1.7187367397671631 23.8668413500000014 O
atom 1.7187373669093962 0.7420993269851287 27.3043475522190278 O
atom 0.7420904451420957 4.1795824402193951 24.8434771820624505 O
atom 3.2029214398436383 3.2029487830000223 26.3277069542816236 O
atom 0.7420911119061859 3.2029481602186962 27.3043504242816013 O
atom 3.2029180330796194 4.1795822730000856 23.8668405820624301 O
atom 4.1795659448470950 0.7420981197660064 26.3277099522189886 O
atom 1.7187399201446041 1.7187376469861595 24.8434808400000264 O
atom 2.4608294399904653 4.9216950249929097 25.5855944371410047 Os
atom 9.8433118149879899 7.3825401099921795 25.5855942071409501 Os
atom 2.4608272249885137 7.3825383549932750 23.1247248571409258 Os
atom 9.8433140399913341 4.9216924799932826 23.1247214871409099 Os
atom 4.1795650480759416 6.6404343397666423 23.8668400000001668 O
atom 1.7187395469028701 5.6637980469855114 27.3043487122192801 O
atom 0.7420868551361453 9.1012775502188408 24.8434787320625503 O
atom 3.2029136398380116 8.1246416229986469 26.3277135542816225 O
atom 0.7420865619009616 8.1246389202180840 27.3043485942815707 O
atom 3.2029166830737688 9.1012767629998965 23.8668419720625380 O
atom 4.1795669948402212 5.6637988797661407 26.3277135122192973 O
atom 1.7187365801381098 6.6404362569857094 24.8434802000002364 O
atom 7.3824795899862536 9.8433796849916479 25.5855961271407750 Os
atom 4.9216602249955246 2.4608345499931046 25.5855961571405857 Os
atom 7.3824874549953368 2.4608385249937723 23.1247170571406784 Os
atom 4.9216527499865084 9.8433802299928157 23.1247222771407976 Os
atom 9.1012234980823390 1.7187365897665272 23.8668436199999618 O
atom 6.6403955669090733 0.7421016369850862 27.3043495522191009 O
atom 5.6637440851424481 4.1795806102186628 24.8434777020623656 O
atom 8.1245767398438211 3.2029480229995628 26.3277072342815828 O
atom 5.6637473119070281 3.2029434102184466 27.3043484342814438 O
atom 8.1245762130800045 4.1795802730001101 23.8668401520623732 O
atom 9.1012230348466918 0.7421010297658601 26.3277093322190652 O
atom 6.6403974901449310 1.7187364069862929 24.8434730999999900 O
atom 7.3824824999910916 4.9216915349921084 25.5855940871408691 Os
atom 4.9216495149876405 7.3825418599914947 25.5855946271409707 Os
atom 7.3824810949883828 7.3825395049925593 23.1247261471409260 Os
atom 4.9216544199910590 4.9216937799930180 23.1247222871409335 Os
atom 9.1012212780762063 6.6404330297663163 23.8668408000001193 O
atom 6.6403930469026813 5.6637996369847832 27.3043482822193013 O
atom 5.6637418351359239 9.1012793602183653 24.8434778820625795 O
atom 8.1245728298380513 8.1246418929988895 26.3277111742816459 O
atom 5.6637387219006863 8.1246410402171332 27.3043484442815796 O
atom 8.1245721030736444 9.1012778929994536 23.8668423220625456 O
atom 9.1012220448403802 5.6637985097657788 26.3277088922192561 O
atom 6.6403903601383822 6.6404349069849928 24.8434808600001560 O
atom 4.1795695680813969 1.7187381197659883 28.7885768300000535 O
atom 3.2029218230800272 4.1795757129994442 28.7885751920622752 O
atom 2.4608253749878553 7.3825380849915234 28.0464666771409128 Os
atom 0.0000001399901524 4.9216947399922297 28.0464622871409972 Os
atom 4.1795659180763041 6.6404280797655364 28.7885744200000033 O
atom 3.2029170630731030 9.1012769829987512 28.7885749520625467 O
atom 4.9216538899856799 9.8433810599915628 28.0464633971408404 Os
atom 9.1012251080818292 1.7187358497655958 28.7885761499999617 O
atom 8.1245762730787572 4.1795841029989047 28.7885735620624885 O
atom 7.3824774049870161 7.3825438449906269 28.0464638871410230 Os
atom 4.9216589199918515 4.9216844999923124 28.0464631871407093 Os
atom 9.1012191580750663 6.6404362497647904 28.7885731900002000 O
atom 8.1245737230728299 9.1012790329984945 28.7885759220625985 O
