#===============================================================================
# Created using the Atomic Simulation Environment (ASE)

# Mon Mar 23 14:01:09 2026

#=======================================================
lattice_vector 22.0103944943716279 0.0000000000000000 0.0000000000000000 
lattice_vector -8.8041042034015895 10.7828962547440934 0.0000000000000000 
lattice_vector 0.0000000000000000 0.0000000000000000 40.4608503324147648 
atom 12.1058117346950453 3.1450462349423365 17.2165008116526153 Os
atom 14.3068380136220945 0.4493244433883460 17.2164994623853822 Os
atom 11.0052629923859620 0.0000347336207614 16.2118575849263422 Os
atom 4.4021916553725715 3.5943374418122089 18.2211423869918150 Os
atom 9.7998720832560320 1.2622605306184955 17.2165102348839021 O
atom 4.5071030940319865 9.5277396899291844 17.6152055085044594 O
atom 11.7739550753554987 9.6133741990992370 15.4144317415124341 O
atom -7.5986406530188173 9.5206945637246481 15.2072126712581088 O
atom 1.8693046008480843 9.6204175671206187 17.8224275548913127 O
atom 12.4376677947565302 1.1695888992848356 17.0092830241579733 O
atom 12.1058090737768911 7.6379171975630724 15.2072162932918360 Os
atom 14.3068391003256945 4.9421762284150104 15.2072182590233709 Os
atom 4.4021884891164493 8.0871960697396652 16.2118653641013566 Os
atom 9.7998715689414233 5.7551242267798530 15.2072250959900366 O
atom 13.5382136678402780 7.4525709548480030 16.6105718026422373 O
atom 13.3112058529372987 3.2377009128870715 15.6059268444484331 O
atom 11.7739596369363486 5.1205031178026204 17.4237171457611097 O
atom 14.4117528529989123 5.0278285178273494 17.2164935603015792 O
atom 10.6734102532134525 3.3303752736912440 15.8131483519387288 O
atom 10.9004198167290962 7.5452435757205265 16.8177953227903814 O
atom 12.4376708582063067 5.6624553431981370 15.0000061849244233 O
atom 16.5078655894695316 2.2464588807222672 15.2072195225336095 Os
atom 9.9047848296770287 10.3336369899287526 15.2072193939369349 Os
atom 6.6032151302756814 0.8986149765692093 18.2211422257451545 Os
atom 8.8042435737297282 2.6957520393200283 16.2118632575131016 Os
atom 14.2019248915436105 0.3636778356868491 15.2072257695884971 O
atom 17.9402706352289627 2.0611284616992602 16.6105700961226574 O
atom 8.9091568057155790 8.6291552861123240 15.6059259421872092 O
atom 7.3719036891746130 10.5119490451579374 17.4237139900295546 O
atom 10.0097040204421077 10.4192775343316750 17.2164953279953892 O
atom 6.2713579592012536 8.7218245950939792 15.8131462208810021 O
atom 15.3024714309763112 2.1538016960358402 16.8177942531681701 O
atom 16.8397194000575325 0.2710026660790722 15.0000031149287985 O
atom 7.7037619584862069 8.5364865024902166 17.2165009463791918 Os
atom 9.9047896819066548 5.8407611069191789 17.2165000135251205 Os
atom 6.6032234037239261 5.3914675996014845 16.2118644393771447 Os
atom 5.3978245609828228 6.6536994799681715 17.2165073730578513 O
atom 8.9091599585694237 4.1362842230749521 17.6152106279271266 O
atom 16.1760123557840814 4.2219174560447392 15.4144344236933399 O
atom -3.1965870978933641 4.1292420819512019 15.2072111893184214 O
atom 6.2713611702052781 4.2289575413865554 17.8224313230244960 O
atom 8.0356213726741927 6.5610287651712937 17.0092875026275863 O
atom 1.1006199882522658 3.1450464083802396 17.2165034284914213 Os
atom 3.3016442905217822 0.4493263531204844 17.2165058636934134 Os
atom 0.0000686431488681 0.0000338316998006 16.2118587525015201 Os
atom 15.4073886610534281 3.5943375915196838 18.2211406886799949 Os
atom 20.8050704350633140 1.2622623088881095 17.2165101450586420 O
atom -6.4980934912739707 9.5277379390443020 17.6152068843013865 O
atom 0.7687572110280245 9.6133669673495881 15.4144370283482708 O
atom 3.4065575601825104 9.5206957997617998 15.2072179580649163 O
atom 12.8745061770623543 9.6204118361121509 17.8224301227609665 O
atom 1.4324733471619184 1.1695885286661591 17.0092889804849392 O
atom 1.1006152790980104 7.6379041051796452 15.2072248869285573 Os
atom 3.3016448047852656 4.9421795695261173 15.2072229130287511 Os
atom -6.6030085121333144 8.0871963983598043 16.2118598772421194 Os
atom -1.2053238759633709 5.7551193721366074 15.2072288886173723 O
atom 2.5330185986348472 7.4525732717266138 16.6105793592998943 O
atom 2.3060119151366636 3.2377021361265022 15.6059271057050353 O
atom 0.7687670139693881 5.1205024112417270 17.4237225958502542 O
atom 3.4065606861857898 5.0278306575924763 17.2164971201918284 O
atom -0.3317849859643200 3.3303769497231555 15.8131508748974561 O
atom -0.1047754760738935 7.5452467415724787 16.8178040919448009 O
atom 1.4324733471550641 5.6624450314152055 15.0000089447084406 O
atom 5.5026738430258764 2.2464611446321912 15.2072211064993716 Os
atom -1.1004108432960329 10.3336426752876687 15.2072205451746143 Os
atom 17.6084098372475424 0.8986147008726261 18.2211354120967606 Os
atom -2.2009546260507493 2.6957511611296532 16.2118585749128528 Os
atom 3.1967309537565827 0.3636785751105531 15.2072285497381792 O
atom 6.9350743585364549 2.0611297926771286 16.6105763055703548 O
atom -2.0960384469169258 8.6291549337318756 15.6059228027469459 O
atom -3.6332909641447406 10.5119512999514075 17.4237177336458799 O
atom -0.9954924351604969 10.4192831101458570 17.2164955484318227 O
atom -4.7338377584970797 8.7218294679971304 15.8131470496046873 O
atom 4.2972780208981440 2.1538027476585184 16.8177963597043458 O
atom 5.8345211823999570 0.2710026861573889 15.0000000000000000 O
atom -3.3014311743127593 8.5364902908992466 17.2165030488248796 Os
atom -1.1004020734708828 5.8407614099884180 17.2165041939546306 Os
atom -4.4019776045253236 5.3914720416375461 16.2118630554271981 Os
atom 11.0053368768682116 8.9857792776776026 18.2211423788410585 Os
atom 16.4030218439748303 6.6537045664914247 17.2165101736290644 O
atom -2.0960364791777812 4.1362836516091681 17.6152078069280122 O
atom 5.1708157973356537 4.2219174432741235 15.4144392695965280 O
atom 7.8086167546544401 4.1292435315792062 15.2072134999615436 O
atom 17.2765612572092238 4.2289596044704405 17.8224324579332425 O
atom -2.9695732985494434 6.5610297638494073 17.0092890988609327 O
atom 3.3017101072421329 4.9422143341848397 21.2350646799348723 Os
atom 5.5027363861691763 2.2464925426308500 21.2350633306676357 Os
atom 2.2011613649330486 1.7972028328632630 20.2304214532085958 Os
atom -4.4019099720803441 5.3915055410547099 22.2397062552740721 Os
atom 0.9957704558031200 3.0594286298609972 21.2350741031661592 O
atom 13.5382167223349619 2.9597168547728052 18.6198540511009227 O
atom 4.5071056699806613 0.5420115344275906 21.6337693767867165 O
atom 11.7739576513041744 0.6276460435976468 19.4329956097946912 O
atom 14.4117564173014863 0.5349664082230569 19.2257765395403659 O
atom 1.8693071767967568 0.6346894116190263 21.8409914231735698 O
atom 10.9004189044230166 3.0523869944680335 18.8270758688827939 O
atom 3.6335661673036181 2.9667569985273397 21.0278468924402304 O
atom 3.3017074463239768 9.4350852968055747 19.2257801615740931 Os
atom 5.5027374728727789 6.7393443276575118 19.2257821273056280 Os
atom 2.2011683996385925 6.2900590361903186 18.2211487821906104 Os
atom -4.4019131383364627 9.8843641689821684 20.2304292323836137 Os
atom 0.9957699414885138 7.5522923260223545 19.2257889642722972 O
atom 4.7341120403873589 9.2497390540905045 20.6291356709244980 O
atom 4.5071042254843867 5.0348690121295734 19.6244907127306902 O
atom 2.9698580094834290 6.9176712170451236 21.4422810140433633 O
atom 5.6076512255460020 6.8249966170698517 21.2350574285838363 O
atom 1.8693086257605371 5.1275433729337472 19.8317122202209859 O
atom 2.0963181892761820 9.3424116749630279 20.8363591910726420 O
atom 3.6335692307533933 7.4596234424406394 19.0185700532066804 O
atom 7.7037639620166223 4.0436269799647686 19.2257833908158631 Os
atom 9.9047874056257044 1.3479088344271599 19.2257832622191920 Os
atom -2.2008864971772297 2.6957830758117107 22.2397060940274116 Os
atom 0.0001419462768136 4.4929201385625319 20.2304271257953587 Os
atom 5.3978232640906985 2.1608459349293532 19.2257896378707542 O
atom 9.1361690077760507 3.8582965609417665 20.6291339644049145 O
atom 0.1050551782626612 10.4263233853548289 19.6244898104694627 O
atom 7.3719062651232923 1.5262208896563458 21.4422778583118046 O
atom 10.0097065963907799 1.4335493788300850 21.2350591962776463 O
atom -2.5327436682516637 10.5189926943364807 19.8317100891632592 O
atom 6.4983698035234001 3.9509697952783420 20.8363581214504308 O
atom 8.0356177726046152 2.0681707653215762 19.0185669832110555 O
atom -1.1003396689667060 10.3336546017327215 21.2350648146614489 Os
atom 1.1006880544537443 7.6379292061616804 21.2350638818073776 Os
atom -2.2008782237289890 7.1886356988439877 20.2304283076594054 Os
atom 0.0001374786217192 8.9857899181105694 18.2211441261315983 Os
atom -3.4062770664700888 8.4508675792106729 21.2350712413401084 O
atom 9.1361664676021501 8.3511529797155291 18.6198550145839903 O
atom 0.1050583311165077 5.9334523223174536 21.6337744962093836 O
atom 7.3719107283311676 6.0190855552872415 19.4329982919755935 O
atom 10.0097057690253504 5.9264101811937042 19.2257750576006785 O
atom -2.5327404572476331 6.0261256406290578 21.8409951913067530 O
atom 6.4983693965611833 8.4438263308952894 18.8270796043598843 O
atom -0.7684802547787207 8.3581968644137952 21.0278513709098434 O
atom 14.3069128551709817 4.9422145076227411 21.2350672967736784 Os
atom 16.5079371574404981 2.2464944523629886 21.2350697319756705 Os
atom 13.2063615100675822 1.7972019309423022 20.2304226207837772 Os
atom 6.6032870336005178 5.3915056907621857 22.2397045569622520 Os
atom 12.0009688076104037 3.0594304081306110 21.2350740133408991 O
atom 2.5330227308692836 2.9597152042977446 18.6198556269240321 O
atom 15.5123035790463337 0.5420097835427118 21.6337707525836436 O
atom 0.7687597869767018 0.6276388118479943 19.4330008966305243 O
atom 3.4065601361311861 0.5349676442602095 19.2257818263471734 O
atom 12.8745087530110336 0.6346836806105571 21.8409939910432236 O
atom -0.1047734278655526 3.0523898663527955 18.8270780284806705 O
atom 14.6387662140806327 2.9667566279086608 21.0278528487671963 O
atom -7.7034863483549021 9.4350722044221467 19.2257887552108144 Os
atom -5.5024568226676482 6.7393476687686196 19.2257867813110082 Os
atom 13.2063617068476091 6.2900574441448596 18.2211451977974832 Os
atom 6.6032843547853979 9.8843644976023075 20.2304237455243765 Os
atom 12.0009689909553448 7.5522874713791106 19.2257927568996294 O
atom -6.2710830288180688 9.2497413709691134 20.6291432275821514 O
atom 15.5123047820553790 5.0348702353690040 19.6244909739872959 O
atom 13.9750598808881001 6.9176705104842293 21.4422864641325113 O
atom -5.3975409412671240 6.8249987568349768 21.2350609884740820 O
atom 12.8745078809543969 5.1275450489656587 19.8317147431797132 O
atom 13.1015173908448226 9.3424148408149801 20.8363679602270544 O
atom 14.6387662140737778 7.4596131306577087 19.0185728129906977 O
atom -3.3014277844270365 4.0436292438746939 19.2257849747816287 Os
atom -1.1004082673473565 1.3479145197860776 19.2257844134568714 Os
atom 8.8043082097946304 2.6957828001151278 22.2396992803790177 Os
atom 11.0053382408679639 4.4929192603721546 20.2304224431951098 Os
atom 16.4030238206752976 2.1608466743530572 19.2257924180204327 O
atom -1.8690272689164598 3.8582978919196327 20.6291401738526083 O
atom 11.1102544200017874 10.4263230329743806 19.6244866710292030 O
atom 18.3771061061755638 1.5262231444498171 21.4422816019281370 O
atom -0.9954898592118209 1.4335549546442656 21.2350594167140798 O
atom 8.4724551084216362 10.5189975672396319 19.8317109178869444 O
atom 17.5035708878168599 3.9509708469010225 20.8363602279866029 O
atom 19.0408140493186728 2.0681707853998930 19.0185638682822571 O
atom 9.9048616926059516 10.3336583901417480 21.2350669171071402 Os
atom 12.1058907934478288 7.6379295092309194 21.2350680622368913 Os
atom 8.8043152623933914 7.1886401408800484 20.2304269237094587 Os
atom 11.0053394528168909 0.0000511221760123 22.2397062471233156 Os
atom 7.5989202165219139 8.4508726657339270 21.2350740419113251 O
atom -1.8690282840995016 8.3511548711888306 18.6198597094202611 O
atom 11.1102563877409324 5.9334517508516695 21.6337716752102693 O
atom -3.6332858301172593 6.0190855425166268 19.4330031378787851 O
atom -0.9954848727984744 5.9264116308217067 19.2257773682437971 O
atom 8.4724596297563100 6.0261277037129446 21.8409963262155031 O
atom -4.5068256190151006 8.4438288832797728 18.8270808535805898 O
atom 10.2367195683692724 8.3581978630919078 21.0278529671431897 O
atom -5.5023915202107831 6.7393824334273411 25.2536285482171294 Os
atom -3.3013652412837344 4.0436606418733518 25.2536271989498928 Os
atom 15.4074542318517622 3.5943709321057646 24.2489853214908564 Os
atom 14.2020633227218358 4.8565967291035008 25.2536379714484163 O
atom 4.7341150948820490 4.7568849540153071 22.6384179193831798 O
atom 2.9698560238512601 2.4248141428401482 23.4515594780769518 O
atom 5.6076547898485716 2.3321345074655584 23.2443404078226266 O
atom 2.0963172769701059 4.8495550937105349 22.8456397371650475 O
atom 16.8398590342223322 4.7639250977698415 25.0464107607224875 O
atom 3.3017100222726561 0.4493571413039846 23.2443440298563537 Os
atom -3.3013641545801335 8.5365124269000159 23.2443459955878851 Os
atom -6.6029332278143205 8.0872271354328227 22.2397126504728675 Os
atom 17.6084839319838444 0.8986360134805755 24.2489931006658708 Os
atom 14.2020628084072307 9.3494604252648568 23.2443528325545543 O
atom 4.7341146163360364 0.2640108985889142 24.6476995392067515 O
atom -4.2969974019685315 6.8320371113720757 23.6430545810129473 O
atom -5.8342436179694861 8.7148393162876268 25.4608448823256239 O
atom -3.1964504019069149 8.6221647163123531 25.2536212968660934 O
atom 15.0756014926792510 6.9247114721762495 23.8502760885032430 O
atom 2.0963207652248621 0.3566835194614363 24.8549230593548955 O
atom -5.1705323966995191 9.2567915416831408 23.0371339214889375 O
atom -1.1003376654362964 5.8407950792072700 23.2443472590981202 Os
atom 1.1006857781727906 3.1450769336696616 23.2443471305014491 Os
atom 13.2064348131955303 6.2900882378050316 24.2489909940776158 Os
atom 18.6041161310094125 3.9580140341718524 23.2443535061530113 O
atom 0.3320673803231348 5.6554646601842684 24.6476978326871716 O
atom 0.1050577542113444 1.4405952298532338 23.6430536787517198 O
atom -1.4321953623296282 3.3233889888988473 25.4608417265940687 O
atom 1.2056049689378689 3.2307174780725840 25.2536230645599069 O
atom 19.4776534020686434 1.5332645388348896 23.8502739574455163 O
atom -2.3057318239295190 5.7481378945208439 24.8549219897326878 O
atom -0.7684838548482981 3.8653388645640780 23.0371308514933126 O
atom -1.1003370930180285 1.3479264462311280 25.2536286829437060 Os
atom -7.7034135729991702 9.4350973054041827 25.2536277500896347 Os
atom 11.0054146431897308 8.9858037980864900 24.2489921759416625 Os
atom 0.0001400545703940 0.0000617626089790 22.2397079944138554 Os
atom 9.8000158004486178 10.2480356784531779 25.2536351096223726 O
atom 0.3320648401492352 10.1483210789580305 22.6384188828662509 O
atom -1.4321908991217462 7.8162536545297447 23.4515621602578506 O
atom 1.2056041415724348 7.7235782804362074 23.2443389258829356 O
atom -2.3057322308917332 10.2409944301377909 22.8456434726421449 O
atom 12.4378126121399930 10.1553649636562984 25.0464152391921004 O
atom 5.5028112277180661 6.7393826068652443 25.2536311650559355 Os
atom 7.7038355299875807 4.0436625516054878 25.2536336002579276 Os
atom 4.4022598826146684 3.5943700301848041 24.2489864890660343 Os
atom 3.1968671801574868 4.8565985073731124 25.2536378816231561 O
atom 15.7393155977879982 4.7568833035402482 22.6384194952062927 O
atom 13.9750526538954141 2.4248069110904984 23.4515647649127885 O
atom 16.6128530030499029 2.3321357435027110 23.2443456946294305 O
atom 13.1015194390531580 4.8495579655952969 22.8456418967629276 O
atom 5.8346645866277180 4.7639247271511627 25.0464167170494534 O
atom 14.3069107219653979 0.4493440489205563 23.2443526234930751 Os
atom 7.7038360442510658 8.5365157680111245 23.2443506495932652 Os
atom 4.4022600793946989 8.0872255433873619 22.2397090660797403 Os
atom 6.6032869307340754 0.8986363421007174 24.2489876138066336 Os
atom 3.1968673635024283 9.3494555706216129 23.2443566251818865 O
atom 15.7393140415022330 0.2640132154675232 24.6477070958644120 O
atom 6.7082031546024652 6.8320383346115063 23.6430548422695495 O
atom 5.1709582534351872 8.7148386097267316 25.4608503324147684 O
atom 7.8087519256515883 8.6221668560774791 25.2536248567563426 O
atom 4.0704062535014804 6.9247131482081610 23.8502786114619703 O
atom 13.1015199667934965 0.3566866853133898 24.8549318285093150 O
atom 5.8346645866208622 9.2567812299002092 23.0371366812729548 O
atom 9.9048650824916766 5.8407973431171971 23.2443488430638858 Os
atom 12.1058845995713575 3.1450826190285790 23.2443482817391320 Os
atom 2.2012366134150514 6.2900873596146569 24.2489863114773705 Os
atom 7.5989221932223803 3.9580147735955586 23.2443562863026969 O
atom 11.3372655980022561 5.6554659911621341 24.6477040421348619 O
atom 11.1102569959504649 1.4405948774727881 23.6430505393114636 O
atom 9.5730044787226483 3.3233912436923188 25.4608454702103941 O
atom 12.2108030077068914 3.2307230538867695 25.2536232849963405 O
atom 8.4724576843703083 1.5332694117380408 23.8502747861692015 O
atom 8.6994692603639425 5.7481389461435217 24.8549240962688636 O
atom 10.2367124218657572 3.8653388846423944 23.0371277365645177 O
atom 9.9048642685546273 1.3479302346401583 25.2536307853893973 Os
atom 3.3017891659949141 9.4350976084734217 25.2536319305191483 Os
atom 0.0002136349404792 8.9858082401225516 24.2489907919917158 Os
atom -1.2051814109310020 10.2480407649764285 25.2536379101935786 O
atom 11.3372645828192109 10.1483229704313320 22.6384235777025182 O
atom 9.5730070368014530 7.8162536417591282 23.4515670061610422 O
atom 12.2108079941202377 7.7235797300642108 23.2443412365260542 O
atom 8.6994672479036161 10.2409969825222742 22.8456447218628469 O
atom 1.4326179409163549 10.1553659623344110 25.0464168354254468 O
