#===============================================================================
# Created using the Atomic Simulation Environment (ASE)

# Mon Mar 23 14:01:08 2026

#=======================================================
lattice_vector 22.0103944943716279 0.0000000000000000 0.0000000000000000 
lattice_vector -0.0000025759486765 9.8433818399997932 0.0000000000000000 
lattice_vector 0.0000000000000000 0.0000000000000000 38.5772466505021399 
atom 12.1058117346950471 0.0000039730233354 15.7686431716275592 Os
atom 4.4021916553725644 0.0000031920272799 16.8691736271216399 Os
atom 9.7998695073073563 8.1246433465644863 15.0000038918046386 O
atom 11.7739550753554987 6.6404419264044741 16.7642853627511386 O
atom 14.4117538413528123 6.6404347194825890 16.5372847948260926 O
atom 12.1058090737768911 4.9217022330230957 15.7686436233213350 Os
atom 9.7998715689414286 3.2029533865643933 15.0000008104979372 O
atom 11.7739596369363451 1.7187431964050350 16.7642856713083930 O
atom 14.4117528529989158 1.7187424294822220 16.5372830372913171 O
atom 6.6032125543270030 7.3825408830234309 15.7686438983408266 Os
atom 8.9091568057155790 5.6638004194829961 16.5372869827319064 O
atom 6.2713579592012554 5.6637977064045701 16.7642844380518063 O
atom 15.3024688550276355 9.1012804765642183 15.0000000000000000 O
atom 9.9047896819066565 2.4608415820267764 16.8691689246710652 Os
atom 6.6032234037239279 2.4608378130246988 15.7686430083259488 Os
atom 8.9091599585694237 0.7421019994833086 16.5372866428384029 O
atom 6.2713611702052781 0.7421027764050862 16.7642861150909113 O
atom 15.3024710240140962 4.1795812765644413 15.0000000402444051 O
atom 1.1006199882522667 0.0000030630242938 15.7686456312673258 Os
atom 15.4073886610534299 0.0000040220271039 16.8691721379018205 Os
atom 20.8050678591146365 8.1246450065646947 15.0000045357850063 O
atom 0.7687572110280211 6.6404331664045770 16.7642872365808913 O
atom 3.4065575601825091 6.6404336894832321 16.5372901256060878 O
atom 1.1006152790980070 4.9216867730237901 15.7686461232248085 Os
atom 15.4073859822383099 4.9216896720267078 16.8691710109329449 Os
atom 20.8050706184082586 3.2029474065647729 15.0000022907640194 O
atom 0.7687670139693886 1.7187403264060956 16.7642903580776519 O
atom 3.4065606861857827 1.7187429294832881 16.5372871605682050 O
atom 17.6084072612988649 7.3825434130224838 15.7686375658122735 Os
atom 19.9143560474546994 5.6638013794829662 16.5372839729715899 O
atom 17.2765567358745500 5.6638018164050372 16.7642871839331207 O
atom 4.2972754449494621 9.1012805765649478 15.0000023523190222 O
atom 20.9099924209007497 2.4608401520278784 16.8691728645879415 Os
atom 17.6084168898463069 2.4608424330242582 15.7686435584222160 Os
atom 19.9143580151938444 0.7421026294831419 16.5372838343317987 O
atom 17.2765612572092202 0.7421041964056401 16.7642879933697557 O
atom 4.2972760084378043 4.1795830965649454 15.0000022226323395 O
atom 3.3017101072421373 0.0000048290369610 20.1707641082213982 Os
atom 5.5027338102205068 7.3825436200333998 19.0702335699659820 Os
atom 2.2011587889843613 7.3825458910297685 17.9697034498682626 Os
atom 17.6084845222912811 0.0000040480409055 21.2712945637154753 Os
atom 0.9957678798544392 8.1246442025781125 19.4021248283984775 O
atom 13.5382141463862844 9.1012847576489513 16.9740614879960354 O
atom 4.5071030940319892 5.6638021374892356 18.7383454341138744 O
atom 2.9698534479025840 6.6404427824181003 21.1664062993449775 O
atom 5.6076522138998977 6.6404355754962143 20.9394057314199316 O
atom 1.8693046008480889 5.6638065244113500 18.9653480010822264 O
atom 10.9004163284743409 9.1012821745708283 17.2010606874423821 O
atom 3.6335635913549433 8.1246476256554256 19.1751200969333127 O
atom 3.3017074463239751 4.9217030890367210 20.1707645599151739 Os
atom 5.5027374728727816 2.4608411800333903 19.0702292185636679 Os
atom 2.2011683996385947 2.4608440010314698 17.9697086911595676 Os
atom 4.4021884891164547 4.9216871320271514 16.8691758855629530 Os
atom 0.9957699414885147 3.2029542425780186 19.4021217470917762 O
atom 13.5382136678402762 4.1795848576484005 16.9740571276756214 O
atom 4.5071042254843867 0.7421038574893435 18.7383457248044252 O
atom 2.9698580094834286 1.7187440524186608 21.1664066079022319 O
atom 5.6076512255460038 1.7187432854958478 20.9394039738851561 O
atom 1.8693086257605434 0.7421052544116516 18.9653463642640112 O
atom 10.9004198167290962 4.1795838445710451 17.2010588941025482 O
atom 3.6335692307533924 3.2029567856566423 19.1751257139083009 O
atom 7.7037639620166178 0.0000011210304720 17.9697028796422842 Os
atom 9.9047848296770287 7.3825427420267937 16.8691749441878045 Os
atom 19.8095054212457171 7.3825417390370580 20.1707648349346655 Os
atom 0.0001419462768180 0.0000012400344329 19.0702361034007808 Os
atom 5.3978206881420228 8.1246460445713939 17.2010626025391815 O
atom 9.1361664318273714 9.1012820456558199 19.1751183383154995 O
atom 0.1050551782626636 5.6638012754966223 20.9394079193257454 O
atom 7.3719036891746175 6.6404338244108763 18.9653423606750380 O
atom 10.0097040204421077 6.6404338674895529 18.7383454822514643 O
atom 19.4776508261199695 5.6637985624181955 21.1664053746456489 O
atom 6.4983672275747209 9.1012813325778446 19.4021209365938390 O
atom 8.0356151966559395 8.1246443776488064 16.9740605856687097 O
atom 7.7037619584862060 4.9216880910300498 17.9697005541365336 Os
atom 1.1006880544537463 2.4608424380404017 21.2712898612649077 Os
atom 19.8095162706426429 2.4608386690383242 20.1707639449197877 Os
atom 0.0001374786217239 4.9216978000340452 19.0702374584777203 Os
atom 5.3978245609828273 3.2029456445713853 17.2010580006957134 O
atom 9.1361664676021466 4.1795829156557174 19.1751179358320520 O
atom 0.1050583311165125 0.7421028554969342 20.9394075794322418 O
atom 7.3719107283311676 1.7187424744119635 18.9653447621753983 O
atom 10.0097057690253468 1.7187408574893894 18.7383421326188966 O
atom 19.4776540371239975 0.7421036324187118 21.1664070516847502 O
atom 6.4983693965611851 4.1795821325780667 19.4021209768382477 O
atom 8.0356213726741927 3.2029469076495269 16.9740603441428206 O
atom 14.3069128551709834 0.0000039190379194 20.1707665678611683 Os
atom 16.5079345814918170 7.3825427500345047 19.0702401931769288 Os
atom 13.2063589341189029 7.3825445910302152 17.9697041475031050 Os
atom 6.6032870336005232 0.0000048780407295 21.2712930744956594 Os
atom 12.0009662316617263 8.1246458625783209 19.4021254723788452 O
atom 2.5330201549206031 9.1012826076494520 16.9740622527107199 O
atom 15.5123010030976616 5.6637999774893757 18.7383459752383104 O
atom 13.9750500779467348 6.6404340224182032 21.1664081731747302 O
atom 16.6128504271012254 6.6404345454968592 20.9394110621999268 O
atom 12.8745061770623526 5.6638002444119184 18.9653480055273533 O
atom 21.9056184905573943 9.1012839145717752 17.2010638313224362 O
atom 14.6387636381319517 8.1246448556563031 19.1751253829804185 O
atom 14.3069081460167222 4.9216876290374154 20.1707670598186510 Os
atom 16.5079376717039779 2.4608423300343221 19.0702348310753464 Os
atom 13.2063617068476091 2.4608440110305732 17.9697047691214706 Os
atom 6.6032843547853979 4.9216905280403340 21.2712919475267839 Os
atom 12.0009689909553430 3.2029482625783983 19.4021232273578619 O
atom 2.5330185986348432 4.1795838876494473 16.9740649717882874 O
atom 15.5123047820553825 0.7421048674898493 18.7383464626856480 O
atom 13.9750598808881019 1.7187411824197214 21.1664112946714909 O
atom 16.6128535531045003 1.7187437854969139 20.9394080971620440 O
atom 12.8745078809543916 0.7421057544122039 18.9653493516379683 O
atom 21.9056190182977275 4.1795831545722049 17.2010681916607950 O
atom 14.6387662140737760 3.2029462456564435 19.1751240234436189 O
atom 18.7089667099445940 0.0000025410314221 17.9697052498391017 Os
atom 20.9099836510755885 7.3825474620273281 16.8691783161678117 Os
atom 8.8043056338459529 7.3825442690361092 20.1707585024061125 Os
atom 11.0053382408679656 0.0000023500338574 19.0702314702739031 Os
atom 16.4030212447266202 8.1246455845721002 17.2010654423244418 O
atom 20.1413646495064960 9.1012807256565473 19.1751245501062790 O
atom 11.1102544200017874 5.6638022354965907 20.9394049095654324 O
atom 18.3771035302268899 6.6404343544116369 18.9653466986303130 O
atom 21.0149020592111349 6.6404388674898982 18.7383479598092464 O
atom 8.4724551084216362 5.6638026724186643 21.1664081205269667 O
atom 17.5035683118681789 9.1012814325785758 19.4021232889128612 O
atom 19.0408114733699918 8.1246456676484051 16.9740577503405774 O
atom 18.7089633200588672 4.9216906910309248 17.9697040200153992 Os
atom 12.1058907934478341 2.4608410080415037 21.2712938011817840 Os
atom 8.8043152623933914 2.4608432890378835 20.1707644950160585 Os
atom 11.0053368768682116 4.9216888000337482 19.0702315194683187 Os
atom 16.4030218439748268 3.2029491445718414 17.2010626338279948 O
atom 20.1413662102721176 4.1795827256565374 19.1751229938019137 O
atom 11.1102563877409288 0.7421034854967675 20.9394047709256412 O
atom 18.3771086642543686 1.7187404844124829 18.9653491806415175 O
atom 21.0149096215731461 1.7187412374905167 18.7383448337468366 O
atom 8.4724596297563117 0.7421050524192657 21.1664089299635947 O
atom 17.5035688753565175 4.1795839525785716 19.4021231592261820 O
atom 19.0408211958221791 3.2029471676500445 16.9740622090070516 O
atom 18.7090266771392137 7.3825444760470260 23.4723545065598209 Os
atom 15.4074516559030741 7.3825467470433939 22.3718243864621016 Os
atom 4.7341125189333706 9.1012856136625775 21.3761824245898779 O
atom 17.7133959609507023 5.6638029935028609 23.1404663707077134 O
atom 15.0755974677668014 5.6638073804249744 23.3674689376760654 O
atom 2.0963147010214271 9.1012830305844528 21.6031816240362247 O
atom 16.8398564582736618 8.1246484816690501 23.5772410335271516 O
atom 18.7090303397914930 2.4608420360470160 23.4723501551575069 Os
atom 15.4074612665573092 2.4608448570450956 22.3718296277534066 Os
atom 17.6084813560351634 4.9216879880407758 21.2712968221567991 Os
atom 4.7341120403873616 4.1795857136620249 21.3761780642694603 O
atom 17.7133970924030990 0.7421047135029690 23.1404666613982677 O
atom 15.0756014926792563 0.7421061104252773 23.3674673008578537 O
atom 2.0963181892761846 4.1795847005846705 21.6031798306963907 O
atom 16.8398620976721105 3.2029576416702676 23.5772466505021399 O
atom 20.9100568289353248 0.0000019770440968 22.3718238162361232 Os
atom 1.1006832022241149 7.3825435980404173 21.2712958807816435 Os
atom 13.2064348131955285 0.0000020960480577 23.4723570399946233 Os
atom 18.6041135550607386 8.1246469005850184 21.6031835391330240 O
atom 0.3320648043744543 9.1012829016694443 23.5772392749093456 O
atom 20.5781965560933280 6.6404346804245025 23.3674632972688805 O
atom 1.2056023929891957 6.6404347235031782 23.1404664188453069 O
atom 21.2419080635746553 8.1246452336624326 21.3761815222625486 O
atom 20.9100548254049201 4.9216889470436742 22.3718214907303761 Os
atom 13.2064303455404382 4.9216986560476705 23.4723583950715593 Os
atom 18.6041174279015387 3.2029465005850111 21.6031789372895560 O
atom 0.3320648401492375 4.1795837716693427 23.5772388724258946 O
atom 20.5782035952498816 1.7187433304255892 23.3674656987692408 O
atom 1.2056041415724350 1.7187417135030154 23.1404630692127355 O
atom 21.2419142395929086 3.2029477636631527 21.3761812807366596 O
atom 7.7038329540389014 7.3825436060481291 23.4723611297707748 Os
atom 4.4022573066659891 7.3825454470438396 22.3718250840969475 Os
atom 15.7393130218393171 9.1012834636630764 21.3761831893045624 O
atom 6.7081993756447460 5.6638008335029992 23.1404669118321493 O
atom 4.0704045496094361 5.6638011004255420 23.3674689421211994 O
atom 13.1015168631044823 9.1012847705853996 21.6031847679162752 O
atom 5.8346620106790379 8.1246457116699276 23.5772463195742574 O
atom 7.7038360442510632 2.4608431860479478 23.4723557676691890 Os
atom 4.4022600793946935 2.4608448670441989 22.3718257057153096 Os
atom 15.7393114655535573 4.1795847436630726 21.3761859083821335 O
atom 6.7082031546024687 0.7421057235034748 23.1404673992794869 O
atom 4.0704062535014778 0.7421066104258295 23.3674702882318108 O
atom 13.1015173908448137 4.1795840105858293 21.6031891282546411 O
atom 5.8346645866208657 3.2029471016700688 23.5772449600374578 O
atom 9.9048650824916784 0.0000033970450477 22.3718261864329477 Os
atom 12.1058820236226765 7.3825483180409526 21.2712992527616542 Os
atom 2.2012366134150536 0.0000032060474830 23.4723524068677420 Os
atom 7.5989196172737028 8.1246464405857246 21.6031863789182843 O
atom 11.3372630220535786 9.1012815816701735 23.5772454867001215 O
atom 9.5730019027739761 6.6404352104252613 23.3674676352241519 O
atom 12.2108004317582193 6.6404397235035235 23.1404688964030854 O
atom 10.2367098459170798 8.1246465236620296 21.3761786869344235 O
atom 9.9048616926059516 4.9216915470445501 22.3718249566092382 Os
atom 2.2012352494152974 4.9216896560473735 23.4723524560621613 Os
atom 7.5989202165219112 3.2029500005854676 21.6031835704218338 O
atom 11.3372645828192091 4.1795835816701619 23.5772439303957562 O
atom 9.5730070368014548 1.7187413404261085 23.3674701172353565 O
atom 12.2108079941202359 1.7187420935041422 23.1404657703406755 O
atom 10.2367195683692636 3.2029480236636703 21.3761831456008942 O
