#===============================================================================
# Created using the Atomic Simulation Environment (ASE)

# Mon Mar 23 14:01:10 2026

#=======================================================
lattice_vector 9.0245745700181317 0.0000000000000000 0.0000000000000000 
lattice_vector -0.0000361800215085 9.0245852999456080 0.0000000000000000 
lattice_vector 0.0000000000000000 0.0000000000000000 30.0000151899999992 
atom 2.2561459975098246 2.2561410025092536 15.0000076699999951 Os
atom 3.6475632966864375 0.8647033516394799 15.0000151899999992 O
atom 0.8646910483636203 3.6475634833035566 15.0000112899999962 O
atom 2.2561033124414203 6.7684624124327568 15.0000102099999992 Os
atom 3.6475545516240859 5.3770217416310162 15.0000000000000000 O
atom 0.8646861932950555 8.1598849733028906 15.0000044499999916 O
atom 6.7684373075565443 2.2561222175173219 15.0000091099999935 Os
atom 8.1598558867005853 0.8647008166501141 15.0000132499999950 O
atom 5.3769831883806125 3.6475595283132889 15.0000048999999933 O
atom 6.7683900724858947 6.7684447474317047 15.0000100399999923 Os
atom 8.1598443716316584 5.3770224866360978 15.0000029299999937 O
atom 5.3769765433040311 8.1598850183090352 15.0000095999999985 O
