#===============================================================================
# Created using the Atomic Simulation Environment (ASE)

# Mon Mar 23 14:01:10 2026

#=======================================================
lattice_vector 11.0790232517419795 0.0000000000000000 0.0000000000000000 
lattice_vector 3.7278993459126002 10.4330108955597858 0.0000000000000000 
lattice_vector 0.0000000000000000 0.0000000000000000 31.9998309517630055 
atom 4.5289282922542631 3.1911030222888259 16.9998204554811387 Os
atom 4.7565581630527145 3.3514777670615787 15.0000029615675494 O
atom 5.6623320282092360 1.5825210637761866 16.9998020478356473 O
atom 3.3955032176562474 4.7996887247581341 16.9998032716768002 O
atom 6.1652674912543644 4.3440682252791003 16.7355237339510161 O
atom 1.7591698086880263 1.2395369989519684 15.8677620301118232 Os
atom 3.6231191257578175 6.4560466291220866 15.8677643264364470 Os
atom 6.3928575554442428 8.4076394371466971 16.9998251854462659 Os
atom 6.6204682433726614 8.5680344353814224 15.0000000000000000 O
atom 7.5262897000743285 6.7990452481130701 16.9998213254065611 O
atom 5.2594624675454256 10.0162145572799020 16.9998258263083777 O
atom 8.0291786963995087 9.5606348033036586 16.7355261694679349 O
atom 7.2986837562561568 1.2395335140004391 15.8677620689730041 Os
atom 10.0684434593419372 3.1910849822324754 16.9998149144860768 Os
atom 10.2960828677096661 3.3514523476339999 15.0000001971625920 O
atom 11.2018406762216127 1.5825111026842547 16.9998144467985348 O
atom 8.9350173334334180 4.7996829968662089 16.9998054831686538 O
atom 11.7048049210044987 4.3440409334889445 16.7355297776821565 O
atom 11.9323720901609196 8.4076261069433542 16.9998139365276266 Os
atom 12.1599967914039819 8.5680091635962796 15.0000022026439765 O
atom 13.0657971790768883 6.7990412190165532 16.9998309517630055 O
atom 10.7989767952410194 10.0162129750262601 16.9998269695897086 O
atom 13.5687096039692747 9.5606022326085363 16.7355248317882648 O
atom 9.1626338811084516 6.4560390769119431 15.8677628271185824 Os
