#===============================================================================
# Created using the Atomic Simulation Environment (ASE)

# Mon Mar 23 14:01:10 2026

#=======================================================
lattice_vector 9.0245745700181317 0.0000000000000000 0.0000000000000000 
lattice_vector -0.0000361800215085 9.0245852999456080 0.0000000000000000 
lattice_vector 0.0000000000000000 0.0000000000000000 38.0333193700000010 
atom -0.0000332900110248 9.0245800699514014 18.2133244600000026 Os
atom 1.3914457408577661 1.3914232891928298 18.2133249200000016 O
atom 9.0245717200162670 0.0000009299942871 15.0000005000000023 Os
atom 2.2561459975098246 2.2561410025092536 16.6066634200000003 Os
atom 1.3914393908613145 1.3914215191801012 15.0000014999999998 O
atom 3.6475632966864375 0.8647033516394799 16.6066709400000008 O
atom 0.8646910483636203 3.6475634833035566 16.6066670400000014 O
atom 3.1208561641946164 3.1208423858455423 15.0000010000000010 O
atom 9.0245532749959505 4.5122983499663789 18.2133248299999977 Os
atom -0.0000162650101328 4.5122923399764625 15.0000000000000000 Os
atom 2.2561033124414203 6.7684624124327568 16.6066659600000008 Os
atom 1.3913790057611781 5.9037587590681229 15.0000006500000005 O
atom 3.6475545516240859 5.3770217416310162 16.6066557500000016 O
atom 0.8646861932950555 8.1598849733028906 16.6066602000000003 O
atom 3.1207829690729714 7.6331903557078871 15.0000005200000004 O
atom 4.5122511799916971 9.0245832349457569 18.2133248200000004 Os
atom 7.6331642142419778 3.1208232808871670 18.2133252400000032 O
atom 4.5122865400060688 0.0000014949985066 15.0000000399999998 Os
atom 6.7684373075565443 2.2561222175173219 16.6066648600000022 Os
atom 5.9037496909136866 1.3913999142262352 15.0000015600000012 O
atom 8.1598558867005853 0.8647008166501141 16.6066690000000001 O
atom 5.3769831883806125 3.6475595283132889 16.6066606500000020 O
atom 7.6331682442424782 3.1208230308952452 15.0000019200000025 O
atom 4.5122699850014882 4.5122910649743870 15.0000008300000012 Os
atom 6.7683900724858947 6.7684447474317047 16.6066657900000010 Os
atom 5.9036881558085597 5.9037396441119521 15.0000004100000019 O
atom 8.1598443716316584 5.3770224866360978 16.6066586800000024 O
atom 5.3769765433040311 8.1598850183090352 16.6066653500000001 O
atom 7.6330882091266865 7.6331680807438786 15.0000011400000020 O
atom 2.2561446675106263 2.2561406025065880 19.8199876600000024 Os
atom 3.6475619066867182 0.8647032116366937 19.8199786800000020 O
atom 0.8646910983638411 3.6475633733036572 19.8199824100000015 O
atom 3.1208489641921711 3.1208436058311100 18.2133256900000013 O
atom 9.0245717200162670 0.0000009299942871 21.4266489300000025 Os
atom 2.2561459975098246 2.2561410025092536 23.0333118500000005 Os
atom 1.3914393908613145 1.3914215191801012 21.4266499300000000 O
atom 3.6475632966864375 0.8647033516394799 23.0333193700000045 O
atom 0.8646910483636203 3.6475634833035566 23.0333154700000016 O
atom 3.1208561641946164 3.1208423858455423 21.4266494300000012 O
atom 2.2561022624402174 6.7684630124306526 19.8199861100000021 Os
atom 1.3913713457512560 5.9037637090527699 18.2133267300000021 O
atom 3.6475534316211395 5.3770232116287708 19.8199964800000004 O
atom 0.8646855432950556 8.1598849733015868 19.8199894400000005 O
atom 3.1207888490599225 7.6331968657196736 18.2133268000000008 O
atom -0.0000162650101328 4.5122923399764625 21.4266484300000002 Os
atom 2.2561033124414203 6.7684624124327568 23.0333143900000046 Os
atom 1.3913790057611781 5.9037587590681229 21.4266490800000007 O
atom 3.6475545516240859 5.3770217416310162 23.0333041800000053 O
atom 0.8646861932950555 8.1598849733028906 23.0333086299999970 O
atom 3.1207829690729714 7.6331903557078871 21.4266489500000006 O
atom 6.7684387475579664 2.2561215075202092 19.8199871099999996 Os
atom 5.9037509709323892 1.3913905842288010 18.2133255400000031 O
atom 8.1598562067019280 0.8647001466507552 19.8199807100000029 O
atom 5.3769850083827793 3.6475584483169374 19.8199916500000022 O
atom 4.5122865400060688 0.0000014949985066 21.4266484699999999 Os
atom 6.7684373075565443 2.2561222175173219 23.0333132899999988 Os
atom 5.9037496909136866 1.3913999142262352 21.4266499900000014 O
atom 8.1598558867005853 0.8647008166501141 23.0333174300000003 O
atom 5.3769831883806125 3.6475595283132889 23.0333090799999987 O
atom 7.6331682442424782 3.1208230308952452 21.4266503500000027 O
atom 4.5122698549988804 4.5122923649741269 18.2133272200000000 Os
atom 6.7683912024849127 6.7684452374339683 19.8199860100000009 Os
atom 5.9036885358118472 5.9037380041127125 18.2133269300000009 O
atom 8.1598444616304562 5.3770230866362789 19.8199908000000029 O
atom 5.3769767133057149 8.1598841783093761 19.8199843000000016 O
atom 7.6330947691398565 7.6331615107570281 18.2133259200000026 O
atom 4.5122699850014882 4.5122910649743870 21.4266492600000014 Os
atom 6.7683900724858947 6.7684447474317047 23.0333142199999976 Os
atom 5.9036881558085597 5.9037396441119521 21.4266488399999986 O
atom 8.1598443716316584 5.3770224866360978 23.0333071099999991 O
atom 5.3769765433040311 8.1598850183090352 23.0333137800000038 O
atom 7.6330882091266865 7.6331680807438786 21.4266495700000021 O
