#===============================================================================
# Created using the Atomic Simulation Environment (ASE)

# Mon Mar 23 14:01:09 2026

#=======================================================
lattice_vector 22.0103944943716279 0.0000000000000000 0.0000000000000000 
lattice_vector -8.8041042034015895 10.7828962547440934 0.0000000000000000 
lattice_vector 0.0000000000000000 0.0000000000000000 43.8734913979500760 
atom -1.1004811322236689 1.3478781356998346 16.6105780089056694 Os
atom -7.7035590566982108 9.4350525988899374 16.6105766596384328 Os
atom 11.0052604164372863 8.9857628891223520 15.6059347821793946 Os
atom 13.2062932828254826 1.7971693425697060 17.6152195842448691 Os
atom 9.7998695073073527 10.2479886861200846 16.6105874321369598 O
atom 13.3112047214849003 7.7305715906866794 17.0092827057575136 O
atom 10.6734062283009976 7.8232494678781164 17.2165047521443668 O
atom 12.4376652188078580 10.1553170547864280 16.4033602214110275 O
atom 13.2062901165693649 6.2900279704971629 15.6059425613544089 Os
atom 0.3319208009215613 5.6554028556055007 16.0046489998952879 O
atom 0.1049129860185832 1.4405328136445692 15.0000040417014855 O
atom -1.4323332299823697 3.3233350185601189 16.8177943430141639 O
atom 1.2054599860802016 3.2306604185848475 16.6105707575546333 O
atom 19.4775118806663663 1.5332071744487419 15.2072255491917812 O
atom -2.3058730501896174 5.7480754764780233 16.2118725200434355 O
atom 6.6032125543270066 9.8843431320708017 17.6152194229982086 Os
atom 17.6083452011826402 0.8985839400775267 15.6059404547661540 Os
atom 4.7339777683102486 0.2639603624567608 16.0046472933757116 O
atom -4.2971360612031351 6.8319871868698216 15.0000031394402615 O
atom -5.8343891777441002 8.7147809459154342 16.8177911872826016 O
atom -3.1965888464766077 8.6221094350891736 16.6105725252484433 O
atom 15.0754595866541692 6.9246564958514760 15.2072234181340544 O
atom 2.0961785640575954 0.3566335967933387 16.2118714504212278 O
atom -5.5025309084325063 6.7393184032477143 16.6105781436322459 Os
atom -3.3015031850120575 4.0435930076766757 16.6105772107781746 Os
atom 15.4073250311768390 3.5942995003589826 15.6059416366301971 Os
atom 14.2019261884357348 4.8565313807256691 16.6105845703109054 O
atom 17.7132615860223339 2.3391161238324498 17.0092878251801807 O
atom 15.0754627976581901 2.4317894421440536 17.2165085202775501 O
atom 16.8397230001271083 4.7638606659287905 16.4033646998806404 O
atom 9.9047216157051796 1.3478783091377371 16.6105806257444755 Os
atom 3.3016417145731070 9.4350545086220770 16.6105830609464675 Os
atom 0.0000660672001909 8.9857619872013892 15.6059359497545689 Os
atom 2.2010957941347145 1.7971694922771817 17.6152178859330490 Os
atom -1.2053266352569889 10.2479904643896997 16.6105873423116961 O
atom 2.3060081361789435 7.7305698398017988 17.0092840815544406 O
atom -0.3317866898563595 7.8232437368696477 17.2165073200140171 O
atom 1.4324707712132421 10.1553166841677509 16.4033661777379933 O
atom 2.2010931153195994 6.2900282991173038 15.6059370744951718 Os
atom 11.3371202260877570 5.6554051724841106 16.0046565565529519 O
atom 11.1101135425895787 1.4405340368839994 15.0000043029580894 O
atom 9.5728686414223016 3.3233343119992256 16.8177997931033048 O
atom 12.2106623136387018 3.2306625583499726 16.6105743174448790 O
atom 8.4723166414885931 1.5332088504806536 15.2072280721505084 O
atom 8.6993261513790188 5.7480786423299772 16.2118812891978550 O
atom -4.4019872330727621 9.8843428563742162 17.6152126093498111 Os
atom 6.6031470014021645 0.8985830618871506 15.6059357721659051 Os
atom 15.7391759859893696 0.2639616934346269 16.0046535028234018 O
atom 6.7080631805359863 6.8319868344893733 15.0000000000000000 O
atom 5.1708106633081741 8.7147832007089043 16.8177949308989341 O
atom 7.8086091922924172 8.6221150109033537 16.6105727456848768 O
atom 4.0702638689558324 6.9246613687546281 15.2072242468577379 O
atom 13.1013796483510578 0.3566346484160193 16.2118735569574000 O
atom 5.5026704531401549 6.7393221916567443 16.6105802460779302 Os
atom 7.7036995539820303 4.0435933107459148 16.6105813912076812 Os
atom 4.4021240229275911 3.5943039423950442 15.6059402526802504 Os
atom -2.2009559900505016 7.1886111784351012 17.6152195760941126 Os
atom 3.1967289770561149 4.8565364672489233 16.6105873708821150 O
atom 6.7080651482751330 2.3391155523666654 17.0092850041810664 O
atom 4.0702683902905088 2.4317915052279395 17.2165096551863002 O
atom 5.8345283289034704 4.7638616646069050 16.4033662961139868 O
atom 12.1058117346950453 3.1450462349423365 20.6291418771879265 Os
atom 14.3068380136220945 0.4493244433883460 20.6291405279206899 Os
atom 11.0052629923859620 0.0000347336207614 19.6244986504616534 Os
atom 4.4021916553725715 3.5943374418122089 21.6337834525271262 Os
atom 9.7998720832560320 1.2622605306184955 20.6291513004192097 O
atom 0.3319238554162477 1.1625487555303013 18.0139312483539769 O
atom 4.5071030940319865 9.5277396899291844 21.0278465740397706 O
atom 11.7739550753554987 9.6133741990992370 18.8270728070477418 O
atom -7.5986406530188173 9.5206945637246481 18.6198537367934165 O
atom 1.8693046008480843 9.6204175671206187 21.2350686204266239 O
atom 19.7045205318759358 1.2552188952255319 18.2211530661358410 O
atom 12.4376677947565302 1.1695888992848356 20.4219240896932845 O
atom 12.1058090737768911 7.6379171975630724 18.6198573588271472 Os
atom 14.3068391003256945 4.9421762284150104 18.6198593245586821 Os
atom 11.0052700270915054 4.4928909369478172 17.6152259794436645 Os
atom 4.4021884891164493 8.0871960697396652 19.6245064296366678 Os
atom 9.7998715689414233 5.7551242267798530 18.6198661615253442 O
atom 13.5382136678402780 7.4525709548480030 20.0232128681775450 O
atom 13.3112058529372987 3.2377009128870715 19.0185679099837444 O
atom 11.7739596369363486 5.1205031178026204 20.8363582112964210 O
atom 14.4117528529989123 5.0278285178273494 20.6291346258368904 O
atom 10.6734102532134525 3.3303752736912440 19.2257894174740400 O
atom 10.9004198167290962 7.5452435757205265 20.2304363883256926 O
atom 12.4376708582063067 5.6624553431981370 18.4126472504597345 O
atom 16.5078655894695316 2.2464588807222672 18.6198605880689172 Os
atom 9.9047848296770287 10.3336369899287526 18.6198604594722426 Os
atom 6.6032151302756814 0.8986149765692093 21.6337832912804657 Os
atom 8.8042435737297282 2.6957520393200283 19.6245043230484129 Os
atom 14.2019248915436105 0.3636778356868491 18.6198668351238084 O
atom 17.9402706352289627 2.0611284616992602 20.0232111616579687 O
atom 8.9091568057155790 8.6291552861123240 19.0185670077225168 O
atom 7.3719036891746130 10.5119490451579374 20.8363550555648658 O
atom 10.0097040204421077 10.4192775343316750 20.6291363935307004 O
atom 6.2713579592012536 8.7218245950939792 19.2257872864163133 O
atom 15.3024714309763112 2.1538016960358402 20.2304353187034778 O
atom 16.8397194000575325 0.2710026660790722 18.4126441804641061 O
atom 7.7037619584862069 8.5364865024902166 20.6291420119145030 Os
atom 9.9047896819066548 5.8407611069191789 20.6291410790604317 Os
atom 6.6032234037239261 5.3914675996014845 19.6245055049124559 Os
atom 8.8042391060746326 7.1886218188680679 17.6152213233846524 Os
atom 5.3978245609828228 6.6536994799681715 20.6291484385931625 O
atom -4.0701263993165639 6.5539848804730267 18.0139322118370444 O
atom 8.9091599585694237 4.1362842230749521 21.0278516934624378 O
atom 16.1760123557840814 4.2219174560447392 18.8270754892286476 O
atom -3.1965870978933641 4.1292420819512019 18.6198522548537326 O
atom 6.2713611702052781 4.2289575413865554 21.2350723885598072 O
atom 15.3024710240140962 6.6466582316527880 18.2211568016129348 O
atom 8.0356213726741927 6.5610287651712937 20.4219285681628975 O
atom 1.1006199882522658 3.1450464083802396 20.6291444940267326 Os
atom 3.3016442905217822 0.4493263531204844 20.6291469292287246 Os
atom 0.0000686431488681 0.0000338316998006 19.6244998180368313 Os
atom 15.4073886610534281 3.5943375915196838 21.6337817542153061 Os
atom 20.8050704350633140 1.2622623088881095 20.6291512105939532 O
atom 11.3371243583221997 1.1625471050552429 18.0139328241770897 O
atom -6.4980934912739707 9.5277379390443020 21.0278479498366977 O
atom 0.7687572110280245 9.6133669673495881 18.8270780938835784 O
atom 3.4065575601825104 9.5206957997617998 18.6198590236002275 O
atom 12.8745061770623543 9.6204118361121509 21.2350711882962742 O
atom 8.6993281995873613 1.2552217671102914 18.2211552257337246 O
atom 1.4324733471619184 1.1695885286661591 20.4219300460202504 O
atom 1.1006152790980104 7.6379041051796452 18.6198659524638686 Os
atom 3.3016448047852656 4.9421795695261173 18.6198639785640623 Os
atom 0.0000688399288954 4.4928893449023581 17.6152223950505373 Os
atom -6.6030085121333144 8.0871963983598043 19.6245009427774306 Os
atom -1.2053238759633709 5.7551193721366074 18.6198699541526835 O
atom 2.5330185986348472 7.4525732717266138 20.0232204248352019 O
atom 2.3060119151366636 3.2377021361265022 19.0185681712403465 O
atom 0.7687670139693881 5.1205024112417270 20.8363636613855618 O
atom 3.4065606861857898 5.0278306575924763 20.6291381857271361 O
atom -0.3317849859643200 3.3303769497231555 19.2257919404327637 O
atom -0.1047754760738935 7.5452467415724787 20.2304451574801121 O
atom 1.4324733471550641 5.6624450314152055 18.4126500102437518 O
atom 5.5026738430258764 2.2464611446321912 18.6198621720346793 Os
atom -1.1004108432960329 10.3336426752876687 18.6198616107099255 Os
atom 17.6084098372475424 0.8986147008726261 21.6337764776320682 Os
atom -2.2009546260507493 2.6957511611296532 19.6244996404481640 Os
atom 3.1967309537565827 0.3636785751105531 18.6198696152734868 O
atom 6.9350743585364549 2.0611297926771286 20.0232173711056660 O
atom -2.0960384469169258 8.6291549337318756 19.0185638682822571 O
atom -3.6332909641447406 10.5119512999514075 20.8363587991811912 O
atom -0.9954924351604969 10.4192831101458570 20.6291366139671339 O
atom -4.7338377584970797 8.7218294679971304 19.2257881151399985 O
atom 4.2972780208981440 2.1538027476585184 20.2304374252396570 O
atom 5.8345211823999570 0.2710026861573889 18.4126410655353112 O
atom -3.3014311743127593 8.5364902908992466 20.6291441143601872 Os
atom -1.1004020734708828 5.8407614099884180 20.6291452594899383 Os
atom -4.4019776045253236 5.3914720416375461 19.6245041209625057 Os
atom 11.0053368768682116 8.9857792776776026 21.6337834443763697 Os
atom 16.4030218439748303 6.6537045664914247 20.6291512391643721 O
atom 6.9350733433534133 6.5539867719463283 18.0139369066733153 O
atom -2.0960364791777812 4.1362836516091681 21.0278488724633235 O
atom 5.1708157973356537 4.2219174432741235 18.8270803351318392 O
atom 7.8086167546544401 4.1292435315792062 18.6198545654968513 O
atom 17.2765612572092238 4.2289596044704405 21.2350735234685501 O
atom 4.2972760084378159 6.6466607840372705 18.2211580508336439 O
atom -2.9695732985494434 6.5610297638494073 20.4219301643962439 O
atom 3.3017101072421329 4.9422143341848397 24.6477057454701836 Os
atom 5.5027363861691763 2.2464925426308500 24.6477043962029470 Os
atom 2.2011613649330486 1.7972028328632630 23.6430625187439034 Os
atom -4.4019099720803441 5.3915055410547099 25.6523473208093833 Os
atom 0.9957704558031200 3.0594286298609972 24.6477151687014668 O
atom 13.5382167223349619 2.9597168547728052 22.0324951166362339 O
atom 4.5071056699806613 0.5420115344275906 25.0464104423220277 O
atom 11.7739576513041744 0.6276460435976468 22.8456366753299989 O
atom 14.4117564173014863 0.5349664082230569 22.6384176050756736 O
atom 1.8693071767967568 0.6346894116190263 25.2536324887088810 O
atom 10.9004189044230166 3.0523869944680335 22.2397169344181052 O
atom 3.6335661673036181 2.9667569985273397 24.4404879579755416 O
atom 3.3017074463239768 9.4350852968055747 22.6384212271094043 Os
atom 5.5027374728727789 6.7393443276575118 22.6384231928409392 Os
atom 2.2011683996385925 6.2900590361903186 21.6337898477259216 Os
atom -4.4019131383364627 9.8843641689821684 23.6430702979189249 Os
atom 0.9957699414885138 7.5522923260223545 22.6384300298076084 O
atom 4.7341120403873589 9.2497390540905045 24.0417767364598092 O
atom 4.5071042254843867 5.0348690121295734 23.0371317782660014 O
atom 2.9698580094834290 6.9176712170451236 24.8549220795786709 O
atom 5.6076512255460020 6.8249966170698517 24.6476984941191475 O
atom 1.8693086257605371 5.1275433729337472 23.2443532857562971 O
atom 2.0963181892761820 9.3424116749630279 24.2490002566079497 O
atom 3.6335692307533933 7.4596234424406394 22.4312111187419916 O
atom 7.7037639620166223 4.0436269799647686 22.6384244563511743 Os
atom 9.9047874056257044 1.3479088344271599 22.6384243277544996 Os
atom -2.2008864971772297 2.6957830758117107 25.6523471595627228 Os
atom 0.0001419462768136 4.4929201385625319 23.6430681913306699 Os
atom 5.3978232640906985 2.1608459349293532 22.6384307034060654 O
atom 9.1361690077760507 3.8582965609417665 24.0417750299402257 O
atom 0.1050551782626612 10.4263233853548289 23.0371308760047739 O
atom 7.3719062651232923 1.5262208896563458 24.8549189238471158 O
atom 10.0097065963907799 1.4335493788300850 24.6477002618129575 O
atom -2.5327436682516637 10.5189926943364807 23.2443511546985704 O
atom 6.4983698035234001 3.9509697952783420 24.2489991869857420 O
atom 8.0356177726046152 2.0681707653215762 22.4312080487463632 O
atom -1.1003396689667060 10.3336546017327215 24.6477058801967601 Os
atom 1.1006880544537443 7.6379292061616804 24.6477049473426888 Os
atom -2.2008782237289890 7.1886356988439877 23.6430693731947130 Os
atom 0.0001374786217192 8.9857899181105694 21.6337851916669095 Os
atom -3.4062770664700888 8.4508675792106729 24.6477123068754196 O
atom 9.1361664676021501 8.3511529797155291 22.0324960801193015 O
atom 0.1050583311165077 5.9334523223174536 25.0464155617446949 O
atom 7.3719107283311676 6.0190855552872415 22.8456393575109047 O
atom 10.0097057690253504 5.9264101811937042 22.6384161231359897 O
atom -2.5327404572476331 6.0261256406290578 25.2536362568420643 O
atom 6.4983693965611833 8.4438263308952894 22.2397206698951919 O
atom -0.7684802547787207 8.3581968644137952 24.4404924364451546 O
atom 14.3069128551709817 4.9422145076227411 24.6477083623089896 Os
atom 16.5079371574404981 2.2464944523629886 24.6477107975109817 Os
atom 13.2063615100675822 1.7972019309423022 23.6430636863190884 Os
atom 6.6032870336005178 5.3915056907621857 25.6523456224975632 Os
atom 12.0009688076104037 3.0594304081306110 24.6477150788762103 O
atom 2.5330227308692836 2.9597152042977446 22.0324966924593397 O
atom 15.5123035790463337 0.5420097835427118 25.0464118181189548 O
atom 0.7687597869767018 0.6276388118479943 22.8456419621658355 O
atom 3.4065601361311861 0.5349676442602095 22.6384228918824846 O
atom 12.8745087530110336 0.6346836806105571 25.2536350565785312 O
atom -0.1047734278655526 3.0523898663527955 22.2397190940159817 O
atom 14.6387662140806327 2.9667566279086608 24.4404939143025075 O
atom -7.7034863483549021 9.4350722044221467 22.6384298207461256 Os
atom -5.5024568226676482 6.7393476687686196 22.6384278468463194 Os
atom 13.2063617068476091 6.2900574441448596 21.6337862633327944 Os
atom 6.6032843547853979 9.8843644976023075 23.6430648110596877 Os
atom 12.0009689909553448 7.5522874713791106 22.6384338224349406 O
atom -6.2710830288180688 9.2497413709691134 24.0417842931174590 O
atom 15.5123047820553790 5.0348702353690040 23.0371320395226036 O
atom 13.9750598808881001 6.9176705104842293 24.8549275296678189 O
atom -5.3975409412671240 6.8249987568349768 24.6477020540093932 O
atom 12.8745078809543969 5.1275450489656587 23.2443558087150208 O
atom 13.1015173908448226 9.3424148408149801 24.2490090257623621 O
atom 14.6387662140737778 7.4596131306577087 22.4312138785260089 O
atom -3.3014277844270365 4.0436292438746939 22.6384260403169364 Os
atom -1.1004082673473565 1.3479145197860776 22.6384254789921826 Os
atom 8.8043082097946304 2.6957828001151278 25.6523403459143253 Os
atom 11.0053382408679639 4.4929192603721546 23.6430635087304211 Os
atom 16.4030238206752976 2.1608466743530572 22.6384334835557439 O
atom -1.8690272689164598 3.8582978919196327 24.0417812393879160 O
atom 11.1102544200017874 10.4263230329743806 23.0371277365645142 O
atom 18.3771061061755638 1.5262231444498171 24.8549226674634482 O
atom -0.9954898592118209 1.4335549546442656 24.6477004822493910 O
atom 8.4724551084216362 10.5189975672396319 23.2443519834222556 O
atom 17.5035708878168599 3.9509708469010225 24.2490012935219141 O
atom 19.0408140493186728 2.0681707853998930 22.4312049338175683 O
atom 9.9048616926059516 10.3336583901417480 24.6477079826424514 Os
atom 12.1058907934478288 7.6379295092309194 24.6477091277722025 Os
atom 8.8043152623933914 7.1886401408800484 23.6430679892447699 Os
atom 11.0053394528168909 0.0000511221760123 25.6523473126586268 Os
atom 7.5989202165219139 8.4508726657339270 24.6477151074466363 O
atom -1.8690282840995016 8.3511548711888306 22.0325007749555724 O
atom 11.1102563877409324 5.9334517508516695 25.0464127407455805 O
atom -3.6332858301172593 6.0190855425166268 22.8456442034140963 O
atom -0.9954848727984744 5.9264116308217067 22.6384184337791083 O
atom 8.4724596297563100 6.0261277037129446 25.2536373917508143 O
atom -4.5068256190151006 8.4438288832797728 22.2397219191159010 O
atom 10.2367195683692724 8.3581978630919078 24.4404940326785010 O
atom -5.5023915202107831 6.7393824334273411 28.6662696137524406 Os
atom -3.3013652412837344 4.0436606418733518 28.6662682644852040 Os
atom 15.4074542318517622 3.5943709321057646 27.6616263870261676 Os
atom 14.2020633227218358 4.8565967291035008 28.6662790369837239 O
atom 4.7341150948820490 4.7568849540153071 26.0510589849184910 O
atom 2.9698560238512601 2.4248141428401482 26.8642005436122631 O
atom 5.6076547898485716 2.3321345074655584 26.6569814733579378 O
atom 2.0963172769701059 4.8495550937105349 26.2582808027003551 O
atom 16.8398590342223322 4.7639250977698415 28.4590518262577987 O
atom 3.3017100222726561 0.4493571413039846 26.6569850953916614 Os
atom -3.3013641545801335 8.5365124269000159 26.6569870611231963 Os
atom -6.6029332278143205 8.0872271354328227 25.6523537160081787 Os
atom 17.6084839319838444 0.8986360134805755 27.6616341662011820 Os
atom 14.2020628084072307 9.3494604252648568 26.6569938980898655 O
atom 4.7341146163360364 0.2640108985889142 28.0603406047420592 O
atom -4.2969974019685315 6.8320371113720757 27.0556956465482585 O
atom -5.8342436179694861 8.7148393162876268 28.8734859478609351 O
atom -3.1964504019069149 8.6221647163123531 28.6662623624014046 O
atom 15.0756014926792510 6.9247114721762495 27.2629171540385542 O
atom 2.0963207652248621 0.3566835194614363 28.2675641248902068 O
atom -5.1705323966995191 9.2567915416831408 26.4497749870242487 O
atom -1.1003376654362964 5.8407950792072700 26.6569883246334314 Os
atom 1.1006857781727906 3.1450769336696616 26.6569881960367567 Os
atom 13.2064348131955303 6.2900882378050316 27.6616320596129270 Os
atom 18.6041161310094125 3.9580140341718524 26.6569945716883225 O
atom 0.3320673803231348 5.6554646601842684 28.0603388982224828 O
atom 0.1050577542113444 1.4405952298532338 27.0556947442870310 O
atom -1.4321953623296282 3.3233889888988473 28.8734827921293800 O
atom 1.2056049689378689 3.2307174780725840 28.6662641300952146 O
atom 19.4776534020686434 1.5332645388348896 27.2629150229808275 O
atom -2.3057318239295190 5.7481378945208439 28.2675630552679991 O
atom -0.7684838548482981 3.8653388645640780 26.4497719170286203 O
atom -1.1003370930180285 1.3479264462311280 28.6662697484790172 Os
atom -7.7034135729991702 9.4350973054041827 28.6662688156249459 Os
atom 11.0054146431897308 8.9858037980864900 27.6616332414769701 Os
atom 0.0001400545703940 0.0000617626089790 25.6523490599491666 Os
atom 9.8000158004486178 10.2480356784531779 28.6662761751576838 O
atom 0.3320648401492352 10.1483210789580305 26.0510599484015586 O
atom -1.4321908991217462 7.8162536545297447 26.8642032257931618 O
atom 1.2056041415724348 7.7235782804362074 26.6569799914182468 O
atom -2.3057322308917332 10.2409944301377909 26.2582845381774561 O
atom 12.4378126121399930 10.1553649636562984 28.4590563047274117 O
atom 5.5028112277180661 6.7393826068652443 28.6662722305912467 Os
atom 7.7038355299875807 4.0436625516054878 28.6662746657932388 Os
atom 4.4022598826146684 3.5943700301848041 27.6616275546013455 Os
atom 3.1968671801574868 4.8565985073731124 28.6662789471584674 O
atom 15.7393155977879982 4.7568833035402482 26.0510605607416039 O
atom 13.9750526538954141 2.4248069110904984 26.8642058304480997 O
atom 16.6128530030499029 2.3321357435027110 26.6569867601647417 O
atom 13.1015194390531580 4.8495579655952969 26.2582829622982388 O
atom 5.8346645866277180 4.7639247271511627 28.4590577825847646 O
atom 14.3069107219653979 0.4493440489205563 26.6569936890283827 Os
atom 7.7038360442510658 8.5365157680111245 26.6569917151285765 Os
atom 4.4022600793946989 8.0872255433873619 25.6523501316150515 Os
atom 6.6032869307340754 0.8986363421007174 27.6616286793419448 Os
atom 3.1968673635024283 9.3494555706216129 26.6569976907171977 O
atom 15.7393140415022330 0.2640132154675232 28.0603481613997232 O
atom 6.7082031546024652 6.8320383346115063 27.0556959078048607 O
atom 5.1709582534351872 8.7148386097267316 28.8734913979500760 O
atom 7.8087519256515883 8.6221668560774791 28.6662659222916503 O
atom 4.0704062535014804 6.9247131482081610 27.2629196769972779 O
atom 13.1015199667934965 0.3566866853133898 28.2675728940446263 O
atom 5.8346645866208622 9.2567812299002092 26.4497777468082660 O
atom 9.9048650824916766 5.8407973431171971 26.6569899085991935 Os
atom 12.1058845995713575 3.1450826190285790 26.6569893472744397 Os
atom 2.2012366134150514 6.2900873596146569 27.6616273770126782 Os
atom 7.5989221932223803 3.9580147735955586 26.6569973518380081 O
atom 11.3372655980022561 5.6554659911621341 28.0603451076701731 O
atom 11.1102569959504649 1.4405948774727881 27.0556916048467713 O
atom 9.5730044787226483 3.3233912436923188 28.8734865357457053 O
atom 12.2108030077068914 3.2307230538867695 28.6662643505316481 O
atom 8.4724576843703083 1.5332694117380408 27.2629158517045127 O
atom 8.6994692603639425 5.7481389461435217 28.2675651618041712 O
atom 10.2367124218657572 3.8653388846423944 26.4497688020998254 O
atom 9.9048642685546273 1.3479302346401583 28.6662718509247085 Os
atom 3.3017891659949141 9.4350976084734217 28.6662729960544596 Os
atom 0.0002136349404792 8.9858082401225516 27.6616318575270270 Os
atom -1.2051814109310020 10.2480407649764285 28.6662789757288863 O
atom 11.3372645828192109 10.1483229704313320 26.0510646432378294 O
atom 9.5730070368014530 7.8162536417591282 26.8642080716963534 O
atom 12.2108079941202377 7.7235797300642108 26.6569823020613654 O
atom 8.6994672479036161 10.2409969825222742 26.2582857873981581 O
atom 1.4326179409163549 10.1553659623344110 28.4590579009607580 O
