#===============================================================================
# Created using the Atomic Simulation Environment (ASE)

# Mon Mar 23 14:01:11 2026

#=======================================================
lattice_vector 9.0245853000181313 0.0000000000000000 0.0000000000000000 
lattice_vector 0.0000000000000000 6.4266484300000002 0.0000000000000000 
lattice_vector 0.0000000000000000 0.0000000000000000 47.5224467423907981 
atom 9.0245138700668619 3.2133235400000006 18.1208598957938278 Os
atom 4.5122259900585080 6.4266478700000009 18.1208595408033872 Os
atom 2.2560581925083674 1.6066617200000000 15.8647359682558076 Os
atom 1.3913307358011879 0.0000001500000000 15.0000447248869229 O
atom 0.8646312533867266 1.6066553200000000 17.2561478491095777 O
atom 3.1207564991399956 6.4266482800000002 16.7294649015662671 O
atom 2.2560589025112532 4.8199879000000001 15.8647345282572374 Os
atom 1.3913400658037538 3.2133246000000000 15.0000434449056250 O
atom 0.8646319233873682 4.8199920399999998 17.2561475291109225 O
atom 3.1207562491319165 3.2133249599999996 16.7294689315657656 O
atom 6.7683819225764754 1.6066606200000000 15.8647065133181115 Os
atom 5.9036781558991427 0.0000015400000000 15.0000003799967132 O
atom 5.3769541933830736 1.6066654100000000 17.2561541941702963 O
atom 7.6330947292520026 0.0000005300000000 16.7294135466576321 O
atom 6.7683814325787424 4.8199888299999998 15.8647053833171299 Os
atom 5.9036797958999063 3.2133234499999999 15.0000000000000000 O
atom 5.3769535933832522 4.8199817200000012 17.2561541041690916 O
atom 7.6331012992651539 3.2133241799999999 16.7294069866708028 O
atom 9.0245077100553530 6.4266474999999996 18.1208656357814775 Os
atom 2.2560591975327422 1.6066622699999999 20.3770164582668905 Os
atom 1.3913453508479134 6.4266479600000004 19.5123140649252882 O
atom 0.8646162284115427 1.6066532899999999 21.7684281190885258 O
atom 3.6474875467267660 1.6066570200000003 18.9855684674159519 O
atom 3.1207587342068059 0.0000003000000000 21.2417242215798154 O
atom 9.0244776900883696 3.2133235400000006 27.1454344657394273 Os
atom 2.2560595975300757 4.8199864600000000 20.3770177882676968 Os
atom 1.3913435808606425 3.2133245399999999 19.5123077149217394 O
atom 0.8646163684087563 4.8199939800000005 21.7684295090888043 O
atom 3.6474876567268653 4.8199900800000002 18.9855684174161716 O
atom 3.1207575141923729 3.2133240400000003 21.2417314215773629 O
atom 4.5121898100800157 6.4266478700000009 27.1454341107489938 Os
atom 6.7683816075905501 1.6066607200000003 20.3769921433265466 Os
atom 5.9036857709698438 0.0000013400000000 19.5122577600210469 O
atom 5.3769362284013358 1.6066710900000003 21.7684377341433475 O
atom 8.1598091467107050 1.6066640500000000 18.9855810024739817 O
atom 7.6331119943001111 0.0000014100000000 21.2416821967013050 O
atom 4.5122199800484237 3.2133230400000006 18.1208645707913405 Os
atom 6.7683810075884425 4.8199889999999996 20.3769931933253439 Os
atom 5.9036808209544871 3.2133236900000002 19.5122654200111221 O
atom 5.3769347583990887 4.8199787900000004 21.7684388541403990 O
atom 8.1598091467093994 4.8199832400000000 18.9855816524739858 O
atom 7.6331054843118986 3.2133235600000001 21.2416763166882561 O
atom 9.0244927850717520 6.4266478600000001 22.6331501057606275 Os
atom 2.2560220125298764 1.6066617200000000 24.8893105382014141 Os
atom 1.3912945558226968 0.0000001500000000 24.0246192948325330 O
atom 0.8645950734082352 1.6066553200000000 26.2807224190551807 O
atom 3.6474645317242396 1.6066662599999999 23.4978623773788797 O
atom 3.1207203191615043 6.4266482800000002 25.7540394715118737 O
atom 9.0244963450733966 3.2133230799999999 22.6331492857677645 Os
atom 2.2560227225327618 4.8199879000000001 24.8893090982028369 Os
atom 1.3913038858252624 3.2133246000000000 24.0246180148512281 O
atom 0.8645957434088768 4.8199920399999998 26.2807220990565327 O
atom 3.6474656117278879 4.8199836899999999 23.4978605573810455 O
atom 3.1207200691534256 3.2133249599999996 25.7540435015113687 O
atom 4.5122019150615129 0.0000018300000000 22.6331506907641966 Os
atom 6.7683457425979840 1.6066606200000000 24.8892810832637181 Os
atom 5.9036419759206504 0.0000015400000000 24.0245749499423198 O
atom 5.3769180134045831 1.6066654100000000 26.2807287641159064 O
atom 8.1597902617136686 1.6066589100000002 23.4978721724451916 O
atom 7.6330585492735104 0.0000005300000000 25.7539881166032387 O
atom 4.5122006150612535 3.2133238700000000 22.6331508207615855 Os
atom 6.7683452526002501 4.8199888299999998 24.8892799532627365 Os
atom 5.9036436159214141 3.2133234499999999 24.0245745699456066 O
atom 5.3769174134047608 4.8199817200000012 26.2807286741146982 O
atom 8.1597911017140117 4.8199883899999998 23.4978720024468828 O
atom 7.6330651192866616 3.2133241799999999 25.7539815566164094 O
atom 9.0244715300768625 6.4266474999999996 27.1454402057270840 Os
atom 2.2560230175542504 1.6066622699999999 29.4015910282124935 Os
atom 1.3913091708694223 6.4266479600000004 28.5368886348708912 O
atom 0.8645800484330514 1.6066532899999999 30.7930026890341324 O
atom 3.6474513667482742 1.6066570200000003 28.0101430373615585 O
atom 3.1207225542283146 0.0000003000000000 30.2662987915254149 O
atom 2.2560234175515839 4.8199864600000000 29.4015923582132999 Os
atom 1.3913074008821509 3.2133245399999999 28.5368822848673460 O
atom 0.8645801884302650 4.8199939800000005 30.7930040790344037 O
atom 3.6474514767483739 4.8199900800000002 28.0101429873617747 O
atom 3.1207213342138815 3.2133240400000003 30.2663059915229695 O
atom 6.7683454276120578 1.6066607200000003 29.4015667132721532 Os
atom 5.9036495909913524 0.0000013400000000 28.5368323299666571 O
atom 5.3769000484228462 1.6066710900000003 30.7930123040889541 O
atom 8.1597729667322128 1.6066640500000000 28.0101555724195919 O
atom 7.6330758143216215 0.0000014100000000 30.2662567666469187 O
atom 4.5121838000699324 3.2133230400000006 27.1454391407369471 Os
atom 6.7683448276099529 4.8199889999999996 29.4015677632709469 Os
atom 5.9036446409759966 3.2133236900000002 28.5368399899567322 O
atom 5.3768985784205992 4.8199787900000004 30.7930134240860127 O
atom 8.1597729667309089 4.8199832400000000 28.0101562224195888 O
atom 7.6330693043334090 3.2133235600000001 30.2662508866338626 O
atom 9.0244566050932615 6.4266478600000001 31.6577246757062341 Os
atom 3.6474283517457486 1.6066662599999999 32.5224369473244934 O
atom 9.0244601650949061 3.2133230799999999 31.6577238557133640 Os
atom 3.6474294317493969 4.8199836899999999 32.5224351273266521 O
atom 4.5121657350830215 0.0000018300000000 31.6577252607097961 Os
atom 8.1597540817351781 1.6066589100000002 32.5224467423907981 O
atom 4.5121644350827630 3.2133238700000000 31.6577253907071992 Os
atom 8.1597549217355212 4.8199883899999998 32.5224465723924823 O
