#===============================================================================
# Created using the Atomic Simulation Environment (ASE)

# Mon Mar 23 14:01:07 2026

#=======================================================
lattice_vector 9.8433162200001281 0.0000000000000000 0.0000000000000000 
lattice_vector -0.0000031600105307 9.8433818399996227 0.0000000000000000 
lattice_vector 0.0000000000000000 0.0000000000000000 36.4059726577808007 
atom 2.4608320549949498 2.4608361949927691 20.6638540949213905 Os
atom 9.8433120899861439 9.8433786799916430 20.6638569349215260 Os
atom 1.7187400169103737 0.7420974569869192 15.0000046899997415 O
atom 0.7420896719070087 3.2029474102199176 15.0000045020623105 O
atom 1.7187380669037053 5.6637973569868061 15.0000000000000000 O
atom 0.7420893419015446 8.1246397002200048 15.0000019120623591 O
atom 7.3824879349942618 2.4608407749923509 20.6638562349214965 Os
atom 6.6403937369099477 0.7421005969862674 15.0000028399997944 O
atom 5.6637469919068586 3.2029486902197721 15.0000051420623350 O
atom 6.6403930969033738 5.6637997269862561 15.0000019200000310 O
atom 5.6637435019012852 8.1246417002193567 15.0000023520623813 O
atom 2.4608245799863484 9.8433787349921609 18.2029913549215223 Os
atom 0.0000011849946204 2.4608396899928979 18.2029940249214661 Os
atom 2.4608298549953402 2.4608377749936663 15.7421194649214016 Os
atom 9.8433117199869038 9.8433781299929262 15.7421189449215007 Os
atom 4.1795689480822684 1.7187367397671631 16.4842371777807486 O
atom 1.7187373669093962 0.7420993269851287 19.9217433799997750 O
atom 0.7420904451420957 4.1795824402193951 17.4608730098431977 O
atom 3.2029214398436383 3.2029487830000223 18.9451027820623707 O
atom 0.7420911119061859 3.2029481602186962 19.9217462520623485 O
atom 3.2029180330796194 4.1795822730000856 16.4842364098431773 O
atom 4.1795659448470950 0.7420981197660064 18.9451057799997358 O
atom 1.7187399201446041 1.7187376469861595 17.4608766677807736 O
atom 2.4608294399904653 4.9216950249929097 18.2029902649217519 Os
atom 9.8433118149879899 7.3825401099921795 18.2029900349216973 Os
atom 2.4608272249885137 7.3825383549932750 15.7421206849216730 Os
atom 9.8433140399913341 4.9216924799932826 15.7421173149216571 Os
atom 4.1795650480759416 6.6404343397666423 16.4842358277809140 O
atom 1.7187395469028701 5.6637980469855114 19.9217445400000273 O
atom 0.7420868551361453 9.1012775502188408 17.4608745598432975 O
atom 3.2029136398380116 8.1246416229986469 18.9451093820623697 O
atom 0.7420865619009616 8.1246389202180840 19.9217444220623179 O
atom 3.2029166830737688 9.1012767629998965 16.4842377998432852 O
atom 4.1795669948402212 5.6637988797661407 18.9451093400000445 O
atom 1.7187365801381098 6.6404362569857094 17.4608760277809836 O
atom 7.3824795899862536 9.8433796849916479 18.2029919549215222 Os
atom 4.9216602249955246 2.4608345499931046 18.2029919849213329 Os
atom 7.3824874549953368 2.4608385249937723 15.7421128849214256 Os
atom 4.9216527499865084 9.8433802299928157 15.7421181049215448 Os
atom 9.1012234980823390 1.7187365897665272 16.4842394477807090 O
atom 6.6403955669090733 0.7421016369850862 19.9217453799998481 O
atom 5.6637440851424481 4.1795806102186628 17.4608735298431128 O
atom 8.1245767398438211 3.2029480229995628 18.9451030620623300 O
atom 5.6637473119070281 3.2029434102184466 19.9217442620621910 O
atom 8.1245762130800045 4.1795802730001101 16.4842359798431204 O
atom 9.1012230348466918 0.7421010297658601 18.9451051599998124 O
atom 6.6403974901449310 1.7187364069862929 17.4608689277807372 O
atom 7.3824824999910916 4.9216915349921084 18.2029899149216163 Os
atom 4.9216495149876405 7.3825418599914947 18.2029904549217179 Os
atom 7.3824810949883828 7.3825395049925593 15.7421219749216732 Os
atom 4.9216544199910590 4.9216937799930180 15.7421181149216807 Os
atom 9.1012212780762063 6.6404330297663163 16.4842366277808665 O
atom 6.6403930469026813 5.6637996369847832 19.9217441100000485 O
atom 5.6637418351359239 9.1012793602183653 17.4608737098433267 O
atom 8.1245728298380513 8.1246418929988895 18.9451070020623931 O
atom 5.6637387219006863 8.1246410402171332 19.9217442720623268 O
atom 8.1245721030736444 9.1012778929994536 16.4842381498432928 O
atom 9.1012220448403802 5.6637985097657788 18.9451047200000033 O
atom 6.6403903601383822 6.6404349069849928 17.4608766877809032 O
atom 4.1795695680813969 1.7187381197659883 21.4059726577808007 O
atom 3.2029218230800272 4.1795757129994442 21.4059710198430224 O
atom 2.4608253749878553 7.3825380849915234 20.6638625049216600 Os
atom 0.0000001399901524 4.9216947399922297 20.6638581149217444 Os
atom 4.1795659180763041 6.6404280797655364 21.4059702477807505 O
atom 3.2029170630731030 9.1012769829987512 21.4059707798432939 O
atom 4.9216538899856799 9.8433810599915628 20.6638592249215876 Os
atom 9.1012251080818292 1.7187358497655958 21.4059719777807089 O
atom 8.1245762730787572 4.1795841029989047 21.4059693898432357 O
atom 7.3824774049870161 7.3825438449906269 20.6638597149217702 Os
atom 4.9216589199918515 4.9216844999923124 20.6638590149214565 Os
atom 9.1012191580750663 6.6404362497647904 21.4059690177809472 O
atom 8.1245737230728299 9.1012790329984945 21.4059717498433457 O
