#===============================================================================
# Created using the Atomic Simulation Environment (ASE)

# Mon Mar 23 14:01:08 2026

#=======================================================
lattice_vector 22.0103944943716279 0.0000000000000000 0.0000000000000000 
lattice_vector -0.0000025759486765 9.8433818399997932 0.0000000000000000 
lattice_vector 0.0000000000000000 0.0000000000000000 31.9740677132125839 
atom 18.7090266771392137 7.3825444760470260 16.8691755692702650 Os
atom 15.4074516559030741 7.3825467470433939 15.7686454491725456 Os
atom 17.7133959609507023 5.6638029935028609 16.5372874334181574 O
atom 15.0755974677668014 5.6638073804249744 16.7642900003865094 O
atom 2.0963147010214271 9.1012830305844528 15.0000026867466687 O
atom 16.8398564582736618 8.1246484816690501 16.9740620962375957 O
atom 18.7090303397914930 2.4608420360470160 16.8691712178679509 Os
atom 15.4074612665573092 2.4608448570450956 15.7686506904638506 Os
atom 17.7133970924030990 0.7421047135029690 16.5372877241087117 O
atom 15.0756014926792563 0.7421061104252773 16.7642883635682978 O
atom 2.0963181892761846 4.1795847005846705 15.0000008934068347 O
atom 16.8398620976721105 3.2029576416702676 16.9740677132125839 O
atom 20.9100568289353248 0.0000019770440968 15.7686448789465672 Os
atom 13.2064348131955285 0.0000020960480577 16.8691781027050673 Os
atom 18.6041135550607386 8.1246469005850184 15.0000046018434681 O
atom 0.3320648043744543 9.1012829016694443 16.9740603376197896 O
atom 20.5781965560933280 6.6404346804245025 16.7642843599793245 O
atom 1.2056023929891957 6.6404347235031782 16.5372874815557509 O
atom 20.9100548254049201 4.9216889470436742 15.7686425534408201 Os
atom 13.2064303455404382 4.9216986560476705 16.8691794577820033 Os
atom 18.6041174279015387 3.2029465005850111 15.0000000000000000 O
atom 0.3320648401492375 4.1795837716693427 16.9740599351363386 O
atom 20.5782035952498816 1.7187433304255892 16.7642867614796849 O
atom 1.2056041415724350 1.7187417135030154 16.5372841319231796 O
atom 7.7038329540389014 7.3825436060481291 16.8691821924812189 Os
atom 4.4022573066659891 7.3825454470438396 15.7686461468073915 Os
atom 6.7081993756447460 5.6638008335029992 16.5372879745425934 O
atom 4.0704045496094361 5.6638011004255420 16.7642900048316434 O
atom 13.1015168631044823 9.1012847705853996 15.0000058306267192 O
atom 5.8346620106790379 8.1246457116699276 16.9740673822847015 O
atom 7.7038360442510632 2.4608431860479478 16.8691768303796330 Os
atom 4.4022600793946935 2.4608448670441989 15.7686467684257536 Os
atom 6.7082031546024687 0.7421057235034748 16.5372884619899310 O
atom 4.0704062535014778 0.7421066104258295 16.7642913509422549 O
atom 13.1015173908448137 4.1795840105858293 15.0000101909650851 O
atom 5.8346645866208657 3.2029471016700688 16.9740660227479019 O
atom 9.9048650824916784 0.0000033970450477 15.7686472491433918 Os
atom 2.2012366134150536 0.0000032060474830 16.8691734695781861 Os
atom 7.5989196172737028 8.1246464405857246 15.0000074416287283 O
atom 11.3372630220535786 9.1012815816701735 16.9740665494105656 O
atom 9.5730019027739761 6.6404352104252613 16.7642886979345960 O
atom 12.2108004317582193 6.6404397235035235 16.5372899591135294 O
atom 9.9048616926059516 4.9216915470445501 15.7686460193196822 Os
atom 2.2012352494152974 4.9216896560473735 16.8691735187726053 Os
atom 7.5989202165219112 3.2029500005854676 15.0000046331322778 O
atom 11.3372645828192091 4.1795835816701619 16.9740649931062002 O
atom 9.5730070368014548 1.7187413404261085 16.7642911799458005 O
atom 12.2108079941202359 1.7187420935041422 16.5372868330511196 O
