#===============================================================================
# Created using the Atomic Simulation Environment (ASE)

# Mon Mar 23 14:01:07 2026

#=======================================================
lattice_vector 13.9206623415420374 0.0000000000000000 0.0000000000000000 
lattice_vector -0.0000018384659456 9.8433818399999584 0.0000000000000000 
lattice_vector 0.0000000000000000 0.0000000000000000 38.3415199885023839 
atom 0.0002738200324856 0.0000071250416175 17.4306777816243113 Os
atom 1.7403276213531094 7.3825456650373633 15.6905946568111183 Os
atom 12.1808227016717385 7.3825481500372980 15.6905953356466483 Os
atom 6.9606642746273488 0.0000070600502061 20.9108422705219255 Os
atom 11.4902627014693657 8.1246466480514332 17.4306886833875261 O
atom 1.7403584623018542 9.1012878598154394 18.1212690729277242 O
atom 0.6908370404060040 5.6638042470280530 15.6905858123850876 O
atom 0.0002987316439254 6.6404451652720144 18.4801686396304916 O
atom 2.4309488145854212 6.6404377220322797 17.4306679192742280 O
atom 12.1808501899757875 5.6638088702681131 16.7400883429279936 O
atom 13.2303711875810599 9.1012855130550054 19.1707681952202620 O
atom 0.0002462284876260 8.1246498348109011 16.3811849790728061 O
atom 0.0002717411505794 4.9217053850416024 17.4306786443028514 Os
atom 1.7403294173606811 2.4608432250368142 15.6905897777688779 Os
atom 12.1808331739369997 2.4608462600385232 15.6905976760954395 Os
atom 11.4902633802606946 3.2029566880510068 17.4306855155509304 O
atom 1.7403563268058653 4.1795879598146968 18.1212654949929544 O
atom 0.6908379030737126 0.7421059670281097 15.6905861376556359 O
atom 0.0003028540654291 1.7187464352722353 18.4801678971438861 O
atom 2.4309470185209312 1.7187454320319189 17.4306669717729612 O
atom 12.1808531880843880 0.7421076002680052 16.7400859246076195 O
atom 13.2303736270752026 4.1795871830548474 19.1707657981171451 O
atom 0.0002530520937123 3.2029589948120027 16.3811889317526536 O
atom 10.4408286862106934 0.0000047750500128 20.9108416270644142 Os
atom 12.1808806207959659 7.3825461450460326 19.1707618680939902 Os
atom 8.7007156717982017 7.3825445000459489 19.1707608003578969 Os
atom 10.4407760774842000 0.0000037500421998 17.4306782977688819 Os
atom 11.1313926490675019 5.6638038870368739 19.1707523377536972 O
atom 3.4804072110622908 6.6404357052630756 15.0000000000000000 O
atom 12.8715020473593356 6.6404373720407319 20.9108333415751844 O
atom 8.7007415054434336 5.6638014102761209 20.2202501306976714 O
atom 2.7898205215981706 9.1012833130466788 15.6906019172999791 O
atom 10.4407995036941816 8.1246479448194613 19.8613511650489585 O
atom 10.4408263527487470 4.9216917450495936 20.9108396471772124 Os
atom 12.1808830178285792 2.4608449850452763 19.1707550303610077 Os
atom 8.7007253803387776 2.4608414300462740 19.1707569324153866 Os
atom 10.4407725702581349 4.9217003100422438 17.4306805888147238 Os
atom 11.1313952299948475 0.7421054670369254 19.1707514255737124 O
atom 3.4804143457675654 1.7187443552637376 15.0000004595699394 O
atom 12.8715023443120540 1.7187443620402487 20.9108300181785509 O
atom 8.7007447793501971 0.7421064802764906 20.2202511135578646 O
atom 2.7898222893581370 4.1795841130467473 15.6906016768780177 O
atom 10.4408049837523613 3.2029504748196702 19.8613493901754765 O
atom 5.2205541098864581 7.3825457250469322 19.1707653540933336 Os
atom 1.7403843808172088 7.3825477800459121 19.1707606094395828 Os
atom 3.4804425237399812 0.0000069600415912 17.4306754057207058 Os
atom 4.1710588902802233 5.6638030170365399 19.1707516448097977 O
atom 10.4407400294326376 6.6404354752639092 15.0000050840846626 O
atom 5.9111724676172646 6.6404376220415289 20.9108381993860633 O
atom 1.7404130075547877 5.6638035202766872 20.2202525065548713 O
atom 9.7501557936056020 9.1012863230473524 15.6906040951557841 O
atom 3.4804716068552231 8.1246479948202293 19.8613546369171630 O
atom 5.2205550432173702 2.4608453050461989 19.1707596972402428 Os
atom 1.7403869051844261 2.4608472000460990 19.1707607296362355 Os
atom 3.4804399286594130 4.9216926100413287 17.4306747764097310 Os
atom 4.1710623268111364 0.7421079070367510 19.1707513195211732 O
atom 10.4407500137768672 1.7187426352648105 15.0000053527132593 O
atom 5.9111741929249106 1.7187468620411708 20.9108348052670721 O
atom 1.7404147470410829 0.7421090302769353 20.2202536520617997 O
atom 9.7501573704836755 4.1795855630480192 15.6906084721428307 O
atom 3.4804733180349849 3.2029493848200983 19.8613529398555997 O
atom 6.9606136033549184 0.0000052650422646 17.4306766077586808 Os
atom 8.7006621297026658 7.3825499350382611 15.6905990408459957 Os
atom 5.2204902085692479 7.3825461000364712 15.6905900677119448 Os
atom 0.0003324179426419 0.0000057900498029 20.9108397320142103 Os
atom 4.5299369047045248 8.1246484580518477 17.4306880328062235 O
atom 8.7006943141295370 9.1012833998160332 18.1212702466882831 O
atom 7.6511725386507203 5.6638039170281234 15.6905833233347778 O
atom 6.9606320944481839 6.6404371652722443 18.4801688234618595 O
atom 9.3912825309563903 6.6404414420327837 17.4306699132945688 O
atom 5.2205227739292717 5.6638045902682483 16.7400867236241133 O
atom 6.2700459565092537 9.1012843430555943 19.1707684638736566 O
atom 6.9605766355697147 8.1246483048106040 16.3811832537385520 O
atom 6.9606103011683498 4.9216934150419540 17.4306761057322284 Os
atom 8.7006684228886417 2.4608426250377757 15.6905915030470702 Os
atom 5.2205009353985012 2.4608451200378130 15.6905931152653579 Os
atom 0.0003314421421154 4.9216922400497856 20.9108398027259454 Os
atom 4.5299362824257399 3.2029520180513971 17.4306855862297780 O
atom 8.7006950000054850 4.1795853998158243 18.1212686839850932 O
atom 7.6511740589224262 0.7421051670281530 15.6905829768487166 O
atom 6.9606374472500168 1.7187432952728305 18.4801699618688389 O
atom 9.3912884140401491 1.7187438120326057 17.4306649635084412 O
atom 5.2205270165627118 0.7421069702685440 16.7400864690400866 O
atom 6.2700461474236944 4.1795868630555635 19.1707685699463610 O
atom 6.9605869664071056 3.2029498048117087 16.3811848163705527 O
atom 8.7007697230349681 7.3825475250541057 22.6509257135608451 Os
atom 5.2206024618115592 7.3825500100540404 22.6509263923963857 Os
atom 7.6512791420878701 5.6638061070447954 22.6509168691348322 O
atom 6.9606883301694857 8.1246516948276444 23.3415160358225364 O
atom 8.7007715190425419 2.4608450850535566 22.6509208345186153 Os
atom 5.2206129340768221 2.4608481200552652 22.6509287328451663 Os
atom 6.9606622876856061 4.9216910000504512 20.9108450070346095 Os
atom 7.6512800047555718 0.7421078270448525 22.6509171944053804 O
atom 6.9606951537755650 3.2029608548287447 23.3415199885023839 O
atom 8.0101539179525645 8.1246498480596188 20.9108519136543975 O
atom 12.1809124799301571 9.1012856498233887 21.6014301889423876 O
atom 10.4408493127441506 6.6404375652798189 21.9603310567497374 O
atom 9.7502626232800331 9.1012851730634221 22.6509329740497094 O
atom 8.0101558341656798 3.2029494480590412 20.9108467305550079 O
atom 12.1809120839454028 4.1795865198232880 21.6014302030961005 O
atom 10.4408564474494288 1.7187462152804802 21.9603315163196697 O
atom 9.7502643910400018 4.1795859730634906 22.6509327336277551 O
atom 3.4805008671437405 0.0000071450506276 20.9108439039212186 Os
atom 1.0498226623491871 8.1246492380599538 20.9108544733817041 O
atom 5.2205828436135029 9.1012866398240799 21.6014342972204219 O
atom 3.4805197895724662 6.6404373352806525 21.9603361408343929 O
atom 2.7899355537454169 9.1012881830640957 22.6509351519055144 O
atom 3.4804968578671418 4.9216908550505245 20.9108454525106566 Os
atom 1.0498242674556848 3.2029516380596914 20.9108518782952473 O
atom 5.2205819243973028 4.1795879198243941 21.6014377762014789 O
atom 3.4805297739166976 1.7187444952815534 21.9603364094629896 O
atom 2.7899371306234908 4.1795874230647625 22.6509395288925575 O
atom 1.7404418898424976 7.3825517950550044 22.6509300975957188 Os
atom 12.1809323102511087 7.3825479600532127 22.6509211244616750 Os
atom 0.6909522987905461 5.6638057770448667 22.6509143800845152 O
atom 0.0003563957095336 8.1246501648273455 23.3415143104882787 O
atom 1.7404481830284608 2.4608444850545181 22.6509225597967969 Os
atom 12.1809430370803646 2.4608469800545554 22.6509241720150953 Os
atom 0.6909538190622513 0.7421070270448955 22.6509140335984469 O
atom 0.0003667265469304 3.2029516648284511 23.3415158731202865 O
