#===============================================================================
# Created using the Atomic Simulation Environment (ASE)

# Mon Mar 23 14:01:07 2026

#=======================================================
lattice_vector 13.9206623415420374 0.0000000000000000 0.0000000000000000 
lattice_vector -0.0000018384659456 9.8433818399999584 0.0000000000000000 
lattice_vector 0.0000000000000000 0.0000000000000000 52.2621821020018444 
atom 0.0000519582107948 0.0000034050081321 17.4306777816243148 Os
atom 1.7401057595314187 7.3825419450038767 15.6905946568111148 Os
atom 12.1806008398500492 7.3825444300038123 15.6905953356466465 Os
atom 6.9604424128056630 0.0000033400167207 20.9108422705219148 Os
atom 11.4900408396476745 8.1246429280179466 17.4306886833875225 O
atom 1.7401366004801697 9.1012841397819546 18.1212690729277242 O
atom 0.6906151785843194 5.6638005269945664 15.6905858123850859 O
atom 0.0000768698222407 6.6404414452385296 18.4801686396304916 O
atom 2.4307269527637336 6.6404340019987940 17.4306679192742244 O
atom 12.1806283281540964 5.6638051502346292 16.7400883429279901 O
atom 13.2301493257593723 9.1012817930215206 19.1707681952202549 O
atom 0.0000243666659383 8.1246461147774163 16.3811849790728026 O
atom 0.0000498793288917 4.9217016650081167 17.4306786443028479 Os
atom 1.7401075555389911 2.4608395050033285 15.6905897777688779 Os
atom 12.1806113121153121 2.4608425400050375 15.6905976760954324 Os
atom 11.4900415184390070 3.2029529680175211 17.4306855155509304 O
atom 1.7401344649841743 4.1795842397812120 18.1212654949929544 O
atom 0.6906160412520279 0.7421022469946243 15.6905861376556377 O
atom 0.0000809922437476 1.7187427152387500 18.4801678971438861 O
atom 2.4307251566992432 1.7187417119984334 17.4306669717729577 O
atom 12.1806313262627057 0.7421038802345196 16.7400859246076124 O
atom 13.2301517652535132 4.1795834630213617 19.1707657981171451 O
atom 0.0000311902720246 3.2029552747785175 16.3811889317526500 O
atom 10.4406068243890040 0.0000010550165287 20.9108416270644035 Os
atom 12.1806587589742783 7.3825424250125469 19.1707618680939795 Os
atom 8.7004938099765141 7.3825407800124632 19.1707608003578898 Os
atom 10.4405542156625142 0.0000000300087135 17.4306782977688783 Os
atom 11.1311707872458143 5.6638001670033873 19.1707523377536972 O
atom 3.4801853492406027 6.6404319852295899 15.0000000000000000 O
atom 12.8712801855376533 6.6404336520072462 20.9108333415751844 O
atom 8.7005196436217531 5.6637976902426344 20.2202501306976679 O
atom 2.7895986597764866 9.1012795930131940 15.6906019172999773 O
atom 10.4405776418724923 8.1246442247859765 19.8613511650489585 O
atom 10.4406044909270594 4.9216880250161079 20.9108396471772160 Os
atom 12.1806611560068898 2.4608412650117906 19.1707550303610006 Os
atom 8.7005035185170936 2.4608377100127883 19.1707569324153795 Os
atom 10.4405507084364491 4.9216965900087573 17.4306805888147167 Os
atom 11.1311733681731528 0.7421017470034399 19.1707514255737053 O
atom 3.4801924839458809 1.7187406352302521 15.0000004595699359 O
atom 12.8712804824903682 1.7187406420067632 20.9108300181785509 O
atom 8.7005229175285113 0.7421027602430050 20.2202511135578611 O
atom 2.7896004275364530 4.1795803930132616 15.6906016768780141 O
atom 10.4405831219306737 3.2029467547861845 19.8613493901754659 O
atom 5.2203322480647643 7.3825420050134474 19.1707653540933336 Os
atom 1.7401625189955179 7.3825440600124264 19.1707606094395793 Os
atom 3.4802206619182927 0.0000032400081058 17.4306754057207023 Os
atom 4.1708370284585357 5.6637992970030542 19.1707516448097905 O
atom 10.4405181676109535 6.6404317552304235 15.0000050840846590 O
atom 5.9109506057955832 6.6404339020080423 20.9108381993860597 O
atom 1.7401911457330967 5.6637998002432006 20.2202525065548713 O
atom 9.7499339317839109 9.1012826030138676 15.6906040951557788 O
atom 3.4802497450335381 8.1246442747867444 19.8613546369171559 O
atom 5.2203331813956826 2.4608415850127137 19.1707596972402428 Os
atom 1.7401650433627416 2.4608434800126133 19.1707607296362319 Os
atom 3.4802180668377272 4.9216888900078430 17.4306747764097238 Os
atom 4.1708404649894453 0.7421041870032654 19.1707513195211661 O
atom 10.4405281519551814 1.7187389152313253 15.0000053527132540 O
atom 5.9109523311032195 1.7187431420076853 20.9108348052670650 O
atom 1.7401928852194013 0.7421053102434498 20.2202536520617926 O
atom 9.7499355086619879 4.1795818430145335 15.6906084721428272 O
atom 3.4802514562132969 3.2029456647866126 19.8613529398555961 O
atom 6.9603917415332299 0.0000015450087792 17.4306766077586737 Os
atom 8.7004402678809800 7.3825462150047763 15.6905990408459903 Os
atom 5.2202683467475612 7.3825423800029846 15.6905900677119394 Os
atom 0.0001105561209603 0.0000020700163175 20.9108397320142068 Os
atom 4.5297150428828381 8.1246447380183611 17.4306880328062199 O
atom 8.7004724523078494 9.1012796797825484 18.1212702466882760 O
atom 7.6509506768290318 5.6638001969946385 15.6905833233347742 O
atom 6.9604102326264936 6.6404334452387594 18.4801688234618560 O
atom 9.3910606691347027 6.6404377219992989 17.4306699132945617 O
atom 5.2203009121075832 5.6638008702347635 16.7400867236241098 O
atom 6.2698240946875652 9.1012806230221077 19.1707684638736566 O
atom 6.9603547737480271 8.1246445847771174 16.3811832537385484 O
atom 6.9603884393466622 4.9216896950084683 17.4306761057322213 Os
atom 8.7004465610669524 2.4608389050042905 15.6905915030470684 Os
atom 5.2202790735768145 2.4608414000043273 15.6905931152653544 Os
atom 0.0001095803204246 4.9216885200163007 20.9108398027259348 Os
atom 4.5297144206040487 3.2029482980179114 17.4306855862297745 O
atom 8.7004731381837939 4.1795816797823386 18.1212686839850967 O
atom 7.6509521971007386 0.7421014469946674 15.6905829768487095 O
atom 6.9604155854283318 1.7187395752393453 18.4801699618688353 O
atom 9.3910665522184633 1.7187400919991203 17.4306649635084376 O
atom 5.2203051547410233 0.7421032502350585 16.7400864690400795 O
atom 6.2698242856020094 4.1795831430220787 19.1707685699463575 O
atom 6.9603651045854189 3.2029460847782234 16.3811848163705456 O
atom 6.9604940598926639 0.0000052650248748 24.3910088383740487 Os
atom 8.7005478612132769 7.3825438050206200 22.6509257135608451 Os
atom 5.2203805999898742 7.3825462900205547 22.6509263923963786 Os
atom 0.0002221729454863 0.0000052000334634 27.8711733272716486 Os
atom 4.5298205997874996 8.1246447880346899 24.3910197401372528 O
atom 8.7005787021620336 9.1012859997986979 25.0816001296774544 O
atom 7.6510572802661789 5.6638023870113097 22.6509168691348179 O
atom 6.9605189715041034 6.6404433052552720 25.4404996963802219 O
atom 9.3911690544455961 6.6404358620155381 24.3909989760239512 O
atom 5.2204080882939241 5.6638070102513707 23.7004193996777204 O
atom 6.2699290858992001 9.1012836530382621 26.1310992519699887 O
atom 6.9604664683478008 8.1246479747941596 23.3415160358225364 O
atom 6.9604919810107511 4.9217035250248591 24.3910097010525817 Os
atom 8.7005496572208525 2.4608413650200713 22.6509208345186082 Os
atom 5.2203910722551381 2.4608444000217804 22.6509287328451592 Os
atom 6.9604404258639150 4.9216872800169655 20.9108450070346024 Os
atom 4.5298212785788357 3.2029548280342635 24.3910165723006642 O
atom 8.7005765666660366 4.1795860997979544 25.0815965517426847 O
atom 7.6510581429338842 0.7421041070113670 22.6509171944053698 O
atom 6.9605230939256106 1.7187445752554926 25.4404989538936164 O
atom 9.3911672583811026 1.7187435720151762 24.3909980285226879 O
atom 5.2204110864025299 0.7421057402512623 23.7004169813573462 O
atom 6.2699315253933419 4.1795853230381041 26.1310968548668754 O
atom 6.9604732919538872 3.2029571347952599 23.3415199885023839 O
atom 3.4803865845288269 0.0000029150332707 27.8711726838141374 Os
atom 5.2204385191141007 7.3825442850292902 26.1310929248437098 Os
atom 1.7402735701163394 7.3825426400292065 26.1310918571076236 Os
atom 3.4803339758023366 0.0000018900254577 24.3910093545186051 Os
atom 8.0099320561308751 8.1246461280261340 20.9108519136543975 O
atom 12.1806906181084766 9.1012819297899039 21.6014301889423805 O
atom 4.1709505473856421 5.6638020270201288 26.1310833945034275 O
atom 10.4406274509224648 6.6404338452463323 21.9603310567497303 O
atom 5.9110599456774864 6.6404355120239886 27.8711643983249182 O
atom 1.7402994037615751 5.6637995502593768 27.1805811874474017 O
atom 9.7500407614583473 9.1012814530299355 22.6509329740497094 O
atom 3.4803574020123191 8.1246460848027198 26.8216822217986888 O
atom 3.4803842510668836 4.9216898850328512 27.8711707039269498 Os
atom 5.2204409161467140 2.4608431250285334 26.1310860871107309 Os
atom 1.7402832786569153 2.4608395700295311 26.1310879891651098 Os
atom 3.4803304685762737 4.9216984500254997 24.3910116455644470 Os
atom 8.0099339723439922 3.2029457280255560 20.9108467305550150 O
atom 12.1806902221237134 4.1795827997898023 21.6014302030961005 O
atom 4.1709531283129770 0.7421036070201825 26.1310824823234356 O
atom 10.4406345856277429 1.7187424952469950 21.9603315163196697 O
atom 5.9110602426301950 1.7187425020235061 27.8711610749282812 O
atom 1.7403026776683372 0.7421046202597478 27.1805821703075949 O
atom 9.7500425292183177 4.1795822530300049 22.6509327336277480 O
atom 3.4803628820705033 3.2029486148029278 26.8216804469251997 O
atom 3.4802790053220503 0.0000034250171422 20.9108439039212115 Os
atom 12.1807743497466276 7.3825438650301907 26.1310964108430674 Os
atom 8.7006046206773799 7.3825459200291697 26.1310916661893060 Os
atom 10.4406627636001534 0.0000051000248485 24.3910064624704361 Os
atom 1.0496008005274993 8.1246455180264689 20.9108544733817041 O
atom 5.2203609817918153 9.1012829197905951 21.6014342972204219 O
atom 11.1312791301403990 5.6638011570197966 26.1310827015595208 O
atom 3.4802979277507817 6.6404336152471668 21.9603361408343929 O
atom 12.8713927074774421 6.6404357620247856 27.8711692561357935 O
atom 8.7006332474149630 5.6638016602599430 27.1805835633046016 O
atom 2.7897136919237382 9.1012844630306091 22.6509351519055073 O
atom 10.4406918467154046 8.1246461348034877 26.8216856936668933 O
atom 3.4802749960454604 4.9216871350170388 20.9108454525106531 Os
atom 12.1807752830775424 2.4608434450294565 26.1310907539899731 Os
atom 8.7006071450446072 2.4608453400293562 26.1310917863859657 Os
atom 10.4406601685195888 4.9216907500245863 24.3910058331594541 Os
atom 1.0496024056339939 3.2029479180262070 20.9108518782952473 O
atom 5.2203600625756117 4.1795841997909084 21.6014377762014789 O
atom 11.1312825666713113 0.7421060470200082 26.1310823762708999 O
atom 3.4803079120950069 1.7187407752480681 21.9603364094629896 O
atom 12.8713944327850793 1.7187450020244281 27.8711658620167952 O
atom 8.7006349869012620 0.7421071702601926 27.1805847088115300 O
atom 2.7897152688018156 4.1795837030312768 22.6509395288925575 O
atom 10.4406935578951607 3.2029475248033554 26.8216839966053300 O
atom 0.0001715016730554 0.0000034050255219 24.3910076645084075 Os
atom 1.7402200280208067 7.3825480750215187 22.6509300975957224 Os
atom 12.1807104484294246 7.3825442400197279 22.6509211244616715 Os
atom 6.9605526578028263 0.0000039300330602 27.8711707887639406 Os
atom 11.4901571445647015 8.1246465980351044 24.3910190895559538 O
atom 1.7402522124476711 9.1012815397992899 25.0816013034380063 O
atom 0.6907304369688583 5.6638020570113818 22.6509143800845081 O
atom 0.0001899927663155 6.6404353052555010 25.4404998802115827 O
atom 2.4308404292745256 6.6404395820160413 24.3910009700442920 O
atom 12.1807430137894421 5.6638027302515059 23.7004177803738401 O
atom 13.2302661963694295 9.1012824830388510 26.1310995206233869 O
atom 0.0001345338878521 8.1246464447938607 23.3415143104882823 O
atom 0.0001681994864874 4.9216915550252116 24.3910071624819516 Os
atom 1.7402263212067761 2.4608407650210329 22.6509225597967969 Os
atom 12.1807211752586788 2.4608432600210701 22.6509241720150882 Os
atom 6.9605516820022872 4.9216903800330432 27.8711708594756686 Os
atom 11.4901565222859094 3.2029501580346542 24.3910166429795083 O
atom 1.7402528983236150 4.1795835397990810 25.0815997407348270 O
atom 0.6907319572405636 0.7421033070114103 22.6509140335984398 O
atom 0.0001953455681576 1.7187414352560881 25.4405010186185692 O
atom 2.4308463123582866 1.7187419520158631 24.3909960202581644 O
atom 12.1807472564228885 0.7421051102518011 23.7004175257898133 O
atom 13.2302663872838746 4.1795850030388211 26.1310996266960913 O
atom 0.0001448647252427 3.2029479447949658 23.3415158731202794 O
atom 0.0002738200324856 0.0000071250416175 31.3513398951237718 Os
atom 1.7403276213531094 7.3825456650373633 29.6112567703105789 Os
atom 12.1808227016717385 7.3825481500372980 29.6112574491461089 Os
atom 6.9606642746273488 0.0000070600502061 34.8315043840213860 Os
atom 11.4902627014693657 8.1246466480514332 31.3513507968869867 O
atom 1.7403584623018542 9.1012878598154394 32.0419311864271847 O
atom 0.6908370404060040 5.6638042470280530 29.6112479258845482 O
atom 0.0002987316439254 6.6404451652720144 32.4008307531299522 O
atom 2.4309488145854212 6.6404377220322797 31.3513300327736886 O
atom 12.1808501899757875 5.6638088702681131 30.6607504564274542 O
atom 13.2303711875810599 9.1012855130550054 33.0914303087197226 O
atom 0.0002462284876260 8.1246498348109011 30.3018470925722667 O
atom 0.0002717411505794 4.9217053850416024 31.3513407578023120 Os
atom 1.7403294173606811 2.4608432250368142 29.6112518912683385 Os
atom 12.1808331739369997 2.4608462600385232 29.6112597895949001 Os
atom 0.0002201860037399 4.9216891400337079 27.8711760637843327 Os
atom 11.4902633802606946 3.2029566880510068 31.3513476290503910 O
atom 1.7403563268058653 4.1795879598146968 32.0419276084924149 O
atom 0.6908379030737126 0.7421059670281097 29.6112482511550965 O
atom 0.0003028540654291 1.7187464352722353 32.4008300106433467 O
atom 2.4309470185209312 1.7187454320319189 31.3513290852724218 O
atom 12.1808531880843880 0.7421076002680052 30.6607480381070800 O
atom 13.2303736270752026 4.1795871830548474 33.0914279116166057 O
atom 0.0002530520937123 3.2029589948120027 30.3018510452521141 O
atom 10.4408286862106934 0.0000047750500128 34.8315037405638748 Os
atom 12.1808806207959659 7.3825461450460326 33.0914239815934508 Os
atom 8.7007156717982017 7.3825445000459489 33.0914229138573575 Os
atom 10.4407760774842000 0.0000037500421998 31.3513404112683425 Os
atom 1.0497118162707020 8.1246479880428772 27.8711829704041314 O
atom 5.2204703782483000 9.1012837898066454 28.5617612456921179 O
atom 11.1313926490675019 5.6638038870368739 33.0914144512531578 O
atom 3.4804072110622908 6.6404357052630756 28.9206621134994606 O
atom 12.8715020473593356 6.6404373720407319 34.8314954550746450 O
atom 8.7007415054434336 5.6638014102761209 34.1409122441971320 O
atom 2.7898205215981706 9.1012833130466788 29.6112640307994397 O
atom 10.4407995036941816 8.1246479448194613 33.7820132785484191 O
atom 10.4408263527487470 4.9216917450495936 34.8315017606766730 Os
atom 12.1808830178285792 2.4608449850452763 33.0914171438604683 Os
atom 8.7007253803387776 2.4608414300462740 33.0914190459148472 Os
atom 10.4407725702581349 4.9217003100422438 31.3513427023141844 Os
atom 1.0497137324838204 3.2029475880422988 27.8711777873047453 O
atom 5.2204699822635332 4.1795846598065456 28.5617612598458273 O
atom 11.1313952299948475 0.7421054670369254 33.0914135390731730 O
atom 3.4804143457675654 1.7187443552637376 28.9206625730694000 O
atom 12.8715023443120540 1.7187443620402487 34.8314921316780115 O
atom 8.7007447793501971 0.7421064802764906 34.1409132270573252 O
atom 2.7898222893581370 4.1795841130467473 29.6112637903774782 O
atom 10.4408049837523613 3.2029504748196702 33.7820115036749371 O
atom 10.4407211070039150 0.0000052850338849 27.8711749606709454 Os
atom 5.2205541098864581 7.3825457250469322 33.0914274675927942 Os
atom 1.7403843808172088 7.3825477800459121 33.0914227229390434 Os
atom 3.4804425237399812 0.0000069600415912 31.3513375192201664 Os
atom 8.0100429022093653 8.1246473780432105 27.8711855301314344 O
atom 12.1808030834736805 9.1012847798073384 28.5617653539701521 O
atom 4.1710588902802233 5.6638030170365399 33.0914137583092582 O
atom 10.4407400294326376 6.6404354752639092 28.9206671975841232 O
atom 5.9111724676172646 6.6404376220415289 34.8315003128855238 O
atom 1.7404130075547877 5.6638035202766872 34.1409146200543319 O
atom 9.7501557936056020 9.1012863230473524 29.6112662086552447 O
atom 3.4804716068552231 8.1246479948202293 33.7820167504166236 O
atom 10.4407170977273225 4.9216889950337821 27.8711765092603869 Os
atom 5.2205550432173702 2.4608453050461989 33.0914218107397033 Os
atom 1.7403869051844261 2.4608472000460990 33.0914228431356960 Os
atom 3.4804399286594130 4.9216926100413287 31.3513368899091915 Os
atom 8.0100445073158575 3.2029497780429494 27.8711829350449776 O
atom 12.1808021642574786 4.1795860598076517 28.5617688329512127 O
atom 4.1710623268111364 0.7421079070367510 33.0914134330206338 O
atom 10.4407500137768672 1.7187426352648105 28.9206674662127199 O
atom 5.9111741929249106 1.7187468620411708 34.8314969187665326 O
atom 1.7404147470410829 0.7421090302769353 34.1409157655612603 O
atom 9.7501573704836755 4.1795855630480192 29.6112705856422913 O
atom 3.4804733180349849 3.2029493848200983 33.7820150533550603 O
atom 6.9606136033549184 0.0000052650422646 31.3513387212581414 Os
atom 8.7006621297026658 7.3825499350382611 29.6112611543454562 Os
atom 5.2204902085692479 7.3825461000364712 29.6112521812114053 Os
atom 0.0003324179426419 0.0000057900498029 34.8315018455136709 Os
atom 4.5299369047045248 8.1246484580518477 31.3513501463056841 O
atom 8.7006943141295370 9.1012833998160332 32.0419323601877437 O
atom 7.6511725386507203 5.6638039170281234 29.6112454368342384 O
atom 6.9606320944481839 6.6404371652722443 32.4008309369613201 O
atom 9.3912825309563903 6.6404414420327837 31.3513320267940294 O
atom 5.2205227739292717 5.6638045902682483 30.6607488371235739 O
atom 6.2700459565092537 9.1012843430555943 33.0914305773731172 O
atom 6.9605766355697147 8.1246483048106040 30.3018453672380126 O
atom 6.9606103011683498 4.9216934150419540 31.3513382192316890 Os
atom 8.7006684228886417 2.4608426250377757 29.6112536165465308 Os
atom 5.2205009353985012 2.4608451200378130 29.6112552287648185 Os
atom 0.0003314421421154 4.9216922400497856 34.8315019162254060 Os
atom 4.5299362824257399 3.2029520180513971 31.3513476997292386 O
atom 8.7006950000054850 4.1795853998158243 32.0419307974845538 O
atom 7.6511740589224262 0.7421051670281530 29.6112450903481772 O
atom 6.9606374472500168 1.7187432952728305 32.4008320753682995 O
atom 9.3912884140401491 1.7187438120326057 31.3513270770079018 O
atom 5.2205270165627118 0.7421069702685440 30.6607485825395472 O
atom 6.2700461474236944 4.1795868630555635 33.0914306834458216 O
atom 6.9605869664071056 3.2029498048117087 30.3018469298700133 O
atom 8.7007697230349681 7.3825475250541057 36.5715878270603056 Os
atom 5.2206024618115592 7.3825500100540404 36.5715885058958463 Os
atom 7.6512791420878701 5.6638061070447954 36.5715789826342927 O
atom 6.9606883301694857 8.1246516948276444 37.2621781493219970 O
atom 8.7007715190425419 2.4608450850535566 36.5715829480180759 Os
atom 5.2206129340768221 2.4608481200552652 36.5715908463446269 Os
atom 6.9606622876856061 4.9216910000504512 34.8315071205340701 Os
atom 7.6512800047555718 0.7421078270448525 36.5715793079048410 O
atom 6.9606951537755650 3.2029608548287447 37.2621821020018444 O
atom 8.0101539179525645 8.1246498480596188 34.8315140271538581 O
atom 12.1809124799301571 9.1012856498233887 35.5220923024418482 O
atom 10.4408493127441506 6.6404375652798189 35.8809931702491980 O
atom 9.7502626232800331 9.1012851730634221 36.5715950875491700 O
atom 8.0101558341656798 3.2029494480590412 34.8315088440544685 O
atom 12.1809120839454028 4.1795865198232880 35.5220923165955611 O
atom 10.4408564474494288 1.7187462152804802 35.8809936298191303 O
atom 9.7502643910400018 4.1795859730634906 36.5715948471272156 O
atom 3.4805008671437405 0.0000071450506276 34.8315060174206792 Os
atom 1.0498226623491871 8.1246492380599538 34.8315165868811647 O
atom 5.2205828436135029 9.1012866398240799 35.5220964107198824 O
atom 3.4805197895724662 6.6404373352806525 35.8809982543338535 O
atom 2.7899355537454169 9.1012881830640957 36.5715972654049750 O
atom 3.4804968578671418 4.9216908550505245 34.8315075660101172 Os
atom 1.0498242674556848 3.2029516380596914 34.8315139917947079 O
atom 5.2205819243973028 4.1795879198243941 35.5220998897009395 O
atom 3.4805297739166976 1.7187444952815534 35.8809985229624502 O
atom 2.7899371306234908 4.1795874230647625 36.5716016423920181 O
atom 1.7404418898424976 7.3825517950550044 36.5715922110951794 Os
atom 12.1809323102511087 7.3825479600532127 36.5715832379611356 Os
atom 0.6909522987905461 5.6638057770448667 36.5715764935839758 O
atom 0.0003563957095336 8.1246501648273455 37.2621764239877393 O
atom 1.7404481830284608 2.4608444850545181 36.5715846732962575 Os
atom 12.1809430370803646 2.4608469800545554 36.5715862855145559 Os
atom 0.6909538190622513 0.7421070270448955 36.5715761470979075 O
atom 0.0003667265469304 3.2029516648284511 37.2621779866197471 O
