#===============================================================================
# Created using the Atomic Simulation Environment (ASE)

# Mon Mar 23 14:01:10 2026

#=======================================================
lattice_vector 11.0790232517419795 0.0000000000000000 0.0000000000000000 
lattice_vector 3.7278993459126002 10.4330108955597858 0.0000000000000000 
lattice_vector 0.0000000000000000 0.0000000000000000 36.7923536342614739 
atom 3.6231390406443258 2.5528837907086235 18.3961749413150919 Os
atom 8.2568571091134118 5.8178103955655729 17.2641243762117753 Os
atom 8.4844869799118712 5.9781851403383239 15.2643068822981860 O
atom 9.3902608450683829 4.2092284370529329 17.2641059685662839 O
atom 7.1234320345153970 7.4263960980348855 17.2641071924074296 O
atom 9.8931963081135113 6.9707755985558482 16.9998276546816456 O
atom 5.4870986255471692 3.8662443722287159 16.1320659508424562 Os
atom 10.1208226154144203 7.1311640513137329 15.0000158457683952 Os
atom 6.6205169378446920 4.6648314459406679 17.5284127489976811 O
atom 11.2542168290299642 5.5225751065369968 15.0000089636756400 O
atom 8.9873912714659721 8.7397462792377425 15.0000040738195679 O
atom 7.3510479426169599 9.0827540023988327 16.1320682471670835 Os
atom 8.2568529375260962 1.9146920875686690 15.0000166352973281 Os
atom 8.4844253303959807 9.8813938710411140 17.5284132559044501 O
atom 9.3902730872214715 0.3060902599802945 15.0000276773454786 O
atom 7.1234529025852495 3.5232628570002009 15.0000235806237505 O
atom 5.4870879881998489 7.7693939044214275 18.3961767029943459 Os
atom 6.3928870263907944 0.6013359148636562 17.2641291061769024 Os
atom 6.6204977143192085 0.7617309130983819 15.2643039207306366 O
atom 11.2542185169334843 9.4257526213898153 17.2641252461371906 O
atom 5.2594919384919621 2.2099110349968623 17.2641297470390072 O
atom 8.0292081673460540 1.7543312810206177 16.9998300901985715 O
atom 11.0266125731153100 3.8662408872771854 16.1320659897036371 Os
atom 4.5813157457066715 7.1311458120059630 15.0000084360829540 Os
atom 12.1600484551138042 4.6647976872821317 17.5284092939825129 O
atom 5.7147181642497893 5.5225766009662740 15.0000000000000000 O
atom 3.4478848536894984 8.7397398196752381 15.0000051750365202 O
atom 9.1626478244789222 2.5528907496480127 18.3961763473260227 Os
atom 2.7173490244591059 5.8177923555092219 17.2641188352167099 Os
atom 2.9449884328268299 5.9781597209107495 15.2643041178932251 O
atom 3.8507462413387752 4.2092184759610021 17.2641183675291714 O
atom 12.6629461502925693 7.4263903701429514 17.2641094038992904 O
atom 4.3537104861216669 6.9707483067656923 16.9998336984127931 O
atom 0.8533783093654915 0.6013225846603152 17.2641178572582596 Os
atom 1.0810030106085446 0.7617056413132404 15.2643061233746096 O
atom 5.7147027441940601 9.4257485922932993 17.2641348724936385 O
atom 10.7990062661875665 2.2099094527432217 17.2641308903203381 O
atom 2.4897158231738366 1.7542987103254950 16.9998287525189049 O
atom 12.8905626979675976 9.0827464501886901 16.1320667478492155 Os
atom 2.7173394799445725 1.9146745435034924 15.0000104783915660 Os
atom 14.0239622273660682 9.8813653215455588 17.5284145123793280 O
atom 3.8507723188827141 0.3060941215061326 15.0000195755254992 O
atom 1.5839442303106142 3.5232617635477017 15.0000255553402404 O
atom 4.5289282922542631 3.1911030222888259 21.7923431379796071 Os
atom 4.7565581630527145 3.3514777670615787 19.7925256440660178 O
atom 5.6623320282092360 1.5825210637761866 21.7923247303341157 O
atom 3.3955032176562474 4.7996887247581341 21.7923259541752685 O
atom 6.1652674912543644 4.3440682252791003 21.5280464164494845 O
atom 1.7591698086880263 1.2395369989519684 20.6602847126102915 Os
atom 6.3928937985552734 4.5044566780369841 19.5282346075362270 Os
atom 7.5262880121708173 2.8958677332602498 19.5282277254434717 O
atom 5.2594624546068305 6.1130389059609973 19.5282228355873961 O
atom 8.0292380400823617 5.6574189551244736 19.2639397014438956 O
atom 3.6231191257578175 6.4560466291220866 20.6602870089349153 Os
atom 8.2568234665795490 9.7209956098517072 19.5282353970651670 Os
atom 9.3902436162749225 8.1123937822633359 19.5282464391133104 O
atom 3.3955240857261031 0.8965554837234557 19.5282423423915787 O
atom 6.1652473506908461 0.4409806701138758 19.2639471429634028 O
atom 6.3928575554442428 8.4076394371466971 21.7923478679447342 Os
atom 6.6204682433726614 8.5680344353814224 19.7925226824984684 O
atom 7.5262897000743285 6.7990452481130701 21.7923440079050295 O
atom 5.2594624675454256 10.0162145572799020 21.7923485088068460 O
atom 8.0291786963995087 9.5606348033036586 21.5280488519664033 O
atom 7.2986837562561568 1.2395335140004391 20.6602847514714725 Os
atom 11.9324101805895051 4.5044384387292160 19.5282271978507893 Os
atom 1.9867893473906468 2.8958692276895257 19.5282187617678318 O
atom 10.7989792885723350 6.1130324463984920 19.5282239368043520 O
atom 2.4897433141642087 5.6573963751550416 19.2639405520024418 O
atom 10.0684434593419372 3.1910849822324754 21.7923375969845452 Os
atom 10.2960828677096661 3.3514523476339999 19.7925228796610604 O
atom 11.2018406762216127 1.5825111026842547 21.7923371292970032 O
atom 8.9350173334334180 4.7996829968662089 21.7923281656671222 O
atom 11.7048049210044987 4.3440409334889445 21.5280524601806249 O
atom 11.0265969219825859 7.7693930369241260 18.3961782483047571 Os
atom 11.9323720901609196 8.4076261069433542 21.7923366190260950 Os
atom 12.1599967914039819 8.5680091635962796 19.7925248851424449 O
atom 13.0657971790768883 6.7990412190165532 21.7923536342614739 O
atom 10.7989767952410194 10.0162129750262601 21.7923496520881770 O
atom 13.5687096039692747 9.5606022326085363 21.5280475142867331 O
atom 9.1626338811084516 6.4560390769119431 20.6602855096170508 Os
atom 13.7963332607400098 9.7209780657865306 19.5282292401593978 Os
atom 3.8507428479361718 8.1123976437891709 19.5282383372933381 O
atom 8.9350386651934421 0.8965543902709572 19.5282443171080757 O
atom 0.6257463989346256 0.4409528470407817 19.2639377403173668 O
