#===============================================================================
# Created using the Atomic Simulation Environment (ASE)

# Mon Mar 23 14:01:10 2026

#=======================================================
lattice_vector 9.0245745700181317 0.0000000000000000 0.0000000000000000 
lattice_vector -0.0000361800215085 9.0245852999456080 0.0000000000000000 
lattice_vector 0.0000000000000000 0.0000000000000000 42.8533120500000066 
atom -0.0000332900110248 9.0245800699514014 16.6066687100000010 Os
atom 1.3914457408577661 1.3914232891928298 16.6066691700000035 O
atom 2.2561459975098246 2.2561410025092536 15.0000076700000022 Os
atom 3.6475632966864375 0.8647033516394799 15.0000151899999992 O
atom 0.8646910483636203 3.6475634833035566 15.0000112900000033 O
atom 9.0245532749959505 4.5122983499663789 16.6066690800000032 Os
atom 2.2561033124414203 6.7684624124327568 15.0000102099999992 Os
atom 3.6475545516240859 5.3770217416310162 15.0000000000000000 O
atom 0.8646861932950555 8.1598849733028906 15.0000044499999987 O
atom 4.5122511799916971 9.0245832349457569 16.6066690700000024 Os
atom 7.6331642142419778 3.1208232808871670 16.6066694900000016 O
atom 6.7684373075565443 2.2561222175173219 15.0000091100000006 Os
atom 8.1598558867005853 0.8647008166501141 15.0000132500000021 O
atom 5.3769831883806125 3.6475595283132889 15.0000049000000004 O
atom 6.7683900724858947 6.7684447474317047 15.0000100399999994 Os
atom 8.1598443716316584 5.3770224866360978 15.0000029300000008 O
atom 5.3769765433040311 8.1598850183090352 15.0000095999999985 O
atom -0.0000332900110248 9.0245800699514014 23.0333171400000047 Os
atom 2.2561446675106263 2.2561406025065880 18.2133319100000008 Os
atom 1.3914457408577661 1.3914232891928298 23.0333176000000037 O
atom 3.6475619066867182 0.8647032116366937 18.2133229300000039 O
atom 0.8646910983638411 3.6475633733036572 18.2133266599999999 O
atom 3.1208489641921711 3.1208436058311100 16.6066699400000033 O
atom 9.0245717200162670 0.0000009299942871 19.8199931800000044 Os
atom 2.2561459975098246 2.2561410025092536 21.4266561000000024 Os
atom 1.3914393908613145 1.3914215191801012 19.8199941800000019 O
atom 3.6475632966864375 0.8647033516394799 21.4266636200000029 O
atom 0.8646910483636203 3.6475634833035566 21.4266597200000035 O
atom 3.1208561641946164 3.1208423858455423 19.8199936800000032 O
atom 9.0245532749959505 4.5122983499663789 23.0333175099999998 Os
atom 2.2561022624402174 6.7684630124306526 18.2133303600000005 Os
atom 1.3913713457512560 5.9037637090527699 16.6066709800000041 O
atom 3.6475534316211395 5.3770232116287708 18.2133407300000023 O
atom 0.8646855432950556 8.1598849733015868 18.2133336899999989 O
atom 3.1207888490599225 7.6331968657196736 16.6066710500000028 O
atom -0.0000162650101328 4.5122923399764625 19.8199926800000021 Os
atom 2.2561033124414203 6.7684624124327568 21.4266586400000030 Os
atom 1.3913790057611781 5.9037587590681229 19.8199933300000026 O
atom 3.6475545516240859 5.3770217416310162 21.4266484300000037 O
atom 0.8646861932950555 8.1598849733028906 21.4266528800000025 O
atom 3.1207829690729714 7.6331903557078871 19.8199932000000025 O
atom 4.5122511799916971 9.0245832349457569 23.0333175000000026 Os
atom 6.7684387475579664 2.2561215075202092 18.2133313600000015 Os
atom 5.9037509709323892 1.3913905842288010 16.6066697900000015 O
atom 8.1598562067019280 0.8647001466507552 18.2133249600000013 O
atom 5.3769850083827793 3.6475584483169374 18.2133359000000006 O
atom 7.6331642142419778 3.1208232808871670 23.0333179200000053 O
atom 4.5122865400060688 0.0000014949985066 19.8199927200000019 Os
atom 6.7684373075565443 2.2561222175173219 21.4266575400000043 Os
atom 5.9037496909136866 1.3913999142262352 19.8199942400000033 O
atom 8.1598558867005853 0.8647008166501141 21.4266616800000023 O
atom 5.3769831883806125 3.6475595283132889 21.4266533300000042 O
atom 7.6331682442424782 3.1208230308952452 19.8199946000000047 O
atom 4.5122698549988804 4.5122923649741269 16.6066714700000020 Os
atom 6.7683912024849127 6.7684452374339683 18.2133302599999993 Os
atom 5.9036885358118472 5.9037380041127125 16.6066711799999993 O
atom 8.1598444616304562 5.3770230866362789 18.2133350500000013 O
atom 5.3769767133057149 8.1598841783093761 18.2133285500000000 O
atom 7.6330947691398565 7.6331615107570281 16.6066701700000010 O
atom 4.5122699850014882 4.5122910649743870 19.8199935100000033 Os
atom 6.7683900724858947 6.7684447474317047 21.4266584700000031 Os
atom 5.9036881558085597 5.9037396441119521 19.8199930900000041 O
atom 8.1598443716316584 5.3770224866360978 21.4266513600000046 O
atom 5.3769765433040311 8.1598850183090352 21.4266580300000022 O
atom 7.6330882091266865 7.6331680807438786 19.8199938200000041 O
atom 2.2561446675106263 2.2561406025065880 24.6399803400000046 Os
atom 3.6475619066867182 0.8647032116366937 24.6399713600000041 O
atom 0.8646910983638411 3.6475633733036572 24.6399750900000036 O
atom 3.1208489641921711 3.1208436058311100 23.0333183700000035 O
atom 9.0245717200162670 0.0000009299942871 26.2466416100000046 Os
atom 2.2561459975098246 2.2561410025092536 27.8533045300000026 Os
atom 1.3914393908613145 1.3914215191801012 26.2466426100000021 O
atom 3.6475632966864375 0.8647033516394799 27.8533120500000066 O
atom 0.8646910483636203 3.6475634833035566 27.8533081500000037 O
atom 3.1208561641946164 3.1208423858455423 26.2466421100000034 O
atom 2.2561022624402174 6.7684630124306526 24.6399787900000042 Os
atom 1.3913713457512560 5.9037637090527699 23.0333194100000043 O
atom 3.6475534316211395 5.3770232116287708 24.6399891600000025 O
atom 0.8646855432950556 8.1598849733015868 24.6399821200000027 O
atom 3.1207888490599225 7.6331968657196736 23.0333194800000030 O
atom -0.0000162650101328 4.5122923399764625 26.2466411100000023 Os
atom 2.2561033124414203 6.7684624124327568 27.8533070700000067 Os
atom 1.3913790057611781 5.9037587590681229 26.2466417600000028 O
atom 3.6475545516240859 5.3770217416310162 27.8532968600000075 O
atom 0.8646861932950555 8.1598849733028906 27.8533013099999991 O
atom 3.1207829690729714 7.6331903557078871 26.2466416300000027 O
atom 6.7684387475579664 2.2561215075202092 24.6399797900000017 Os
atom 5.9037509709323892 1.3913905842288010 23.0333182200000053 O
atom 8.1598562067019280 0.8647001466507552 24.6399733900000051 O
atom 5.3769850083827793 3.6475584483169374 24.6399843300000043 O
atom 4.5122865400060688 0.0000014949985066 26.2466411500000021 Os
atom 6.7684373075565443 2.2561222175173219 27.8533059700000010 Os
atom 5.9037496909136866 1.3913999142262352 26.2466426700000035 O
atom 8.1598558867005853 0.8647008166501141 27.8533101100000025 O
atom 5.3769831883806125 3.6475595283132889 27.8533017600000008 O
atom 7.6331682442424782 3.1208230308952452 26.2466430300000049 O
atom 4.5122698549988804 4.5122923649741269 23.0333199000000022 Os
atom 6.7683912024849127 6.7684452374339683 24.6399786900000031 Os
atom 5.9036885358118472 5.9037380041127125 23.0333196100000031 O
atom 8.1598444616304562 5.3770230866362789 24.6399834800000050 O
atom 5.3769767133057149 8.1598841783093761 24.6399769800000037 O
atom 7.6330947691398565 7.6331615107570281 23.0333186000000047 O
atom 4.5122699850014882 4.5122910649743870 26.2466419400000035 Os
atom 6.7683900724858947 6.7684447474317047 27.8533068999999998 Os
atom 5.9036881558085597 5.9037396441119521 26.2466415200000007 O
atom 8.1598443716316584 5.3770224866360978 27.8532997900000012 O
atom 5.3769765433040311 8.1598850183090352 27.8533064600000060 O
atom 7.6330882091266865 7.6331680807438786 26.2466422500000043 O
