#===============================================================================
# Created using the Atomic Simulation Environment (ASE)

# Mon Mar 23 14:01:07 2026

#=======================================================
lattice_vector 13.9206623415420374 0.0000000000000000 0.0000000000000000 
lattice_vector -0.0000018384659456 9.8433818399999584 0.0000000000000000 
lattice_vector 0.0000000000000000 0.0000000000000000 31.3811889317526465 
atom 8.7007697230349681 7.3825475250541057 15.6905946568111077 Os
atom 5.2206024618115592 7.3825500100540404 15.6905953356466483 Os
atom 7.6512791420878701 5.6638061070447954 15.6905858123850948 O
atom 6.9606883301694857 8.1246516948276444 16.3811849790727990 O
atom 8.7007715190425419 2.4608450850535566 15.6905897777688779 Os
atom 5.2206129340768221 2.4608481200552652 15.6905976760954289 Os
atom 7.6512800047555718 0.7421078270448525 15.6905861376556430 O
atom 6.9606951537755650 3.2029608548287447 16.3811889317526465 O
atom 10.4408493127441506 6.6404375652798189 15.0000000000000000 O
atom 9.7502626232800331 9.1012851730634221 15.6906019172999720 O
atom 10.4408564474494288 1.7187462152804802 15.0000004595699323 O
atom 9.7502643910400018 4.1795859730634906 15.6906016768780177 O
atom 3.4805197895724662 6.6404373352806525 15.0000050840846555 O
atom 2.7899355537454169 9.1012881830640957 15.6906040951557770 O
atom 3.4805297739166976 1.7187444952815534 15.0000053527132522 O
atom 2.7899371306234908 4.1795874230647625 15.6906084721428201 O
atom 1.7404418898424976 7.3825517950550044 15.6905990408459814 Os
atom 12.1809323102511087 7.3825479600532127 15.6905900677119376 Os
atom 0.6909522987905461 5.6638057770448667 15.6905833233347778 O
atom 0.0003563957095336 8.1246501648273455 16.3811832537385413 O
atom 1.7404481830284608 2.4608444850545181 15.6905915030470595 Os
atom 12.1809430370803646 2.4608469800545554 15.6905931152653579 Os
atom 0.6909538190622513 0.7421070270448955 15.6905829768487095 O
atom 0.0003667265469304 3.2029516648284511 16.3811848163705491 O
