#===============================================================================
# Created using the Atomic Simulation Environment (ASE)

# Mon Mar 23 14:01:11 2026

#=======================================================
lattice_vector 9.0245853000181313 0.0000000000000000 0.0000000000000000 
lattice_vector 0.0000000000000000 6.4266484300000002 0.0000000000000000 
lattice_vector 0.0000000000000000 0.0000000000000000 31.7294440533566657 
atom 0.8645800484330514 1.6066532899999999 15.0000000000000000 O
atom 0.8645801884302650 4.8199939800000005 15.0000013900002713 O
atom 5.3769000484228462 1.6066710900000003 15.0000096150548217 O
atom 5.3768985784205992 4.8199787900000004 15.0000107350518803 O
atom 9.0244566050932615 6.4266478600000001 15.8647219866721017 Os
atom 3.6474283517457486 1.6066662599999999 16.7294342582903610 O
atom 9.0244601650949061 3.2133230799999999 15.8647211666792316 Os
atom 3.6474294317493969 4.8199836899999999 16.7294324382925197 O
atom 4.5121657350830215 0.0000018300000000 15.8647225716756637 Os
atom 8.1597540817351781 1.6066589100000002 16.7294440533566657 O
atom 4.5121644350827630 3.2133238700000000 15.8647227016730668 Os
atom 8.1597549217355212 4.8199883899999998 16.7294438833583499 O
