#===============================================================================
# Created using the Atomic Simulation Environment (ASE)

# Mon Mar 23 14:01:08 2026

#=======================================================
lattice_vector 22.0103944943716279 0.0000000000000000 0.0000000000000000 
lattice_vector -0.0000025759486765 9.8433818399997932 0.0000000000000000 
lattice_vector 0.0000000000000000 0.0000000000000000 30.2097833532332594 
atom 18.7090266771392137 7.3825444760470260 15.1048912092909404 Os
atom 15.0755974677668014 5.6638073804249744 15.0000056404071849 O
atom 16.8398564582736618 8.1246484816690501 15.2097777362582711 O
atom 18.7090303397914930 2.4608420360470160 15.1048868578886264 Os
atom 15.0756014926792563 0.7421061104252773 15.0000040035889732 O
atom 16.8398620976721105 3.2029576416702676 15.2097833532332594 O
atom 13.2064348131955285 0.0000020960480577 15.1048937427257428 Os
atom 0.3320648043744543 9.1012829016694443 15.2097759776404651 O
atom 20.5781965560933280 6.6404346804245025 15.0000000000000000 O
atom 13.2064303455404382 4.9216986560476705 15.1048950978026788 Os
atom 0.3320648401492375 4.1795837716693427 15.2097755751570141 O
atom 20.5782035952498816 1.7187433304255892 15.0000024015003603 O
atom 7.7038329540389014 7.3825436060481291 15.1048978325018943 Os
atom 4.0704045496094361 5.6638011004255420 15.0000056448523189 O
atom 5.8346620106790379 8.1246457116699276 15.2097830223053769 O
atom 7.7038360442510632 2.4608431860479478 15.1048924704003085 Os
atom 4.0704062535014778 0.7421066104258295 15.0000069909629303 O
atom 5.8346645866208657 3.2029471016700688 15.2097816627685773 O
atom 2.2012366134150536 0.0000032060474830 15.1048891095988616 Os
atom 11.3372630220535786 9.1012815816701735 15.2097821894312411 O
atom 9.5730019027739761 6.6404352104252613 15.0000043379552714 O
atom 2.2012352494152974 4.9216896560473735 15.1048891587932808 Os
atom 11.3372645828192091 4.1795835816701619 15.2097806331268757 O
atom 9.5730070368014548 1.7187413404261085 15.0000068199664760 O
