#===============================================================================
# Created using the Atomic Simulation Environment (ASE)

# Mon Mar 23 14:01:12 2026

#=======================================================
lattice_vector 12.7627089219227017 0.0000000000000000 0.0000000000000000 
lattice_vector 0.0000000000000000 6.4266484300000002 0.0000000000000000 
lattice_vector 0.0000000000000000 0.0000000000000000 48.3990944400175920 
atom 6.3813526154288462 0.0000009300000002 16.2228876588866271 Os
atom 6.3813442008579759 3.2133248900000004 16.2228879558664758 Os
atom 9.5719729560685831 6.4266470900000003 15.0000044016746727 O
atom 9.5719818726839527 3.2133247400000005 15.0000063179393486 O
atom 3.1906991172218753 4.8199867100000002 16.2228836902639273 Os
atom 3.1907279022065658 6.4266482800000002 15.0000000000000000 O
atom 5.1584633177966843 4.8199931099999995 16.2228781567005242 O
atom 1.2228982460980986 4.8199821700000003 16.2228745866951591 O
atom 3.1906975969426017 1.6066605299999999 16.2228831740750721 Os
atom 3.1907203998002349 3.2133238300000007 15.0000056922051268 O
atom 5.1584626177608230 1.6066563900000004 16.2228784041874832 O
atom 1.2228961954887438 1.6066647400000000 16.2228740634349222 O
atom 12.7627030140610920 3.2133245600000002 16.2228887513641915 Os
atom 12.7626994891496448 0.0000009300000002 22.6042165367201235 Os
atom 6.3813542470825357 4.8199861600000009 19.4135568265832035 Os
atom 6.3813655241022955 0.0000004699999996 18.1906748757915508 O
atom 8.3491296270223891 4.8199951400000005 19.4135398025412549 O
atom 4.4135635158758841 4.8199914100000001 19.4135378235255232 O
atom 6.3813568859279934 6.4266481300000002 20.6364324558485066 O
atom 12.7626910745787754 3.2133248900000004 22.6042168336999723 Os
atom 6.3813549046911175 1.6066619700000002 19.4135580498783256 Os
atom 6.3813622855566496 3.2133238900000007 18.1906691340825617 O
atom 8.3491305109052192 1.6066544500000004 19.4135408844151520 O
atom 4.4135634027387791 1.6066583500000000 19.4135378659518629 O
atom 6.3813628397645781 3.2133243900000004 20.6364366843505991 O
atom 3.1906595528329111 0.0000005599999998 19.4135555166575102 Os
atom 9.5719970343820044 4.8199877100000004 16.2228962378401462 Os
atom 3.1906109078666782 6.4266470900000003 21.3813332795081692 O
atom 11.5397981105690324 4.8199773400000003 16.2229015018192122 O
atom 7.6042329328015841 4.8199843800000002 16.2229027189266937 O
atom 9.5719653361166444 6.4266470200000008 17.4457811584681401 O
atom 3.1906673592921888 3.2133253899999996 19.4135548236975026 Os
atom 9.5719982011080038 1.6066594300000006 16.2228965560388900 Os
atom 3.1906198244820505 3.2133247400000005 21.3813351957728486 O
atom 11.5397999419757458 1.6066696400000005 16.2229012543329283 O
atom 7.6042333924207206 1.6066651900000002 16.2229031785463746 O
atom 9.5719657815991255 3.2133248699999997 17.4457723974153858 O
atom 9.5720218237905446 0.0000005700000003 19.4135523452882381 Os
atom 9.5720459909426729 4.8199867100000002 22.6042125680974273 Os
atom 9.5720747759273692 6.4266482800000002 21.3813288778334964 O
atom 11.5398101915174820 4.8199931099999995 22.6042070345340242 O
atom 7.6042451198188958 4.8199821700000003 22.6042034645286591 O
atom 3.1907175952508453 0.0000001500000003 17.4457734192478640 O
atom 9.5720187266616925 3.2133253500000003 19.4135542827589767 Os
atom 9.5720444706634016 1.6066605299999999 22.6042120519085756 Os
atom 9.5720672735210339 3.2133238300000007 21.3813345700386250 O
atom 11.5398094914816269 1.6066563900000004 22.6042072820209867 O
atom 7.6042430692095406 1.6066647400000000 22.6042029412684187 O
atom 3.1907206216662800 3.2133234700000002 17.4457760921132952 O
atom 12.7627020028978979 6.4266466000000007 16.2228895786785223 Os
atom 12.7626842103339389 4.8199878099999998 19.4135492782037495 Os
atom 12.7626857151353192 6.4266468900000007 18.1906718104632787 O
atom 1.9677653620084550 4.8199830199999996 19.4135685004641374 O
atom 10.7949096789204209 4.8199895200000000 19.4135693428053671 O
atom 12.7626769496791876 6.4266479000000016 20.6364337745822013 O
atom 6.3813409658591915 3.2133245600000002 22.6042176291976915 Os
atom 12.7626837577862826 1.6066596000000004 19.4135481326904937 Os
atom 12.7626842867790877 3.2133249800000008 18.1906727014169718 O
atom 1.9677657226332019 1.6066667099999996 19.4135680125606740 O
atom 10.7949089647422927 1.6066600400000002 19.4135698165664827 O
atom 12.7626676653671467 3.2133242500000003 20.6364337816477530 O
atom 6.3813374409477408 0.0000009300000002 28.9855454145536271 Os
atom 12.7627011208033352 4.8199861600000009 25.7948857044167035 Os
atom 0.0000034759003882 0.0000004699999996 24.5720037536250473 O
atom 1.9677675788204840 4.8199951400000005 25.7948686803747478 O
atom 10.7949103895966836 4.8199914100000001 25.7948667013590232 O
atom 12.7627037596487956 6.4266481300000002 27.0177613336820031 O
atom 6.3813290263768749 3.2133248900000004 28.9855457115334758 Os
atom 12.7627017784119143 1.6066619700000002 25.7948869277118220 Os
atom 0.0000002373547510 3.2133238900000007 24.5719980119160617 O
atom 1.9677684627033181 1.6066544500000004 25.7948697622486520 O
atom 10.7949102764595768 1.6066583500000000 25.7948667437853629 O
atom 0.0000007915626736 3.2133243900000004 27.0177655621840955 O
atom 9.5720064265537133 0.0000005599999998 25.7948843944910102 Os
atom 3.1906349861801035 4.8199877100000004 22.6042251156736427 Os
atom 9.5719577815874786 6.4266470900000003 27.7626621573416656 O
atom 5.1584360623671328 4.8199773400000003 22.6042303796527122 O
atom 1.2228708845996841 4.8199843800000002 22.6042315967601937 O
atom 3.1906032879147399 6.4266470200000008 23.8271100363016402 O
atom 9.5720142330129878 3.2133253899999996 25.7948837015309991 Os
atom 3.1906361529061025 1.6066594300000006 22.6042254338723865 Os
atom 9.5719666982028482 3.2133247400000005 27.7626640736063450 O
atom 5.1584378937738435 1.6066696400000005 22.6042301321664283 O
atom 1.2228713442188146 1.6066651900000002 22.6042320563798711 O
atom 3.1906037333972193 3.2133248699999997 23.8271012752488858 O
atom 3.1906597755886423 0.0000005700000003 25.7948812231217381 Os
atom 3.1906839427407676 4.8199867100000002 28.9855414459309202 Os
atom 3.1907127277254639 6.4266482800000002 27.7626577556669929 O
atom 5.1584481433155798 4.8199931099999995 28.9855359123675171 O
atom 1.2228830716169912 4.8199821700000003 28.9855323423621556 O
atom 9.5720644689716430 0.0000001500000003 23.8271022970813604 O
atom 3.1906566784597912 3.2133253500000003 25.7948831605924767 Os
atom 3.1906824224615029 1.6066605299999999 28.9855409297420721 Os
atom 3.1907052253191273 3.2133238300000007 27.7626634478721286 O
atom 5.1584474432797185 1.6066563900000004 28.9855361598544832 O
atom 1.2228810210076335 1.6066647400000000 28.9855318191019222 O
atom 9.5720674953870795 3.2133234700000002 23.8271049699467952 O
atom 6.3813399546959984 6.4266466000000007 22.6042184565120223 Os
atom 6.3813221621320375 4.8199878099999998 25.7948781560372460 Os
atom 6.3813236669334135 6.4266468900000007 24.5720006882967752 O
atom 8.3491122357292529 4.8199830199999996 25.7948973782976338 O
atom 4.4135476307185213 4.8199895200000000 25.7948982206388600 O
atom 6.3813149014772872 6.4266479000000016 27.0177626524156977 O
atom 12.7626878395799892 3.2133245600000002 28.9855465070311880 Os
atom 6.3813217095843795 1.6066596000000004 25.7948770105239937 Os
atom 6.3813222385771846 3.2133249800000008 24.5720015792504718 O
atom 8.3491125963539989 1.6066667099999996 25.7948968903941740 O
atom 4.4135469165403896 1.6066600400000002 25.7948986943999827 O
atom 6.3813056171652454 3.2133242500000003 27.0177626594812494 O
atom 6.3813390726014312 4.8199861600000009 32.1762145822502035 Os
atom 6.3813503496211910 0.0000004699999996 30.9533326314585508 O
atom 8.3491144525412810 4.8199951400000005 32.1761975582082513 O
atom 4.4135483413947849 4.8199914100000001 32.1761955791925232 O
atom 6.3813417114468916 6.4266481300000002 33.3990902115154995 O
atom 6.3813397302100157 1.6066619700000002 32.1762158055453185 Os
atom 6.3813471110755478 3.2133238900000007 30.9533268897495617 O
atom 8.3491153364241146 1.6066544500000004 32.1761986400821485 O
atom 4.4135482282576746 1.6066583500000000 32.1761956216188665 O
atom 6.3813476652834709 3.2133243900000004 33.3990944400175920 O
atom 3.1906443783518124 0.0000005599999998 32.1762132723245102 Os
atom 9.5719818599009034 4.8199877100000004 28.9855539935071391 Os
atom 11.5397829360879332 4.8199773400000003 28.9855592574862087 O
atom 7.6042177583204813 4.8199843800000002 28.9855604745936901 O
atom 9.5719501616355362 6.4266470200000008 30.2084389141351366 O
atom 3.1906521848110896 3.2133253899999996 32.1762125793645097 Os
atom 9.5719830266268993 1.6066594300000006 28.9855543117058900 Os
atom 11.5397847674946430 1.6066696400000005 28.9855590099999318 O
atom 7.6042182179396178 1.6066651900000002 28.9855609342133747 O
atom 9.5719506071180174 3.2133248699999997 30.2084301530823893 O
atom 9.5720066493094418 0.0000005700000003 32.1762101009552381 Os
atom 3.1907024207697434 0.0000001500000003 30.2084311749148640 O
atom 9.5720035521805933 3.2133253500000003 32.1762120384259731 Os
atom 3.1907054471851808 3.2133234700000002 30.2084338477802916 O
atom 12.7626868284167951 6.4266466000000007 28.9855473343455259 Os
atom 12.7626690358528414 4.8199878099999998 32.1762070338707460 Os
atom 12.7626705406542111 6.4266468900000007 30.9533295661302787 O
atom 1.9677501875273533 4.8199830199999996 32.1762262561311374 O
atom 10.7948945044393216 4.8199895200000000 32.1762270984723671 O
atom 12.7626617751980849 6.4266479000000016 33.3990915302492013 O
atom 12.7626685833051798 1.6066596000000004 32.1762058883574937 Os
atom 12.7626691122979814 3.2133249800000008 30.9533304570839718 O
atom 1.9677505481520972 1.6066667099999996 32.1762257682276740 O
atom 10.7948937902611899 1.6066600400000002 32.1762275722334863 O
atom 12.7626524908860457 3.2133242500000003 33.3990915373147459 O
