#===============================================================================
# Created using the Atomic Simulation Environment (ASE)

# Mon Mar 23 14:01:09 2026

#=======================================================
lattice_vector 22.0103944943716279 0.0000000000000000 0.0000000000000000 
lattice_vector -8.8041042034015895 10.7828962547440934 0.0000000000000000 
lattice_vector 0.0000000000000000 0.0000000000000000 31.8177997931033012 
atom -5.5023915202107831 6.7393824334273411 16.6105780089056658 Os
atom -3.3013652412837344 4.0436606418733518 16.6105766596384292 Os
atom 15.4074542318517622 3.5943709321057646 15.6059347821793928 Os
atom 14.2020633227218358 4.8565967291035008 16.6105874321369527 O
atom 16.8398590342223322 4.7639250977698415 16.4033602214110239 O
atom 17.6084839319838444 0.8986360134805755 15.6059425613544072 Os
atom 4.7341146163360364 0.2640108985889142 16.0046489998952879 O
atom -4.2969974019685315 6.8320371113720757 15.0000040417014837 O
atom -5.8342436179694861 8.7148393162876268 16.8177943430141603 O
atom -3.1964504019069149 8.6221647163123531 16.6105707575546298 O
atom 15.0756014926792510 6.9247114721762495 15.2072255491917794 O
atom 2.0963207652248621 0.3566835194614363 16.2118725200434319 O
atom 13.2064348131955303 6.2900882378050316 15.6059404547661522 Os
atom 0.3320673803231348 5.6554646601842684 16.0046472933757080 O
atom 0.1050577542113444 1.4405952298532338 15.0000031394402562 O
atom -1.4321953623296282 3.3233889888988473 16.8177911872826051 O
atom 1.2056049689378689 3.2307174780725840 16.6105725252484433 O
atom 19.4776534020686434 1.5332645388348896 15.2072234181340527 O
atom -2.3057318239295190 5.7481378945208439 16.2118714504212242 O
atom -1.1003370930180285 1.3479264462311280 16.6105781436322424 Os
atom -7.7034135729991702 9.4350973054041827 16.6105772107781711 Os
atom 11.0054146431897308 8.9858037980864900 15.6059416366301988 Os
atom 9.8000158004486178 10.2480356784531779 16.6105845703109090 O
atom 12.4378126121399930 10.1553649636562984 16.4033646998806368 O
atom 5.5028112277180661 6.7393826068652443 16.6105806257444719 Os
atom 7.7038355299875807 4.0436625516054878 16.6105830609464640 Os
atom 4.4022598826146684 3.5943700301848041 15.6059359497545707 Os
atom 3.1968671801574868 4.8565985073731124 16.6105873423116925 O
atom 5.8346645866277180 4.7639247271511627 16.4033661777379898 O
atom 6.6032869307340754 0.8986363421007174 15.6059370744951700 Os
atom 15.7393140415022330 0.2640132154675232 16.0046565565529484 O
atom 6.7082031546024652 6.8320383346115063 15.0000043029580858 O
atom 5.1709582534351872 8.7148386097267316 16.8177997931033048 O
atom 7.8087519256515883 8.6221668560774791 16.6105743174448790 O
atom 4.0704062535014804 6.9247131482081610 15.2072280721505066 O
atom 13.1015199667934965 0.3566866853133898 16.2118812891978514 O
atom 2.2012366134150514 6.2900873596146569 15.6059357721659069 Os
atom 11.3372655980022561 5.6554659911621341 16.0046535028233983 O
atom 11.1102569959504649 1.4405948774727881 15.0000000000000000 O
atom 9.5730044787226483 3.3233912436923188 16.8177949308989305 O
atom 12.2108030077068914 3.2307230538867695 16.6105727456848768 O
atom 8.4724576843703083 1.5332694117380408 15.2072242468577379 O
atom 8.6994692603639425 5.7481389461435217 16.2118735569574000 O
atom 9.9048642685546273 1.3479302346401583 16.6105802460779337 Os
atom 3.3017891659949141 9.4350976084734217 16.6105813912076847 Os
atom 0.0002136349404792 8.9858082401225516 15.6059402526802522 Os
atom -1.2051814109310020 10.2480407649764285 16.6105873708821150 O
atom 1.4326179409163549 10.1553659623344110 16.4033662961139832 O
