#===============================================================================
# Created using the Atomic Simulation Environment (ASE)

# Mon Mar 23 14:01:11 2026

#=======================================================
lattice_vector 11.0790232517419795 0.0000000000000000 0.0000000000000000 
lattice_vector -0.0000294709465473 9.0245852999700116 0.0000000000000000 
lattice_vector 0.0000000000000000 0.0000000000000000 31.6143071961522537 
atom 0.8010289463416671 2.2560979933865379 15.8071585216630197 Os
atom 1.9344326822966358 0.8646587255339129 16.6142723187628825 O
atom 10.7466271234856308 3.6475226412423036 15.0000120592267265 O
atom 2.4373681453417642 3.1208028737417872 15.0000234733546236 O
atom 9.1102642435708585 9.0245436208571643 15.8071503449229667 Os
atom 10.2437120268149311 1.3913770330300776 16.6142932458498613 O
atom 0.8009953038078025 6.7684204033585420 15.8071431546347299 Os
atom 1.9344154535031766 5.3769787254915027 16.6142923954428596 O
atom 10.7466185206089300 8.1598442412222081 15.0000250568680293 O
atom 2.4373185338316987 7.6331561336971419 15.0000000000000000 O
atom 9.1102830771700862 4.5122497308761709 15.8071526494833527 Os
atom 10.2436633323428961 5.9037142729889673 16.6142680193111154 O
atom 3.5707549393970157 9.0245406258588829 15.8071521271638638 Os
atom 4.7042202923420531 1.3913460980463352 16.6143071961522537 O
atom 6.3405441134293383 2.2560796083873678 15.8071627805437380 Os
atom 7.4739413303090085 0.8646563305107678 16.6142880420417107 O
atom 5.2071179875208271 3.6475187962408033 15.0000168462305510 O
atom 7.9769055750919060 3.1207822987619194 15.0000423952651936 O
atom 3.5707687592108339 4.5122497558697132 15.8071544214628013 Os
atom 4.7041686286322344 5.9036935179996366 16.6142826050981327 O
atom 6.3405050979682587 6.7684021383515063 15.8071466318792631 Os
atom 7.4739379369063990 5.3769780005196335 16.6142834497576111 O
atom 5.2071098483342961 8.1598442862244074 15.0000273136618567 O
atom 7.9768408338174517 7.6331273487077951 15.0000058273096144 O
