#===============================================================================
# Created using the Atomic Simulation Environment (ASE)

# Mon Mar 23 14:01:07 2026

#=======================================================
lattice_vector 13.9206623415420374 0.0000000000000000 0.0000000000000000 
lattice_vector -0.0000018384659456 9.8433818399999584 0.0000000000000000 
lattice_vector 0.0000000000000000 0.0000000000000000 40.0816009145544427 
atom 0.0002221729454863 0.0000052000334634 15.6905921398242469 Os
atom 3.4803865845288269 0.0000029150332707 15.6905914963667357 Os
atom 5.9110599456774864 6.6404355120239886 15.6905832108775165 O
atom 1.7402994037615751 5.6637995502593768 15.0000000000000000 O
atom 3.4803842510668836 4.9216898850328512 15.6905895164795481 Os
atom 5.9110602426301950 1.7187425020235061 15.6905798874808795 O
atom 1.7403026776683372 0.7421046202597478 15.0000009828601932 O
atom 12.8713927074774421 6.6404357620247856 15.6905880686883918 O
atom 8.7006332474149630 5.6638016602599430 15.0000023758571999 O
atom 12.8713944327850793 1.7187450020244281 15.6905846745693935 O
atom 8.7006349869012620 0.7421071702601926 15.0000035213641283 O
atom 6.9605526578028263 0.0000039300330602 15.6905896013165389 Os
atom 6.9605516820022872 4.9216903800330432 15.6905896720282669 Os
atom 0.0002738200324856 0.0000071250416175 19.1707587076763701 Os
atom 1.7403276213531094 7.3825456650373633 17.4306755828631772 Os
atom 12.1808227016717385 7.3825481500372980 17.4306762616987072 Os
atom 6.9606642746273488 0.0000070600502061 22.6509231965739843 Os
atom 11.4902627014693657 8.1246466480514332 19.1707696094395850 O
atom 1.7403584623018542 9.1012878598154394 19.8613499989797830 O
atom 0.6908370404060040 5.6638042470280530 17.4306667384371465 O
atom 0.0002987316439254 6.6404451652720144 20.2202495656825505 O
atom 2.4309488145854212 6.6404377220322797 19.1707488453262869 O
atom 12.1808501899757875 5.6638088702681131 18.4801692689800525 O
atom 13.2303711875810599 9.1012855130550054 20.9108491212723209 O
atom 0.0002462284876260 8.1246498348109011 18.1212659051248650 O
atom 0.0002717411505794 4.9217053850416024 19.1707595703549103 Os
atom 1.7403294173606811 2.4608432250368142 17.4306707038209368 Os
atom 12.1808331739369997 2.4608462600385232 17.4306786021474984 Os
atom 0.0002201860037399 4.9216891400337079 15.6905948763369310 Os
atom 11.4902633802606946 3.2029566880510068 19.1707664416029893 O
atom 1.7403563268058653 4.1795879598146968 19.8613464210450132 O
atom 0.6908379030737126 0.7421059670281097 17.4306670637076948 O
atom 0.0003028540654291 1.7187464352722353 20.2202488231959450 O
atom 2.4309470185209312 1.7187454320319189 19.1707478978250201 O
atom 12.1808531880843880 0.7421076002680052 18.4801668506596783 O
atom 13.2303736270752026 4.1795871830548474 20.9108467241692040 O
atom 0.0002530520937123 3.2029589948120027 18.1212698578047124 O
atom 10.4408286862106934 0.0000047750500128 22.6509225531164731 Os
atom 12.1808806207959659 7.3825461450460326 20.9108427941460491 Os
atom 8.7007156717982017 7.3825445000459489 20.9108417264099558 Os
atom 10.4407760774842000 0.0000037500421998 19.1707592238209408 Os
atom 1.0497118162707020 8.1246479880428772 15.6906017829567297 O
atom 5.2204703782483000 9.1012837898066454 16.3811800582447162 O
atom 11.1313926490675019 5.6638038870368739 20.9108332638057561 O
atom 3.4804072110622908 6.6404357052630756 16.7400809260520589 O
atom 12.8715020473593356 6.6404373720407319 22.6509142676272432 O
atom 8.7007415054434336 5.6638014102761209 21.9603310567497303 O
atom 2.7898205215981706 9.1012833130466788 17.4306828433520380 O
atom 10.4407995036941816 8.1246479448194613 21.6014320911010174 O
atom 10.4408263527487470 4.9216917450495936 22.6509205732292713 Os
atom 12.1808830178285792 2.4608449850452763 20.9108359564130666 Os
atom 8.7007253803387776 2.4608414300462740 20.9108378584674455 Os
atom 10.4407725702581349 4.9217003100422438 19.1707615148667827 Os
atom 1.0497137324838204 3.2029475880422988 15.6905965998573436 O
atom 5.2204699822635332 4.1795846598065456 16.3811800723984256 O
atom 11.1313952299948475 0.7421054670369254 20.9108323516257713 O
atom 3.4804143457675654 1.7187443552637376 16.7400813856219983 O
atom 12.8715023443120540 1.7187443620402487 22.6509109442306098 O
atom 8.7007447793501971 0.7421064802764906 21.9603320396099235 O
atom 2.7898222893581370 4.1795841130467473 17.4306826029300765 O
atom 10.4408049837523613 3.2029504748196702 21.6014303162275354 O
atom 10.4407211070039150 0.0000052850338849 15.6905937732235436 Os
atom 5.2205541098864581 7.3825457250469322 20.9108462801453925 Os
atom 1.7403843808172088 7.3825477800459121 20.9108415354916417 Os
atom 3.4804425237399812 0.0000069600415912 19.1707563317727647 Os
atom 8.0100429022093653 8.1246473780432105 15.6906043426840327 O
atom 12.1808030834736805 9.1012847798073384 16.3811841665227504 O
atom 4.1710588902802233 5.6638030170365399 20.9108325708618565 O
atom 10.4407400294326376 6.6404354752639092 16.7400860101367215 O
atom 5.9111724676172646 6.6404376220415289 22.6509191254381221 O
atom 1.7404130075547877 5.6638035202766872 21.9603334326069302 O
atom 9.7501557936056020 9.1012863230473524 17.4306850212078430 O
atom 3.4804716068552231 8.1246479948202293 21.6014355629692218 O
atom 10.4407170977273225 4.9216889950337821 15.6905953218129852 Os
atom 5.2205550432173702 2.4608453050461989 20.9108406232923016 Os
atom 1.7403869051844261 2.4608472000460990 20.9108416556882943 Os
atom 3.4804399286594130 4.9216926100413287 19.1707557024617898 Os
atom 8.0100445073158575 3.2029497780429494 15.6906017475975759 O
atom 12.1808021642574786 4.1795860598076517 16.3811876455038110 O
atom 4.1710623268111364 0.7421079070367510 20.9108322455732321 O
atom 10.4407500137768672 1.7187426352648105 16.7400862787653182 O
atom 5.9111741929249106 1.7187468620411708 22.6509157313191309 O
atom 1.7404147470410829 0.7421090302769353 21.9603345781138586 O
atom 9.7501573704836755 4.1795855630480192 17.4306893981948896 O
atom 3.4804733180349849 3.2029493848200983 21.6014338659076586 O
atom 6.9606136033549184 0.0000052650422646 19.1707575338107397 Os
atom 8.7006621297026658 7.3825499350382611 17.4306799668980545 Os
atom 5.2204902085692479 7.3825461000364712 17.4306709937640036 Os
atom 0.0003324179426419 0.0000057900498029 22.6509206580662692 Os
atom 4.5299369047045248 8.1246484580518477 19.1707689588582824 O
atom 8.7006943141295370 9.1012833998160332 19.8613511727403420 O
atom 7.6511725386507203 5.6638039170281234 17.4306642493868367 O
atom 6.9606320944481839 6.6404371652722443 20.2202497495139184 O
atom 9.3912825309563903 6.6404414420327837 19.1707508393466277 O
atom 5.2205227739292717 5.6638045902682483 18.4801676496761722 O
atom 6.2700459565092537 9.1012843430555943 20.9108493899257155 O
atom 6.9605766355697147 8.1246483048106040 18.1212641797906109 O
atom 6.9606103011683498 4.9216934150419540 19.1707570317842872 Os
atom 8.7006684228886417 2.4608426250377757 17.4306724290991291 Os
atom 5.2205009353985012 2.4608451200378130 17.4306740413174168 Os
atom 0.0003314421421154 4.9216922400497856 22.6509207287780043 Os
atom 4.5299362824257399 3.2029520180513971 19.1707665122818369 O
atom 8.7006950000054850 4.1795853998158243 19.8613496100371520 O
atom 7.6511740589224262 0.7421051670281530 17.4306639029007755 O
atom 6.9606374472500168 1.7187432952728305 20.2202508879208978 O
atom 9.3912884140401491 1.7187438120326057 19.1707458895605001 O
atom 5.2205270165627118 0.7421069702685440 18.4801673950921455 O
atom 6.2700461474236944 4.1795868630555635 20.9108494959984199 O
atom 6.9605869664071056 3.2029498048117087 18.1212657424226116 O
atom 8.7007697230349681 7.3825475250541057 24.3910066396129039 Os
atom 5.2206024618115592 7.3825500100540404 24.3910073184484446 Os
atom 7.6512791420878701 5.6638061070447954 24.3909977951868910 O
atom 6.9606883301694857 8.1246516948276444 25.0815969618745953 O
atom 8.7007715190425419 2.4608450850535566 24.3910017605706742 Os
atom 5.2206129340768221 2.4608481200552652 24.3910096588972252 Os
atom 6.9606622876856061 4.9216910000504512 22.6509259330866684 Os
atom 7.6512800047555718 0.7421078270448525 24.3909981204574393 O
atom 6.9606951537755650 3.2029608548287447 25.0816009145544427 O
atom 8.0101539179525645 8.1246498480596188 22.6509328397064564 O
atom 12.1809124799301571 9.1012856498233887 23.3415111149944465 O
atom 10.4408493127441506 6.6404375652798189 23.7004119828017963 O
atom 9.7502626232800331 9.1012851730634221 24.3910139001017683 O
atom 8.0101558341656798 3.2029494480590412 22.6509276566070668 O
atom 12.1809120839454028 4.1795865198232880 23.3415111291481594 O
atom 10.4408564474494288 1.7187462152804802 23.7004124423717286 O
atom 9.7502643910400018 4.1795859730634906 24.3910136596798139 O
atom 3.4805008671437405 0.0000071450506276 22.6509248299732775 Os
atom 1.0498226623491871 8.1246492380599538 22.6509353994337630 O
atom 5.2205828436135029 9.1012866398240799 23.3415152232724807 O
atom 3.4805197895724662 6.6404373352806525 23.7004170668864518 O
atom 2.7899355537454169 9.1012881830640957 24.3910160779575733 O
atom 3.4804968578671418 4.9216908550505245 22.6509263785627155 Os
atom 1.0498242674556848 3.2029516380596914 22.6509328043473062 O
atom 5.2205819243973028 4.1795879198243941 23.3415187022535378 O
atom 3.4805297739166976 1.7187444952815534 23.7004173355150485 O
atom 2.7899371306234908 4.1795874230647625 24.3910204549446163 O
atom 1.7404418898424976 7.3825517950550044 24.3910110236477777 Os
atom 12.1809323102511087 7.3825479600532127 24.3910020505137339 Os
atom 0.6909522987905461 5.6638057770448667 24.3909953061365741 O
atom 0.0003563957095336 8.1246501648273455 25.0815952365403376 O
atom 1.7404481830284608 2.4608444850545181 24.3910034858488558 Os
atom 12.1809430370803646 2.4608469800545554 24.3910050980671542 Os
atom 0.6909538190622513 0.7421070270448955 24.3909949596505058 O
atom 0.0003667265469304 3.2029516648284511 25.0815967991723454 O
