#===============================================================================
# Created using the Atomic Simulation Environment (ASE)

# Mon Mar 23 14:01:08 2026

#=======================================================
lattice_vector 13.9206623415420374 0.0000000000000000 0.0000000000000000 
lattice_vector -6.9602220783261259 12.0556381450883503 0.0000000000000000 
lattice_vector 0.0000000000000000 0.0000000000000000 37.6677345932049121 
atom 0.0002738200324765 10.0463861226724589 15.9923242859894046 Os
atom 1.7403294598190466 7.0324785214955403 15.9923224759942535 Os
atom -1.7398378014043598 7.0324809424149075 15.9923215955445031 Os
atom 0.0002240114114335 0.0000233094590080 18.8338656829257403 Os
atom -2.4303978016067376 8.6430457084944337 16.9846502577679033 O
atom 1.7403603007677977 9.8391766924868787 16.9846420949821315 O
atom 0.6908388788719464 5.6291274408559486 16.9846318060554893 O
atom 0.0003005701098695 8.0371187005381284 18.6984514950966307 O
atom 2.4309506530513629 7.4311826532938969 17.8415423582952073 O
atom -1.7398103131003144 6.2350622306934440 17.8415440489963331 O
atom -0.6902893154950412 10.4451038235891822 17.8415555792338587 O
atom 0.0002480669535693 8.0371166178145241 16.1277325473380770 O
atom 0.0002735796165257 6.0278502857104810 18.8338624238109560 Os
atom 1.7403312558266237 3.0139239704267693 18.8338668145565862 Os
atom 0.0002220244696807 4.0185615183554244 15.9923302759840240 Os
atom 6.9605249323915599 0.0000160780515701 15.8569137267660523 O
atom 2.4309470185209219 11.4497233157658993 15.0000007044327788 O
atom -1.7398091534576596 10.2535947118506243 15.0000063788246720 O
atom 6.2699333638592876 2.4080005724068330 15.0000162289749923 O
atom 3.4803884229947832 0.0000210722642130 18.8338664767915276 Os
atom -1.7397798822801291 9.0417558701320058 18.8338657810918590 Os
atom -5.2199448312778900 9.0417539105373823 18.8338658590312527 Os
atom -3.4798862640578427 10.0463836649944085 15.9923266559777772 Os
atom 3.4804090495282285 6.0278331951073554 15.8569122083679019 O
atom 5.9110617841434197 5.4219048025054404 15.0000013394932665 O
atom 1.7403012422275237 4.2257764762169074 15.0000041675768117 O
atom 2.7898223600641185 8.4358256094569271 15.0000140292663282 O
atom 3.4803860895328325 4.0185590321270626 15.9923254695546291 Os
atom 5.2204427546126642 1.0046477444639541 15.9923244389780308 Os
atom 1.7402851171228668 1.0046459399729080 15.9923280444795033 Os
atom 1.0497155709497639 2.6152164297311655 16.9846483120888685 O
atom 5.2204718207294825 3.8113458134019047 16.9846450567935889 O
atom -2.7892671115471979 11.6569393853654919 16.9846369502179328 O
atom 3.4804161842335155 2.0092907812347716 18.6984545030673139 O
atom 5.9110620810961425 1.4033588491497166 17.8415415038173606 O
atom 1.7403045161342776 0.2072314414093984 17.8415489564564247 O
atom 2.7898241278240796 4.4172763819472545 17.8415602846282546 O
atom 3.4803647205364512 2.0092892496426291 16.1277370448652704 O
atom 1.7403862192831538 9.0417564784183302 18.8338638094369024 Os
atom 3.4804425237399745 10.0463846162209478 15.9923224413358191 Os
atom -3.4799204736434515 6.0278359426136987 15.8569164922942889 O
atom -1.0492677955986511 5.4219078112906427 15.0000051615396401 O
atom 8.7006350858809078 4.2257795707273305 15.0000048892450835 O
atom -4.1705047094705039 8.4358293244978473 15.0000140696515132 O
atom 10.4407189361932602 4.0185616571594300 15.9923307234293688 Os
atom 12.1807771215434908 1.0046507001694855 15.9923280647148189 Os
atom 8.7006089835105467 1.0046528434843984 15.9923278135827971 Os
atom 3.4804417671253578 6.0278376218394936 18.8338666413458924 Os
atom 8.0100463457817952 2.6152211899099473 16.9846512508012246 O
atom -1.7398583388186186 3.8113513288352499 16.9846504319143463 O
atom 4.1710623268111275 11.6569413163867655 16.9846354548908351 O
atom 10.4407518522428209 2.0092922019217396 18.6984594913432112 O
atom 12.8713962712510224 1.4033636542200461 17.8415439690800532 O
atom 8.7006368253672033 0.2072349890822858 17.8415495568909215 O
atom 9.7501592089496203 4.4172814891187571 17.8415649957774569 O
atom 10.4406953963611056 2.0092904090723218 16.1277405724779044 O
atom 6.9606136033549131 10.0463839262577626 15.9923244014043924 Os
atom 8.7006639681686071 7.0324845390609676 15.9923235902544363 Os
atom 5.2204920470351892 7.0324762271510943 15.9923184778648064 Os
atom 6.9605544962687613 0.0000208068992137 18.8338643434792488 Os
atom 4.5299387431704625 8.6430468107394685 16.9846486815656874 O
atom -5.2199661889465601 9.8391737285854219 16.9846456283370095 O
atom 7.6511743771166643 5.6291257343573085 16.9846299642808489 O
atom 6.9606339329141260 8.0371122747032455 18.6984562639996774 O
atom 9.3912843694223369 7.4311868419094971 17.8415418386605253 O
atom 5.2205246123952129 6.2350578011832596 17.8415451979016382 O
atom 6.2700477949751932 10.4451030233962410 17.8415564740883319 O
atom 6.9605784740356560 8.0371143724520397 16.1277320219558149 O
atom 6.9605535204682276 4.0185595260990405 15.9923253107708803 Os
atom 0.0001971840341012 0.0000147063241171 15.8569172254871305 O
atom -4.5293739275018927 11.4497208335695699 15.0000000000000000 O
atom 5.2205270165627047 10.2535945117868721 15.0000071870823781 O
atom -0.6903941157922251 2.4080019114461306 15.0000186769150439 O
atom 0.0002756584984350 2.0093014664469933 21.6754076283930885 Os
atom -5.2198907800411343 11.0510320103584281 21.6754058183979339 Os
atom 5.2206043002775031 11.0510344312777953 21.6754049379481870 Os
atom 11.4902663784012500 0.6059610522689712 22.6677336001715801 O
atom 1.7403621392337467 1.8020920362614192 22.6677254373858119 O
atom 7.6512809805538096 9.6476809297188364 22.6677151484591661 O
atom 0.0002499054195189 0.0000319615890646 21.8108158897417610 O
atom -1.7398273291391002 3.0139310085986941 18.8338715112504964 Os
atom 6.9606641261515376 8.0371150072183113 21.6754136183877009 Os
atom -2.4303971228154051 4.6245023352651069 19.8261887881865420 O
atom 1.7403581652718056 5.8206249665138028 19.8261860294232193 O
atom 0.6908397415396560 1.6105792911258008 19.8261779921406145 O
atom 0.0003046925313835 4.0185695669144605 21.5399970691697362 O
atom 2.4309488569868658 3.4126386595404385 20.6830840468364698 O
atom 12.1808550265503364 2.2165100556251600 20.6830897212283489 O
atom -0.6902868760008908 6.4265540612697256 20.6830995713786763 O
atom 0.0002548905596530 4.0185766371048279 18.9692773996996316 O
atom 10.4407779159501466 2.0092990087689464 21.6754099983814541 Os
atom -5.9105065851235290 10.6523229795580363 19.8261887419871492 O
atom -1.7397480231459375 11.8484483256404278 19.8261819763896980 O
atom -2.7892678540086036 7.6384037076225892 19.8261750360811426 O
atom -3.4798111903319411 10.0463866839702458 21.5399955507715788 O
atom -1.0491584557167646 9.4404582913683281 20.6830846818969434 O
atom 8.7007433439093731 8.2443299650797979 20.6830875099804956 O
atom 2.7898241985300647 0.3987409532314726 20.6830973716700157 O
atom -3.4798609993819123 10.0463914393931741 18.9692763835977729 O
atom -3.4798341503273469 8.0371125209899574 21.6754088119583130 Os
atom -1.7397774852475163 5.0232012333268417 21.6754077813817219 Os
atom 8.7007272188047260 5.0231994288358006 21.6754113868831837 Os
atom -3.4798879328179591 6.0278472646576589 18.8338669415520634 Os
atom 8.0101576726316335 6.6337699185940533 22.6677316544925560 O
atom -1.7397484191306882 7.8298993022647947 22.6677283991972729 O
atom 11.1313970684607906 3.6198547291400294 22.6677202926216097 O
atom -3.4798555193237299 6.0278427385055169 21.8108203872689543 O
atom 10.4407229454698562 0.0000243219057547 18.8338669675151351 Os
atom 5.2205559483523976 9.0417575398484491 18.8338688698841352 Os
atom 3.4804443622059256 2.0092999599954866 21.6754057837394924 Os
atom 1.0498245008151270 10.6523239593559200 19.8261911841786969 O
atom 5.2205846820794424 11.8484515058894893 19.8261847592058515 O
atom 4.1710607287461610 7.6384025971989056 19.8261749725903229 O
atom 3.4805216280384035 10.0463894314765891 21.5399998346979729 O
atom 5.9111743060832058 9.4404613001535296 20.6830885039433241 O
atom 1.7404148460207280 8.2443330595902200 20.6830882316487674 O
atom 9.7501594705374917 0.3987446682723839 20.6830974120551900 O
atom 3.4804734453211639 10.0463934847041312 18.9692791894972679 O
atom 3.4804986963330879 8.0371151460223142 21.6754140658330527 Os
atom 5.2205568816833132 5.0232041890323780 21.6754114071185029 Os
atom 1.7403887436503696 5.0232063323472884 21.6754111559864810 Os
atom 1.0498261059216212 6.6337746787728342 22.6677345932049121 O
atom 5.2205837628632388 7.8299048176981456 22.6677337743180374 O
atom 4.1710641652770732 3.6198566601613016 22.6677187972945120 O
atom 3.4804751565009240 6.0278438979352122 21.8108239148815812 O
atom 6.9606154418208623 2.0092992700323036 21.6754077438080728 Os
atom 1.7404437283084293 11.0510380279238607 21.6754069326581202 Os
atom -1.7397281928249904 11.0510297160139839 21.6754018202684904 Os
atom 4.5299405816364109 0.6059621545140075 22.6677320239693785 O
atom 8.7006979910614319 1.8020890723599645 22.6677289707406899 O
atom 0.6909541372564764 9.6476792232201962 22.6677133066845329 O
atom 6.9605803125016017 0.0000297162265795 21.8108153643594918 O
atom 6.9606121396342928 6.0278390466047780 18.8338672619650964 Os
atom 8.7006702613545759 3.0139244766203435 18.8338685696496739 Os
atom 5.2205027738644487 3.0139274445939441 18.8338684455299017 Os
atom 0.0003332806080440 8.0371130149619336 21.6754086531745571 Os
atom 4.5299381208916740 4.6244985630342761 19.8261915421230697 O
atom 8.7006968384714174 5.8206247174510732 19.8261901112405710 O
atom 7.6511758973883746 1.6105768130347378 19.8261758732340425 O
atom 6.9606392857159678 4.0185681951870098 21.5400005678908144 O
atom 9.3912902525060957 3.4126361773441087 20.6830833424036769 O
atom 5.2205288550286530 2.2165098555614109 20.6830905294860585 O
atom 6.2700479858896445 6.4265554003090184 20.6831020193187243 O
atom 6.9605888048730513 4.0185667574850639 18.9692793453585011 O
