#===============================================================================
# Created using the Atomic Simulation Environment (ASE)

# Mon Mar 23 14:01:11 2026

#=======================================================
lattice_vector 9.0245853000181313 0.0000000000000000 0.0000000000000000 
lattice_vector 0.0000000000000000 6.4266484300000002 0.0000000000000000 
lattice_vector 0.0000000000000000 0.0000000000000000 43.0101889823697547 
atom 2.2560591975327422 1.6066622699999999 15.8647586982458435 Os
atom 1.3913453508479134 6.4266479600000004 15.0000563049042412 O
atom 0.8646162284115427 1.6066532899999999 17.2561703590674789 O
atom 3.1207587342068059 0.0000003000000000 16.7294664615587685 O
atom 9.0244776900883696 3.2133235400000006 22.6331767057183804 Os
atom 2.2560595975300757 4.8199864600000000 15.8647600282466499 Os
atom 1.3913435808606425 3.2133245399999999 15.0000499549006925 O
atom 0.8646163684087563 4.8199939800000005 17.2561717490677573 O
atom 3.1207575141923729 3.2133240400000003 16.7294736615563160 O
atom 4.5121898100800157 6.4266478700000009 22.6331763507279469 Os
atom 6.7683816075905501 1.6066607200000003 15.8647343833054997 Os
atom 5.9036857709698438 0.0000013400000000 15.0000000000000000 O
atom 5.3769362284013358 1.6066710900000003 17.2561799741223005 O
atom 7.6331119943001111 0.0000014100000000 16.7294244366802580 O
atom 6.7683810075884425 4.8199889999999996 15.8647354333042969 Os
atom 5.9036808209544871 3.2133236900000002 15.0000076599900751 O
atom 5.3769347583990887 4.8199787900000004 17.2561810941193521 O
atom 7.6331054843118986 3.2133235600000001 16.7294185566672091 O
atom 9.0244927850717520 6.4266478600000001 18.1208923457395805 Os
atom 2.2560220125298764 1.6066617200000000 20.3770527781803672 Os
atom 1.3912945558226968 0.0000001500000000 19.5123615348114861 O
atom 0.8645950734082352 1.6066553200000000 21.7684646590341337 O
atom 3.6474645317242396 1.6066662599999999 18.9856046173578328 O
atom 3.1207203191615043 6.4266482800000002 21.2417817114908267 O
atom 9.0244963450733966 3.2133230799999999 18.1208915257467176 Os
atom 2.2560227225327618 4.8199879000000001 20.3770513381817899 Os
atom 1.3913038858252624 3.2133246000000000 19.5123602548301811 O
atom 0.8645957434088768 4.8199920399999998 21.7684643390354857 O
atom 3.6474656117278879 4.8199836899999999 18.9856027973599986 O
atom 3.1207200691534256 3.2133249599999996 21.2417857414903217 O
atom 4.5122019150615129 0.0000018300000000 18.1208929307431497 Os
atom 6.7683457425979840 1.6066606200000000 20.3770233232426712 Os
atom 5.9036419759206504 0.0000015400000000 19.5123171899212728 O
atom 5.3769180134045831 1.6066654100000000 21.7684710040948595 O
atom 8.1597902617136686 1.6066589100000002 18.9856144124241446 O
atom 7.6330585492735104 0.0000005300000000 21.2417303565821918 O
atom 4.5122006150612535 3.2133238700000000 18.1208930607405385 Os
atom 6.7683452526002501 4.8199888299999998 20.3770221932416895 Os
atom 5.9036436159214141 3.2133234499999999 19.5123168099245596 O
atom 5.3769174134047608 4.8199817200000012 21.7684709140936512 O
atom 8.1597911017140117 4.8199883899999998 18.9856142424258358 O
atom 7.6330651192866616 3.2133241799999999 21.2417237965953625 O
atom 9.0244715300768625 6.4266474999999996 22.6331824457060371 Os
atom 2.2560230175542504 1.6066622699999999 24.8893332681914465 Os
atom 1.3913091708694223 6.4266479600000004 24.0246308748498443 O
atom 0.8645800484330514 1.6066532899999999 26.2807449290130855 O
atom 3.6474513667482742 1.6066570200000003 23.4978852773405116 O
atom 3.1207225542283146 0.0000003000000000 25.7540410315043680 O
atom 2.2560234175515839 4.8199864600000000 24.8893345981922529 Os
atom 1.3913074008821509 3.2133245399999999 24.0246245248462991 O
atom 0.8645801884302650 4.8199939800000005 26.2807463190133568 O
atom 3.6474514767483739 4.8199900800000002 23.4978852273407277 O
atom 3.1207213342138815 3.2133240400000003 25.7540482315019226 O
atom 6.7683454276120578 1.6066607200000003 24.8893089532511063 Os
atom 5.9036495909913524 0.0000013400000000 24.0245745699456101 O
atom 5.3769000484228462 1.6066710900000003 26.2807545440679071 O
atom 8.1597729667322128 1.6066640500000000 23.4978978123985449 O
atom 7.6330758143216215 0.0000014100000000 25.7539990066258717 O
atom 4.5121838000699324 3.2133230400000006 22.6331813807159001 Os
atom 6.7683448276099529 4.8199889999999996 24.8893100032498999 Os
atom 5.9036446409759966 3.2133236900000002 24.0245822299356853 O
atom 5.3768985784205992 4.8199787900000004 26.2807556640649658 O
atom 8.1597729667309089 4.8199832400000000 23.4978984623985419 O
atom 7.6330693043334090 3.2133235600000001 25.7539931266128157 O
atom 9.0244566050932615 6.4266478600000001 27.1454669156851871 Os
atom 3.6474283517457486 1.6066662599999999 28.0101791873034465 O
atom 9.0244601650949061 3.2133230799999999 27.1454660956923171 Os
atom 3.6474294317493969 4.8199836899999999 28.0101773673056051 O
atom 4.5121657350830215 0.0000018300000000 27.1454675006887491 Os
atom 8.1597540817351781 1.6066589100000002 28.0101889823697512 O
atom 4.5121644350827630 3.2133238700000000 27.1454676306861522 Os
atom 8.1597549217355212 4.8199883899999998 28.0101888123714353 O
