#===============================================================================
# Created using the Atomic Simulation Environment (ASE)

# Mon Mar 23 14:01:07 2026

#=======================================================
lattice_vector 13.9206623415420374 0.0000000000000000 0.0000000000000000 
lattice_vector -0.0000018384659456 9.8433818399999584 0.0000000000000000 
lattice_vector 0.0000000000000000 0.0000000000000000 33.1212698578047124 
atom 6.9606642746273488 0.0000070600502061 15.6905921398242540 Os
atom 10.4408286862106934 0.0000047750500128 15.6905914963667428 Os
atom 12.8715020473593356 6.6404373720407319 15.6905832108775130 O
atom 8.7007415054434336 5.6638014102761209 15.0000000000000000 O
atom 10.4408263527487470 4.9216917450495936 15.6905895164795410 Os
atom 12.8715023443120540 1.7187443620402487 15.6905798874808795 O
atom 8.7007447793501971 0.7421064802764906 15.0000009828601932 O
atom 5.9111724676172646 6.6404376220415289 15.6905880686883918 O
atom 1.7404130075547877 5.6638035202766872 15.0000023758571999 O
atom 5.9111741929249106 1.7187468620411708 15.6905846745694006 O
atom 1.7404147470410829 0.7421090302769353 15.0000035213641283 O
atom 0.0003324179426419 0.0000057900498029 15.6905896013165389 Os
atom 0.0003314421421154 4.9216922400497856 15.6905896720282740 Os
atom 8.7007697230349681 7.3825475250541057 17.4306755828631736 Os
atom 5.2206024618115592 7.3825500100540404 17.4306762616987143 Os
atom 7.6512791420878701 5.6638061070447954 17.4306667384371607 O
atom 6.9606883301694857 8.1246516948276444 18.1212659051248650 O
atom 8.7007715190425419 2.4608450850535566 17.4306707038209439 Os
atom 5.2206129340768221 2.4608481200552652 17.4306786021474949 Os
atom 6.9606622876856061 4.9216910000504512 15.6905948763369381 Os
atom 7.6512800047555718 0.7421078270448525 17.4306670637077090 O
atom 6.9606951537755650 3.2029608548287447 18.1212698578047124 O
atom 8.0101539179525645 8.1246498480596188 15.6906017829567261 O
atom 12.1809124799301571 9.1012856498233887 16.3811800582447162 O
atom 10.4408493127441506 6.6404375652798189 16.7400809260520660 O
atom 9.7502626232800331 9.1012851730634221 17.4306828433520380 O
atom 8.0101558341656798 3.2029494480590412 15.6905965998573365 O
atom 12.1809120839454028 4.1795865198232880 16.3811800723984291 O
atom 10.4408564474494288 1.7187462152804802 16.7400813856219983 O
atom 9.7502643910400018 4.1795859730634906 17.4306826029300836 O
atom 3.4805008671437405 0.0000071450506276 15.6905937732235472 Os
atom 1.0498226623491871 8.1246492380599538 15.6906043426840327 O
atom 5.2205828436135029 9.1012866398240799 16.3811841665227504 O
atom 3.4805197895724662 6.6404373352806525 16.7400860101367215 O
atom 2.7899355537454169 9.1012881830640957 17.4306850212078430 O
atom 3.4804968578671418 4.9216908550505245 15.6905953218129852 Os
atom 1.0498242674556848 3.2029516380596914 15.6906017475975759 O
atom 5.2205819243973028 4.1795879198243941 16.3811876455038075 O
atom 3.4805297739166976 1.7187444952815534 16.7400862787653182 O
atom 2.7899371306234908 4.1795874230647625 17.4306893981948861 O
atom 1.7404418898424976 7.3825517950550044 17.4306799668980474 Os
atom 12.1809323102511087 7.3825479600532127 17.4306709937640036 Os
atom 0.6909522987905461 5.6638057770448667 17.4306642493868438 O
atom 0.0003563957095336 8.1246501648273455 18.1212641797906073 O
atom 1.7404481830284608 2.4608444850545181 17.4306724290991255 Os
atom 12.1809430370803646 2.4608469800545554 17.4306740413174239 Os
atom 0.6909538190622513 0.7421070270448955 17.4306639029007755 O
atom 0.0003667265469304 3.2029516648284511 18.1212657424226151 O
