#===============================================================================
# Created using the Atomic Simulation Environment (ASE)

# Mon Mar 23 14:01:09 2026

#=======================================================
lattice_vector 22.0103944943716279 0.0000000000000000 0.0000000000000000 
lattice_vector -8.8041042034015895 10.7828962547440934 0.0000000000000000 
lattice_vector 0.0000000000000000 0.0000000000000000 32.4237225958502506 
atom -5.5023915202107831 6.7393824334273411 17.2165008116526117 Os
atom -3.3013652412837344 4.0436606418733518 17.2164994623853751 Os
atom 15.4074542318517622 3.5943709321057646 16.2118575849263387 Os
atom 14.2020633227218358 4.8565967291035008 17.2165102348838985 O
atom 2.9698560238512601 2.4248141428401482 15.4144317415124341 O
atom 5.6076547898485716 2.3321345074655584 15.2072126712581088 O
atom 16.8398590342223322 4.7639250977698415 17.0092830241579698 O
atom 3.3017100222726561 0.4493571413039846 15.2072162932918360 Os
atom -3.3013641545801335 8.5365124269000159 15.2072182590233673 Os
atom 17.6084839319838444 0.8986360134805755 16.2118653641013530 Os
atom 14.2020628084072307 9.3494604252648568 15.2072250959900366 O
atom 4.7341146163360364 0.2640108985889142 16.6105718026422338 O
atom -4.2969974019685315 6.8320371113720757 15.6059268444484296 O
atom -5.8342436179694861 8.7148393162876268 17.4237171457611062 O
atom -3.1964504019069149 8.6221647163123531 17.2164935603015756 O
atom 15.0756014926792510 6.9247114721762495 15.8131483519387253 O
atom 2.0963207652248621 0.3566835194614363 16.8177953227903778 O
atom -5.1705323966995191 9.2567915416831408 15.0000061849244197 O
atom -1.1003376654362964 5.8407950792072700 15.2072195225336024 Os
atom 1.1006857781727906 3.1450769336696616 15.2072193939369313 Os
atom 13.2064348131955303 6.2900882378050316 16.2118632575130981 Os
atom 18.6041161310094125 3.9580140341718524 15.2072257695884936 O
atom 0.3320673803231348 5.6554646601842684 16.6105700961226539 O
atom 0.1050577542113444 1.4405952298532338 15.6059259421872021 O
atom -1.4321953623296282 3.3233889888988473 17.4237139900295510 O
atom 1.2056049689378689 3.2307174780725840 17.2164953279953892 O
atom 19.4776534020686434 1.5332645388348896 15.8131462208809985 O
atom -2.3057318239295190 5.7481378945208439 16.8177942531681701 O
atom -0.7684838548482981 3.8653388645640780 15.0000031149287949 O
atom -1.1003370930180285 1.3479264462311280 17.2165009463791883 Os
atom -7.7034135729991702 9.4350973054041827 17.2165000135251169 Os
atom 11.0054146431897308 8.9858037980864900 16.2118644393771447 Os
atom 9.8000158004486178 10.2480356784531779 17.2165073730578548 O
atom -1.4321908991217462 7.8162536545297447 15.4144344236933328 O
atom 1.2056041415724348 7.7235782804362074 15.2072111893184179 O
atom 12.4378126121399930 10.1553649636562984 17.0092875026275827 O
atom 5.5028112277180661 6.7393826068652443 17.2165034284914178 Os
atom 7.7038355299875807 4.0436625516054878 17.2165058636934099 Os
atom 4.4022598826146684 3.5943700301848041 16.2118587525015165 Os
atom 3.1968671801574868 4.8565985073731124 17.2165101450586384 O
atom 13.9750526538954141 2.4248069110904984 15.4144370283482708 O
atom 16.6128530030499029 2.3321357435027110 15.2072179580649127 O
atom 5.8346645866277180 4.7639247271511627 17.0092889804849356 O
atom 14.3069107219653979 0.4493440489205563 15.2072248869285573 Os
atom 7.7038360442510658 8.5365157680111245 15.2072229130287475 Os
atom 6.6032869307340754 0.8986363421007174 16.2118598772421159 Os
atom 3.1968673635024283 9.3494555706216129 15.2072288886173688 O
atom 15.7393140415022330 0.2640132154675232 16.6105793592998943 O
atom 6.7082031546024652 6.8320383346115063 15.6059271057050317 O
atom 5.1709582534351872 8.7148386097267316 17.4237225958502506 O
atom 7.8087519256515883 8.6221668560774791 17.2164971201918249 O
atom 4.0704062535014804 6.9247131482081610 15.8131508748974525 O
atom 13.1015199667934965 0.3566866853133898 16.8178040919447973 O
atom 5.8346645866208622 9.2567812299002092 15.0000089447084370 O
atom 9.9048650824916766 5.8407973431171971 15.2072211064993681 Os
atom 12.1058845995713575 3.1450826190285790 15.2072205451746143 Os
atom 2.2012366134150514 6.2900873596146569 16.2118585749128528 Os
atom 7.5989221932223803 3.9580147735955586 15.2072285497381792 O
atom 11.3372655980022561 5.6554659911621341 16.6105763055703441 O
atom 11.1102569959504649 1.4405948774727881 15.6059228027469459 O
atom 9.5730044787226483 3.3233912436923188 17.4237177336458764 O
atom 12.2108030077068914 3.2307230538867695 17.2164955484318227 O
atom 8.4724576843703083 1.5332694117380408 15.8131470496046838 O
atom 8.6994692603639425 5.7481389461435217 16.8177963597043458 O
atom 10.2367124218657572 3.8653388846423944 15.0000000000000000 O
atom 9.9048642685546273 1.3479302346401583 17.2165030488248796 Os
atom 3.3017891659949141 9.4350976084734217 17.2165041939546306 Os
atom 0.0002136349404792 8.9858082401225516 16.2118630554271981 Os
atom -1.2051814109310020 10.2480407649764285 17.2165101736290609 O
atom 9.5730070368014530 7.8162536417591282 15.4144392695965244 O
atom 12.2108079941202377 7.7235797300642108 15.2072134999615365 O
atom 1.4326179409163549 10.1553659623344110 17.0092890988609291 O
