#===============================================================================
# Created using the Atomic Simulation Environment (ASE)

# Mon Mar 23 14:01:10 2026

#=======================================================
lattice_vector 9.0245745700181317 0.0000000000000000 0.0000000000000000 
lattice_vector -0.0000361800215085 9.0245852999456080 0.0000000000000000 
lattice_vector 0.0000000000000000 0.0000000000000000 31.6066709400000043 
atom 9.0245717200162670 0.0000009299942871 15.0000005000000023 Os
atom 2.2561459975098246 2.2561410025092536 16.6066634200000003 Os
atom 1.3914393908613145 1.3914215191801012 15.0000014999999998 O
atom 3.6475632966864375 0.8647033516394799 16.6066709400000043 O
atom 0.8646910483636203 3.6475634833035566 16.6066670400000014 O
atom 3.1208561641946164 3.1208423858455423 15.0000010000000010 O
atom -0.0000162650101328 4.5122923399764625 15.0000000000000000 Os
atom 2.2561033124414203 6.7684624124327568 16.6066659600000044 Os
atom 1.3913790057611781 5.9037587590681229 15.0000006500000005 O
atom 3.6475545516240859 5.3770217416310162 16.6066557500000052 O
atom 0.8646861932950555 8.1598849733028906 16.6066601999999968 O
atom 3.1207829690729714 7.6331903557078871 15.0000005200000004 O
atom 4.5122865400060688 0.0000014949985066 15.0000000399999998 Os
atom 6.7684373075565443 2.2561222175173219 16.6066648599999986 Os
atom 5.9037496909136866 1.3913999142262352 15.0000015600000012 O
atom 8.1598558867005853 0.8647008166501141 16.6066690000000001 O
atom 5.3769831883806125 3.6475595283132889 16.6066606499999985 O
atom 7.6331682442424782 3.1208230308952452 15.0000019200000025 O
atom 4.5122699850014882 4.5122910649743870 15.0000008300000012 Os
atom 6.7683900724858947 6.7684447474317047 16.6066657899999974 Os
atom 5.9036881558085597 5.9037396441119521 15.0000004099999984 O
atom 8.1598443716316584 5.3770224866360978 16.6066586799999989 O
atom 5.3769765433040311 8.1598850183090352 16.6066653500000037 O
atom 7.6330882091266865 7.6331680807438786 15.0000011400000020 O
