#===============================================================================
# Created using the Atomic Simulation Environment (ASE)

# Mon Mar 23 14:01:08 2026

#=======================================================
lattice_vector 22.0103944943716279 0.0000000000000000 0.0000000000000000 
lattice_vector -0.0000025759486765 9.8433818399997932 0.0000000000000000 
lattice_vector 0.0000000000000000 0.0000000000000000 36.3761886498064229 
atom 3.3017101072421373 0.0000048290369610 17.9697061075256848 Os
atom 5.5027338102205068 7.3825436200333998 16.8691755692702685 Os
atom 2.2011587889843613 7.3825458910297685 15.7686454491725492 Os
atom 17.6084845222912811 0.0000040480409055 19.0702365630197619 Os
atom 0.9957678798544392 8.1246442025781125 17.2010668277027641 O
atom 4.5071030940319892 5.6638021374892356 16.5372874334181610 O
atom 2.9698534479025840 6.6404427824181003 18.9653482986492641 O
atom 5.6076522138998977 6.6404355754962143 18.7383477307242181 O
atom 1.8693046008480889 5.6638065244113500 16.7642900003865130 O
atom 10.9004163284743409 9.1012821745708283 15.0000026867466687 O
atom 3.6335635913549433 8.1246476256554256 16.9740620962375992 O
atom 3.3017074463239751 4.9217030890367210 17.9697065592194605 Os
atom 5.5027374728727816 2.4608411800333903 16.8691712178679545 Os
atom 2.2011683996385947 2.4608440010314698 15.7686506904638541 Os
atom 0.9957699414885147 3.2029542425780186 17.2010637463960627 O
atom 4.5071042254843867 0.7421038574893435 16.5372877241087117 O
atom 2.9698580094834286 1.7187440524186608 18.9653486072065185 O
atom 5.6076512255460038 1.7187432854958478 18.7383459731894426 O
atom 1.8693086257605434 0.7421052544116516 16.7642883635682978 O
atom 10.9004198167290962 4.1795838445710451 15.0000008934068347 O
atom 3.6335692307533924 3.2029567856566423 16.9740677132125874 O
atom 7.7037639620166178 0.0000011210304720 15.7686448789465707 Os
atom 19.8095054212457171 7.3825417390370580 17.9697068342389521 Os
atom 0.0001419462768180 0.0000012400344329 16.8691781027050673 Os
atom 5.3978206881420228 8.1246460445713939 15.0000046018434681 O
atom 9.1361664318273714 9.1012820456558199 16.9740603376197861 O
atom 0.1050551782626636 5.6638012754966223 18.7383499186300320 O
atom 7.3719036891746175 6.6404338244108763 16.7642843599793245 O
atom 10.0097040204421077 6.6404338674895529 16.5372874815557509 O
atom 19.4776508261199695 5.6637985624181955 18.9653473739499354 O
atom 6.4983672275747209 9.1012813325778446 17.2010629358981255 O
atom 7.7037619584862060 4.9216880910300498 15.7686425534408201 Os
atom 1.1006880544537463 2.4608424380404017 19.0702318605691943 Os
atom 19.8095162706426429 2.4608386690383242 17.9697059442240743 Os
atom 0.0001374786217239 4.9216978000340452 16.8691794577820069 Os
atom 5.3978245609828273 3.2029456445713853 15.0000000000000000 O
atom 9.1361664676021466 4.1795829156557174 16.9740599351363386 O
atom 0.1050583311165125 0.7421028554969342 18.7383495787365284 O
atom 7.3719107283311676 1.7187424744119635 16.7642867614796849 O
atom 10.0097057690253468 1.7187408574893894 16.5372841319231831 O
atom 19.4776540371239975 0.7421036324187118 18.9653490509890368 O
atom 6.4983693965611851 4.1795821325780667 17.2010629761425342 O
atom 14.3069128551709834 0.0000039190379194 17.9697085671654548 Os
atom 16.5079345814918170 7.3825427500345047 16.8691821924812153 Os
atom 13.2063589341189029 7.3825445910302152 15.7686461468073915 Os
atom 6.6032870336005232 0.0000048780407295 19.0702350737999460 Os
atom 12.0009662316617263 8.1246458625783209 17.2010674716831318 O
atom 15.5123010030976616 5.6637999774893757 16.5372879745425969 O
atom 13.9750500779467348 6.6404340224182032 18.9653501724790168 O
atom 16.6128504271012254 6.6404345454968592 18.7383530615042133 O
atom 12.8745061770623526 5.6638002444119184 16.7642900048316399 O
atom 21.9056184905573943 9.1012839145717752 15.0000058306267228 O
atom 14.6387636381319517 8.1246448556563031 16.9740673822847050 O
atom 14.3069081460167222 4.9216876290374154 17.9697090591229376 Os
atom 16.5079376717039779 2.4608423300343221 16.8691768303796330 Os
atom 13.2063617068476091 2.4608440110305732 15.7686467684257572 Os
atom 6.6032843547853979 4.9216905280403340 19.0702339468310704 Os
atom 12.0009689909553430 3.2029482625783983 17.2010652266621484 O
atom 15.5123047820553825 0.7421048674898493 16.5372884619899345 O
atom 13.9750598808881019 1.7187411824197214 18.9653532939757774 O
atom 16.6128535531045003 1.7187437854969139 18.7383500964663305 O
atom 12.8745078809543916 0.7421057544122039 16.7642913509422549 O
atom 21.9056190182977275 4.1795831545722049 15.0000101909650816 O
atom 14.6387662140737760 3.2029462456564435 16.9740660227479054 O
atom 18.7089667099445940 0.0000025410314221 15.7686472491433882 Os
atom 8.8043056338459529 7.3825442690361092 17.9697005017103990 Os
atom 11.0053382408679656 0.0000023500338574 16.8691734695781896 Os
atom 16.4030212447266202 8.1246455845721002 15.0000074416287283 O
atom 20.1413646495064960 9.1012807256565473 16.9740665494105656 O
atom 11.1102544200017874 5.6638022354965907 18.7383469088697190 O
atom 18.3771035302268899 6.6404343544116369 16.7642886979345995 O
atom 21.0149020592111349 6.6404388674898982 16.5372899591135329 O
atom 8.4724551084216362 5.6638026724186643 18.9653501198312533 O
atom 17.5035683118681789 9.1012814325785758 17.2010652882171478 O
atom 18.7089633200588672 4.9216906910309248 15.7686460193196858 Os
atom 12.1058907934478341 2.4608410080415037 19.0702358004860706 Os
atom 8.8043152623933914 2.4608432890378835 17.9697064943203451 Os
atom 11.0053368768682116 4.9216888000337482 16.8691735187726053 Os
atom 16.4030218439748268 3.2029491445718414 15.0000046331322814 O
atom 20.1413662102721176 4.1795827256565374 16.9740649931062002 O
atom 11.1102563877409288 0.7421034854967675 18.7383467702299278 O
atom 18.3771086642543686 1.7187404844124829 16.7642911799458041 O
atom 21.0149096215731461 1.7187412374905167 16.5372868330511231 O
atom 8.4724596297563117 0.7421050524192657 18.9653509292678812 O
atom 17.5035688753565175 4.1795839525785716 17.2010651585304686 O
atom 18.7090266771392137 7.3825444760470260 21.2712965058641075 Os
atom 15.4074516559030741 7.3825467470433939 20.1707663857663881 Os
atom 4.7341125189333706 9.1012856136625775 19.1751244238941645 O
atom 17.7133959609507023 5.6638029935028609 20.9394083700119999 O
atom 15.0755974677668014 5.6638073804249744 21.1664109369803519 O
atom 2.0963147010214271 9.1012830305844528 19.4021236233405112 O
atom 16.8398564582736618 8.1246484816690501 21.3761830328314382 O
atom 18.7090303397914930 2.4608420360470160 21.2712921544617934 Os
atom 15.4074612665573092 2.4608448570450956 20.1707716270576931 Os
atom 17.6084813560351634 4.9216879880407758 19.0702388214610856 Os
atom 4.7341120403873616 4.1795857136620249 19.1751200635737469 O
atom 17.7133970924030990 0.7421047135029690 20.9394086607025542 O
atom 15.0756014926792563 0.7421061104252773 21.1664093001621403 O
atom 2.0963181892761846 4.1795847005846705 19.4021218300006772 O
atom 16.8398620976721105 3.2029576416702676 21.3761886498064264 O
atom 20.9100568289353248 0.0000019770440968 20.1707658155404097 Os
atom 1.1006832022241149 7.3825435980404173 19.0702378800859300 Os
atom 13.2064348131955285 0.0000020960480577 21.2712990392989099 Os
atom 18.6041135550607386 8.1246469005850184 19.4021255384373106 O
atom 0.3320648043744543 9.1012829016694443 21.3761812742136321 O
atom 20.5781965560933280 6.6404346804245025 21.1664052965731670 O
atom 1.2056023929891957 6.6404347235031782 20.9394084181495934 O
atom 21.2419080635746553 8.1246452336624326 19.1751235215668352 O
atom 20.9100548254049201 4.9216889470436742 20.1707634900346626 Os
atom 13.2064303455404382 4.9216986560476705 21.2713003943758459 Os
atom 18.6041174279015387 3.2029465005850111 19.4021209365938425 O
atom 0.3320648401492375 4.1795837716693427 21.3761808717301811 O
atom 20.5782035952498816 1.7187433304255892 21.1664076980735274 O
atom 1.2056041415724350 1.7187417135030154 20.9394050685170221 O
atom 21.2419142395929086 3.2029477636631527 19.1751232800409461 O
atom 7.7038329540389014 7.3825436060481291 21.2713031290750614 Os
atom 4.4022573066659891 7.3825454470438396 20.1707670834012340 Os
atom 15.7393130218393171 9.1012834636630764 19.1751251886088490 O
atom 6.7081993756447460 5.6638008335029992 20.9394089111364359 O
atom 4.0704045496094361 5.6638011004255420 21.1664109414254860 O
atom 13.1015168631044823 9.1012847705853996 19.4021267672205617 O
atom 5.8346620106790379 8.1246457116699276 21.3761883188785440 O
atom 7.7038360442510632 2.4608431860479478 21.2712977669734755 Os
atom 4.4022600793946935 2.4608448670441989 20.1707677050195961 Os
atom 15.7393114655535573 4.1795847436630726 19.1751279076864201 O
atom 6.7082031546024687 0.7421057235034748 20.9394093985837735 O
atom 4.0704062535014778 0.7421066104258295 21.1664122875360974 O
atom 13.1015173908448137 4.1795840105858293 19.4021311275589277 O
atom 5.8346645866208657 3.2029471016700688 21.3761869593417444 O
atom 9.9048650824916784 0.0000033970450477 20.1707681857372343 Os
atom 12.1058820236226765 7.3825483180409526 19.0702412520659408 Os
atom 2.2012366134150536 0.0000032060474830 21.2712944061720286 Os
atom 7.5989196172737028 8.1246464405857246 19.4021283782225709 O
atom 11.3372630220535786 9.1012815816701735 21.3761874860044081 O
atom 9.5730019027739761 6.6404352104252613 21.1664096345284385 O
atom 12.2108004317582193 6.6404397235035235 20.9394108957073719 O
atom 10.2367098459170798 8.1246465236620296 19.1751206862387100 O
atom 9.9048616926059516 4.9216915470445501 20.1707669559135248 Os
atom 2.2012352494152974 4.9216896560473735 21.2712944553664478 Os
atom 7.5989202165219112 3.2029500005854676 19.4021255697261203 O
atom 11.3372645828192091 4.1795835816701619 21.3761859297000427 O
atom 9.5730070368014548 1.7187413404261085 21.1664121165396431 O
atom 12.2108079941202359 1.7187420935041422 20.9394077696449621 O
atom 10.2367195683692636 3.2029480236636703 19.1751251449051807 O
