#===============================================================================
# Created using the Atomic Simulation Environment (ASE)

# Mon Mar 23 14:01:09 2026

#=======================================================
lattice_vector 22.0103944943716279 0.0000000000000000 0.0000000000000000 
lattice_vector -8.8041042034015895 10.7828962547440934 0.0000000000000000 
lattice_vector 0.0000000000000000 0.0000000000000000 36.4422864641325077 
atom 3.3017101072421329 4.9422143341848397 17.2165008116526153 Os
atom 5.5027363861691763 2.2464925426308500 17.2164994623853786 Os
atom 2.2011613649330486 1.7972028328632630 16.2118575849263387 Os
atom -4.4019099720803441 5.3915055410547099 18.2211423869918150 Os
atom 0.9957704558031200 3.0594286298609972 17.2165102348839021 O
atom 4.5071056699806613 0.5420115344275906 17.6152055085044594 O
atom 11.7739576513041744 0.6276460435976468 15.4144317415124341 O
atom 14.4117564173014863 0.5349664082230569 15.2072126712581088 O
atom 1.8693071767967568 0.6346894116190263 17.8224275548913127 O
atom 3.6335661673036181 2.9667569985273397 17.0092830241579733 O
atom 3.3017074463239768 9.4350852968055747 15.2072162932918360 Os
atom 5.5027374728727789 6.7393443276575118 15.2072182590233709 Os
atom -4.4019131383364627 9.8843641689821684 16.2118653641013566 Os
atom 0.9957699414885138 7.5522923260223545 15.2072250959900401 O
atom 4.7341120403873589 9.2497390540905045 16.6105718026422409 O
atom 4.5071042254843867 5.0348690121295734 15.6059268444484331 O
atom 2.9698580094834290 6.9176712170451236 17.4237171457611062 O
atom 5.6076512255460020 6.8249966170698517 17.2164935603015792 O
atom 1.8693086257605371 5.1275433729337472 15.8131483519387288 O
atom 2.0963181892761820 9.3424116749630279 16.8177953227903849 O
atom 3.6335692307533933 7.4596234424406394 15.0000061849244233 O
atom 7.7037639620166223 4.0436269799647686 15.2072195225336060 Os
atom 9.9047874056257044 1.3479088344271599 15.2072193939369349 Os
atom -2.2008864971772297 2.6957830758117107 18.2211422257451545 Os
atom 0.0001419462768136 4.4929201385625319 16.2118632575131016 Os
atom 5.3978232640906985 2.1608459349293532 15.2072257695884971 O
atom 9.1361690077760507 3.8582965609417665 16.6105700961226574 O
atom 0.1050551782626612 10.4263233853548289 15.6059259421872056 O
atom 7.3719062651232923 1.5262208896563458 17.4237139900295475 O
atom 10.0097065963907799 1.4335493788300850 17.2164953279953892 O
atom -2.5327436682516637 10.5189926943364807 15.8131462208810021 O
atom 6.4983698035234001 3.9509697952783420 16.8177942531681737 O
atom 8.0356177726046152 2.0681707653215762 15.0000031149287985 O
atom -1.1003396689667060 10.3336546017327215 17.2165009463791918 Os
atom 1.1006880544537443 7.6379292061616804 17.2165000135251205 Os
atom -2.2008782237289890 7.1886356988439877 16.2118644393771483 Os
atom -3.4062770664700888 8.4508675792106729 17.2165073730578513 O
atom 0.1050583311165077 5.9334523223174536 17.6152106279271266 O
atom 7.3719107283311676 6.0190855552872415 15.4144344236933364 O
atom 10.0097057690253504 5.9264101811937042 15.2072111893184214 O
atom -2.5327404572476331 6.0261256406290578 17.8224313230244960 O
atom -0.7684802547787207 8.3581968644137952 17.0092875026275863 O
atom 14.3069128551709817 4.9422145076227411 17.2165034284914213 Os
atom 16.5079371574404981 2.2464944523629886 17.2165058636934134 Os
atom 13.2063615100675822 1.7972019309423022 16.2118587525015201 Os
atom 6.6032870336005178 5.3915056907621857 18.2211406886799949 Os
atom 12.0009688076104037 3.0594304081306110 17.2165101450586420 O
atom 15.5123035790463337 0.5420097835427118 17.6152068843013865 O
atom 0.7687597869767018 0.6276388118479943 15.4144370283482672 O
atom 3.4065601361311861 0.5349676442602095 15.2072179580649163 O
atom 12.8745087530110336 0.6346836806105571 17.8224301227609665 O
atom 14.6387662140806327 2.9667566279086608 17.0092889804849392 O
atom -7.7034863483549021 9.4350722044221467 15.2072248869285573 Os
atom -5.5024568226676482 6.7393476687686196 15.2072229130287511 Os
atom 6.6032843547853979 9.8843644976023075 16.2118598772421194 Os
atom 12.0009689909553448 7.5522874713791106 15.2072288886173723 O
atom -6.2710830288180688 9.2497413709691134 16.6105793592998943 O
atom 15.5123047820553790 5.0348702353690040 15.6059271057050388 O
atom 13.9750598808881001 6.9176705104842293 17.4237225958502542 O
atom -5.3975409412671240 6.8249987568349768 17.2164971201918249 O
atom 12.8745078809543969 5.1275450489656587 15.8131508748974561 O
atom 13.1015173908448226 9.3424148408149801 16.8178040919447973 O
atom 14.6387662140737778 7.4596131306577087 15.0000089447084406 O
atom -3.3014277844270365 4.0436292438746939 15.2072211064993716 Os
atom -1.1004082673473565 1.3479145197860776 15.2072205451746143 Os
atom 8.8043082097946304 2.6957828001151278 18.2211354120967606 Os
atom 11.0053382408679639 4.4929192603721546 16.2118585749128528 Os
atom 16.4030238206752976 2.1608466743530572 15.2072285497381756 O
atom -1.8690272689164598 3.8582978919196327 16.6105763055703513 O
atom 11.1102544200017874 10.4263230329743806 15.6059228027469459 O
atom 18.3771061061755638 1.5262231444498171 17.4237177336458799 O
atom -0.9954898592118209 1.4335549546442656 17.2164955484318227 O
atom 8.4724551084216362 10.5189975672396319 15.8131470496046873 O
atom 17.5035708878168599 3.9509708469010225 16.8177963597043458 O
atom 19.0408140493186728 2.0681707853998930 15.0000000000000000 O
atom 9.9048616926059516 10.3336583901417480 17.2165030488248831 Os
atom 12.1058907934478288 7.6379295092309194 17.2165041939546342 Os
atom 8.8043152623933914 7.1886401408800484 16.2118630554272016 Os
atom 11.0053394528168909 0.0000511221760123 18.2211423788410585 Os
atom 7.5989202165219139 8.4508726657339270 17.2165101736290680 O
atom 11.1102563877409324 5.9334517508516695 17.6152078069280122 O
atom -3.6332858301172593 6.0190855425166268 15.4144392695965280 O
atom -0.9954848727984744 5.9264116308217067 15.2072134999615400 O
atom 8.4724596297563100 6.0261277037129446 17.8224324579332460 O
atom 10.2367195683692724 8.3581978630919078 17.0092890988609327 O
atom -5.5023915202107831 6.7393824334273411 21.2350646799348723 Os
atom -3.3013652412837344 4.0436606418733518 21.2350633306676357 Os
atom 15.4074542318517622 3.5943709321057646 20.2304214532085993 Os
atom 14.2020633227218358 4.8565967291035008 21.2350741031661592 O
atom 4.7341150948820490 4.7568849540153071 18.6198540511009227 O
atom 2.9698560238512601 2.4248141428401482 19.4329956097946948 O
atom 5.6076547898485716 2.3321345074655584 19.2257765395403695 O
atom 2.0963172769701059 4.8495550937105349 18.8270758688827904 O
atom 16.8398590342223322 4.7639250977698415 21.0278468924402304 O
atom 3.3017100222726561 0.4493571413039846 19.2257801615740966 Os
atom -3.3013641545801335 8.5365124269000159 19.2257821273056280 Os
atom -6.6029332278143205 8.0872271354328227 18.2211487821906104 Os
atom 17.6084839319838444 0.8986360134805755 20.2304292323836137 Os
atom 14.2020628084072307 9.3494604252648568 19.2257889642722972 O
atom 4.7341146163360364 0.2640108985889142 20.6291356709244944 O
atom -4.2969974019685315 6.8320371113720757 19.6244907127306902 O
atom -5.8342436179694861 8.7148393162876268 21.4422810140433668 O
atom -3.1964504019069149 8.6221647163123531 21.2350574285838363 O
atom 15.0756014926792510 6.9247114721762495 19.8317122202209859 O
atom 2.0963207652248621 0.3566835194614363 20.8363591910726385 O
atom -5.1705323966995191 9.2567915416831408 19.0185700532066804 O
atom -1.1003376654362964 5.8407950792072700 19.2257833908158631 Os
atom 1.1006857781727906 3.1450769336696616 19.2257832622191920 Os
atom 13.2064348131955303 6.2900882378050316 20.2304271257953587 Os
atom 18.6041161310094125 3.9580140341718524 19.2257896378707542 O
atom 0.3320673803231348 5.6554646601842684 20.6291339644049145 O
atom 0.1050577542113444 1.4405952298532338 19.6244898104694627 O
atom -1.4321953623296282 3.3233889888988473 21.4422778583118117 O
atom 1.2056049689378689 3.2307174780725840 21.2350591962776498 O
atom 19.4776534020686434 1.5332645388348896 19.8317100891632592 O
atom -2.3057318239295190 5.7481378945208439 20.8363581214504308 O
atom -0.7684838548482981 3.8653388645640780 19.0185669832110555 O
atom -1.1003370930180285 1.3479264462311280 21.2350648146614489 Os
atom -7.7034135729991702 9.4350973054041827 21.2350638818073776 Os
atom 11.0054146431897308 8.9858037980864900 20.2304283076594054 Os
atom 0.0001400545703940 0.0000617626089790 18.2211441261315983 Os
atom 9.8000158004486178 10.2480356784531779 21.2350712413401155 O
atom 0.3320648401492352 10.1483210789580305 18.6198550145839938 O
atom -1.4321908991217462 7.8162536545297447 19.4329982919755935 O
atom 1.2056041415724348 7.7235782804362074 19.2257750576006785 O
atom -2.3057322308917332 10.2409944301377909 18.8270796043598878 O
atom 12.4378126121399930 10.1553649636562984 21.0278513709098434 O
atom 5.5028112277180661 6.7393826068652443 21.2350672967736784 Os
atom 7.7038355299875807 4.0436625516054878 21.2350697319756705 Os
atom 4.4022598826146684 3.5943700301848041 20.2304226207837772 Os
atom 3.1968671801574868 4.8565985073731124 21.2350740133408991 O
atom 15.7393155977879982 4.7568833035402482 18.6198556269240356 O
atom 13.9750526538954141 2.4248069110904984 19.4330008966305314 O
atom 16.6128530030499029 2.3321357435027110 19.2257818263471734 O
atom 13.1015194390531580 4.8495579655952969 18.8270780284806705 O
atom 5.8346645866277180 4.7639247271511627 21.0278528487671963 O
atom 14.3069107219653979 0.4493440489205563 19.2257887552108180 Os
atom 7.7038360442510658 8.5365157680111245 19.2257867813110082 Os
atom 4.4022600793946989 8.0872255433873619 18.2211451977974832 Os
atom 6.6032869307340754 0.8986363421007174 20.2304237455243765 Os
atom 3.1968673635024283 9.3494555706216129 19.2257927568996294 O
atom 15.7393140415022330 0.2640132154675232 20.6291432275821549 O
atom 6.7082031546024652 6.8320383346115063 19.6244909739872924 O
atom 5.1709582534351872 8.7148386097267316 21.4422864641325113 O
atom 7.8087519256515883 8.6221668560774791 21.2350609884740855 O
atom 4.0704062535014804 6.9247131482081610 19.8317147431797132 O
atom 13.1015199667934965 0.3566866853133898 20.8363679602270579 O
atom 5.8346645866208622 9.2567812299002092 19.0185728129906977 O
atom 9.9048650824916766 5.8407973431171971 19.2257849747816287 Os
atom 12.1058845995713575 3.1450826190285790 19.2257844134568749 Os
atom 2.2012366134150514 6.2900873596146569 20.2304224431951134 Os
atom 7.5989221932223803 3.9580147735955586 19.2257924180204398 O
atom 11.3372655980022561 5.6554659911621341 20.6291401738526048 O
atom 11.1102569959504649 1.4405948774727881 19.6244866710292065 O
atom 9.5730044787226483 3.3233912436923188 21.4422816019281370 O
atom 12.2108030077068914 3.2307230538867695 21.2350594167140834 O
atom 8.4724576843703083 1.5332694117380408 19.8317109178869444 O
atom 8.6994692603639425 5.7481389461435217 20.8363602279866065 O
atom 10.2367124218657572 3.8653388846423944 19.0185638682822606 O
atom 9.9048642685546273 1.3479302346401583 21.2350669171071402 Os
atom 3.3017891659949141 9.4350976084734217 21.2350680622368913 Os
atom 0.0002136349404792 8.9858082401225516 20.2304269237094587 Os
atom -1.2051814109310020 10.2480407649764285 21.2350740419113215 O
atom 11.3372645828192109 10.1483229704313320 18.6198597094202611 O
atom 9.5730070368014530 7.8162536417591282 19.4330031378787851 O
atom 12.2108079941202377 7.7235797300642108 19.2257773682437971 O
atom 8.6994672479036161 10.2409969825222742 18.8270808535805898 O
atom 1.4326179409163549 10.1553659623344110 21.0278529671431897 O
