#===============================================================================
# Created using the Atomic Simulation Environment (ASE)

# Mon Mar 23 14:01:07 2026

#=======================================================
lattice_vector 9.8433162200001281 0.0000000000000000 0.0000000000000000 
lattice_vector -0.0000031600105307 9.8433818399996227 0.0000000000000000 
lattice_vector 0.0000000000000000 0.0000000000000000 38.8668385200000941 
atom 2.4608284799871458 9.8433781049942244 15.7421160071408224 Os
atom 0.0000014549954360 2.4608390999944589 15.7421158371407444 Os
atom 2.4608320549949498 2.4608361949927691 23.1247199571406838 Os
atom 9.8433120899861439 9.8433786799916430 23.1247227971408194 Os
atom 1.7187400169103737 0.7420974569869192 17.4608705522190348 O
atom 0.7420908751430638 4.1795805602207894 15.0000015420624351 O
atom 3.2029201298456700 3.2029403030011556 16.4842306942814076 O
atom 0.7420896719070087 3.2029474102199176 17.4608703642816039 O
atom 4.1795690148474698 0.7421001397679460 16.4842300822191135 O
atom 1.7187401401457125 1.7187351569876692 15.0000000000000000 O
atom 2.4608314899935926 4.9216798449946495 15.7421157971406274 Os
atom 9.8433120249884727 7.3825415399936984 15.7421130071410431 Os
atom 1.7187380669037053 5.6637973569868061 17.4608658622192934 O
atom 0.7420895651366156 9.1012788402206422 15.0000017320626569 O
atom 3.2029157598391373 8.1246390330004701 16.4842324342816084 O
atom 0.7420893419015446 8.1246397002200048 17.4608677742816525 O
atom 4.1795646648410214 5.6637984697673307 16.4842294622193037 O
atom 1.7187371801404030 6.6404259969870614 15.0000069699999869 O
atom 7.3824835299866782 9.8433813849937142 15.7421166871408929 Os
atom 4.9216602049954110 2.4608395499945117 15.7421175771407675 Os
atom 7.3824879349942618 2.4608407749923509 23.1247220971407899 Os
atom 6.6403937369099477 0.7421005969862674 17.4608687022190878 O
atom 5.6637472951428949 4.1795818502204325 15.0000046420624642 O
atom 8.1245771998443903 3.2029488330010838 16.4842273342816412 O
atom 5.6637469919068586 3.2029486902197721 17.4608710042816284 O
atom 9.1012254948473252 0.7421014097676680 16.4842306522191393 O
atom 6.6403979701453144 1.7187379769875899 15.0000012100000788 O
atom 7.3824847099913287 4.9216944149939081 15.7421142871410069 Os
atom 4.9216527449885330 7.3825407099934894 15.7421137871410082 Os
atom 6.6403930969033738 5.6637997269862561 17.4608677822193243 O
atom 5.6637438951364203 9.1012802702199380 15.0000051720626644 O
atom 8.1245715498390219 8.1246401830001105 16.4842320542816196 O
atom 5.6637435019012852 8.1246417002193567 17.4608682142816747 O
atom 9.1012231448407288 5.6638006097673443 16.4842310822193667 O
atom 6.6403919101389803 6.6404354469866274 15.0000031800002276 O
atom 2.4608245799863484 9.8433787349921609 20.6638572171408157 Os
atom 0.0000011849946204 2.4608396899928979 20.6638598871407595 Os
atom 2.4608298549953402 2.4608377749936663 18.2029853271406949 Os
atom 9.8433117199869038 9.8433781299929262 18.2029848071407940 Os
atom 4.1795689480822684 1.7187367397671631 18.9451030400000420 O
atom 1.7187373669093962 0.7420993269851287 22.3826092422190683 O
atom 0.7420904451420957 4.1795824402193951 19.9217388720624911 O
atom 3.2029214398436383 3.2029487830000223 21.4059686442816641 O
atom 0.7420911119061859 3.2029481602186962 22.3826121142816419 O
atom 3.2029180330796194 4.1795822730000856 18.9451022720624707 O
atom 4.1795659448470950 0.7420981197660064 21.4059716422190291 O
atom 1.7187399201446041 1.7187376469861595 19.9217425300000670 O
atom 2.4608294399904653 4.9216950249929097 20.6638561271410452 Os
atom 9.8433118149879899 7.3825401099921795 20.6638558971409907 Os
atom 2.4608272249885137 7.3825383549932750 18.2029865471409664 Os
atom 9.8433140399913341 4.9216924799932826 18.2029831771409505 Os
atom 4.1795650480759416 6.6404343397666423 18.9451016900002074 O
atom 1.7187395469028701 5.6637980469855114 22.3826104022193206 O
atom 0.7420868551361453 9.1012775502188408 19.9217404220625909 O
atom 3.2029136398380116 8.1246416229986469 21.4059752442816631 O
atom 0.7420865619009616 8.1246389202180840 22.3826102842816113 O
atom 3.2029166830737688 9.1012767629998965 18.9451036620625786 O
atom 4.1795669948402212 5.6637988797661407 21.4059752022193379 O
atom 1.7187365801381098 6.6404362569857094 19.9217418900002770 O
atom 7.3824795899862536 9.8433796849916479 20.6638578171408156 Os
atom 4.9216602249955246 2.4608345499931046 20.6638578471406262 Os
atom 7.3824874549953368 2.4608385249937723 18.2029787471407190 Os
atom 4.9216527499865084 9.8433802299928157 18.2029839671408382 Os
atom 9.1012234980823390 1.7187365897665272 18.9451053100000024 O
atom 6.6403955669090733 0.7421016369850862 22.3826112422191414 O
atom 5.6637440851424481 4.1795806102186628 19.9217393920624062 O
atom 8.1245767398438211 3.2029480229995628 21.4059689242816233 O
atom 5.6637473119070281 3.2029434102184466 22.3826101242814843 O
atom 8.1245762130800045 4.1795802730001101 18.9451018420624138 O
atom 9.1012230348466918 0.7421010297658601 21.4059710222191057 O
atom 6.6403974901449310 1.7187364069862929 19.9217347900000306 O
atom 7.3824824999910916 4.9216915349921084 20.6638557771409097 Os
atom 4.9216495149876405 7.3825418599914947 20.6638563171410112 Os
atom 7.3824810949883828 7.3825395049925593 18.2029878371409666 Os
atom 4.9216544199910590 4.9216937799930180 18.2029839771409740 Os
atom 9.1012212780762063 6.6404330297663163 18.9451024900001599 O
atom 6.6403930469026813 5.6637996369847832 22.3826099722193419 O
atom 5.6637418351359239 9.1012793602183653 19.9217395720626200 O
atom 8.1245728298380513 8.1246418929988895 21.4059728642816864 O
atom 5.6637387219006863 8.1246410402171332 22.3826101342816202 O
atom 8.1245721030736444 9.1012778929994536 18.9451040120625862 O
atom 9.1012220448403802 5.6637985097657788 21.4059705822192967 O
atom 6.6403903601383822 6.6404349069849928 19.9217425500001966 O
atom 4.1795695680813969 1.7187381197659883 23.8668385200000941 O
atom 3.2029218230800272 4.1795757129994442 23.8668368820623158 O
atom 2.4608253749878553 7.3825380849915234 23.1247283671409534 Os
atom 0.0000001399901524 4.9216947399922297 23.1247239771410378 Os
atom 4.1795659180763041 6.6404280797655364 23.8668361100000439 O
atom 3.2029170630731030 9.1012769829987512 23.8668366420625873 O
atom 4.9216538899856799 9.8433810599915628 23.1247250871408809 Os
atom 9.1012251080818292 1.7187358497655958 23.8668378400000023 O
atom 8.1245762730787572 4.1795841029989047 23.8668352520625291 O
atom 7.3824774049870161 7.3825438449906269 23.1247255771410636 Os
atom 4.9216589199918515 4.9216844999923124 23.1247248771407499 Os
atom 9.1012191580750663 6.6404362497647904 23.8668348800002406 O
atom 8.1245737230728299 9.1012790329984945 23.8668376120626391 O
