#===============================================================================
# Created using the Atomic Simulation Environment (ASE)

# Mon Mar 23 14:01:08 2026

#=======================================================
lattice_vector 22.0103944943716279 0.0000000000000000 0.0000000000000000 
lattice_vector -0.0000025759486765 9.8433818399997932 0.0000000000000000 
lattice_vector 0.0000000000000000 0.0000000000000000 39.0140252264209408 
atom 12.1058117346950471 0.0000039730233354 16.2054217475463602 Os
atom 14.3068354376734153 7.3825427640197745 15.1048912092909440 Os
atom 4.4021916553725644 0.0000031920272799 17.3059522030404409 Os
atom 9.7998695073073563 8.1246433465644863 15.4367824677234395 O
atom 11.7739550753554987 6.6404419264044741 17.2010639386699395 O
atom 14.4117538413528123 6.6404347194825890 16.9740633707448936 O
atom 10.6734062283009994 5.6638056683977238 15.0000056404071884 O
atom 12.4376652188078598 8.1246467696417977 15.2097777362582711 O
atom 12.1058090737768911 4.9217022330230957 16.2054221992401359 Os
atom 14.3068391003256927 2.4608403240197649 15.1048868578886264 Os
atom 9.7998715689414286 3.2029533865643933 15.4367793864167382 O
atom 11.7739596369363451 1.7187431964050350 17.2010642472271940 O
atom 14.4117528529989158 1.7187424294822220 16.9740616132101181 O
atom 10.6734102532134543 0.7421043983980260 15.0000040035889732 O
atom 12.4376708582063085 3.2029559296430170 15.2097833532332629 O
atom 6.6032125543270030 7.3825408830234309 16.2054224742596276 Os
atom 8.8042435737297282 0.0000003840208059 15.1048937427257428 Os
atom 17.9402680592802852 9.1012811896421937 15.2097759776404615 O
atom 8.9091568057155790 5.6638004194829961 16.9740655586507074 O
atom 16.1760053166275277 6.6404329683972518 15.0000000000000000 O
atom 6.2713579592012554 5.6637977064045701 17.2010630139706073 O
atom 15.3024688550276355 9.1012804765642183 15.4367785759188010 O
atom 9.9047896819066565 2.4608415820267764 17.3059475005898662 Os
atom 6.6032234037239279 2.4608378130246988 16.2054215842447498 Os
atom 8.8042391060746361 4.9216969440204199 15.1048950978026753 Os
atom 17.9402680950550604 4.1795820596420921 15.2097755751570141 O
atom 8.9091599585694237 0.7421019994833086 16.9740652187572039 O
atom 16.1760123557840814 1.7187416183983379 15.0000024015003568 O
atom 6.2713611702052781 0.7421027764050862 17.2010646910097122 O
atom 15.3024710240140962 4.1795812765644413 15.4367786161632061 O
atom 1.1006199882522667 0.0000030630242938 16.2054242071861268 Os
atom 3.3016417145731016 7.3825418940208785 15.1048978325018943 Os
atom 15.4073886610534299 0.0000040220271039 17.3059507138206214 Os
atom 20.8050678591146365 8.1246450065646947 15.4367831117038072 O
atom 0.7687572110280211 6.6404331664045770 17.2010658124996922 O
atom 3.4065575601825091 6.6404336894832321 16.9740687015248888 O
atom 21.6786078045152664 5.6637993883982913 15.0000056448523154 O
atom 1.4324707712132372 8.1246439996426769 15.2097830223053805 O
atom 1.1006152790980070 4.9216867730237901 16.2054246991436095 Os
atom 3.3016448047852616 2.4608414740206968 15.1048924704003085 Os
atom 15.4073859822383099 4.9216896720267078 17.3059495868517459 Os
atom 20.8050706184082586 3.2029474065647729 15.4367808666828203 O
atom 0.7687670139693886 1.7187403264060956 17.2010689339964529 O
atom 3.4065606861857827 1.7187429294832881 16.9740657364870060 O
atom 21.6786095084073054 0.7421048983985783 15.0000069909629303 O
atom 1.4324733471550635 3.2029453896428177 15.2097816627685773 O
atom 17.6084072612988649 7.3825434130224838 16.2054161417310745 Os
atom 19.8094398683208759 0.0000014940202318 15.1048891095988651 Os
atom 6.9350717825877792 9.1012798696429211 15.2097821894312411 O
atom 19.9143560474546994 5.6638013794829662 16.9740625488903909 O
atom 5.1708106633081750 6.6404334983980107 15.0000043379552785 O
atom 17.2765567358745500 5.6638018164050372 17.2010657598519217 O
atom 4.2972754449494621 9.1012805765649478 15.4367809282378232 O
atom 20.9099924209007497 2.4608401520278784 17.3059514405067425 Os
atom 17.6084168898463069 2.4608424330242582 16.2054221343410170 Os
atom 19.8094385043211254 4.9216879440201229 15.1048891587932808 Os
atom 6.9350733433534053 4.1795818696429112 15.2097806331268757 O
atom 19.9143580151938444 0.7421026294831419 16.9740624102505997 O
atom 5.1708157973356519 1.7187396283988572 15.0000068199664796 O
atom 17.2765612572092202 0.7421041964056401 17.2010665692885567 O
atom 4.2972760084378043 4.1795830965649454 15.4367807985511405 O
atom 3.3017101072421373 0.0000048290369610 20.6075426841401992 Os
atom 5.5027338102205068 7.3825436200333998 19.5070121458847829 Os
atom 2.2011587889843613 7.3825458910297685 18.4064820257870636 Os
atom 17.6084845222912811 0.0000040480409055 21.7080731396342763 Os
atom 0.9957678798544392 8.1246442025781125 19.8389034043172785 O
atom 13.5382141463862844 9.1012847576489513 17.4108400639148364 O
atom 4.5071030940319892 5.6638021374892356 19.1751240100326754 O
atom 2.9698534479025840 6.6404427824181003 21.6031848752637785 O
atom 5.6076522138998977 6.6404355754962143 21.3761843073387325 O
atom 1.8693046008480889 5.6638065244113500 19.4021265770010274 O
atom 10.9004163284743409 9.1012821745708283 17.6378392633611831 O
atom 3.6335635913549433 8.1246476256554256 19.6118986728521136 O
atom 3.3017074463239751 4.9217030890367210 20.6075431358339749 Os
atom 5.5027374728727816 2.4608411800333903 19.5070077944824689 Os
atom 2.2011683996385947 2.4608440010314698 18.4064872670783686 Os
atom 4.4021884891164547 4.9216871320271514 17.3059544614817540 Os
atom 0.9957699414885147 3.2029542425780186 19.8389003230105772 O
atom 13.5382136678402762 4.1795848576484005 17.4108357035944223 O
atom 4.5071042254843867 0.7421038574893435 19.1751243007232262 O
atom 2.9698580094834286 1.7187440524186608 21.6031851838210329 O
atom 5.6076512255460038 1.7187432854958478 21.3761825498039570 O
atom 1.8693086257605434 0.7421052544116516 19.4021249401828122 O
atom 10.9004198167290962 4.1795838445710451 17.6378374700213492 O
atom 3.6335692307533924 3.2029567856566423 19.6119042898271019 O
atom 7.7037639620166178 0.0000011210304720 18.4064814555610852 Os
atom 9.9047848296770287 7.3825427420267937 17.3059535201066055 Os
atom 19.8095054212457171 7.3825417390370580 20.6075434108534665 Os
atom 0.0001419462768180 0.0000012400344329 19.5070146793195818 Os
atom 5.3978206881420228 8.1246460445713939 17.6378411784579825 O
atom 9.1361664318273714 9.1012820456558199 19.6118969142343005 O
atom 0.1050551782626636 5.6638012754966223 21.3761864952445464 O
atom 7.3719036891746175 6.6404338244108763 19.4021209365938390 O
atom 10.0097040204421077 6.6404338674895529 19.1751240581702653 O
atom 19.4776508261199695 5.6637985624181955 21.6031839505644498 O
atom 6.4983672275747209 9.1012813325778446 19.8388995125126399 O
atom 8.0356151966559395 8.1246443776488064 17.4108391615875107 O
atom 7.7037619584862060 4.9216880910300498 18.4064791300553345 Os
atom 1.1006880544537463 2.4608424380404017 21.7080684371837087 Os
atom 19.8095162706426429 2.4608386690383242 20.6075425208385887 Os
atom 0.0001374786217239 4.9216978000340452 19.5070160343965213 Os
atom 5.3978245609828273 3.2029456445713853 17.6378365766145144 O
atom 9.1361664676021466 4.1795829156557174 19.6118965117508530 O
atom 0.1050583311165125 0.7421028554969342 21.3761861553510428 O
atom 7.3719107283311676 1.7187424744119635 19.4021233380941993 O
atom 10.0097057690253468 1.7187408574893894 19.1751207085376976 O
atom 19.4776540371239975 0.7421036324187118 21.6031856276035512 O
atom 6.4983693965611851 4.1795821325780667 19.8388995527570486 O
atom 8.0356213726741927 3.2029469076495269 17.4108389200616216 O
atom 14.3069128551709834 0.0000039190379194 20.6075451437799693 Os
atom 16.5079345814918170 7.3825427500345047 19.5070187690957297 Os
atom 13.2063589341189029 7.3825445910302152 18.4064827234219059 Os
atom 6.6032870336005232 0.0000048780407295 21.7080716504144604 Os
atom 12.0009662316617263 8.1246458625783209 19.8389040482976462 O
atom 2.5330201549206031 9.1012826076494520 17.4108408286295209 O
atom 15.5123010030976616 5.6637999774893757 19.1751245511571113 O
atom 13.9750500779467348 6.6404340224182032 21.6031867490935312 O
atom 16.6128504271012254 6.6404345454968592 21.3761896381187277 O
atom 12.8745061770623526 5.6638002444119184 19.4021265814461543 O
atom 21.9056184905573943 9.1012839145717752 17.6378424072412372 O
atom 14.6387636381319517 8.1246448556563031 19.6119039588992194 O
atom 14.3069081460167222 4.9216876290374154 20.6075456357374520 Os
atom 16.5079376717039779 2.4608423300343221 19.5070134069941474 Os
atom 13.2063617068476091 2.4608440110305732 18.4064833450402716 Os
atom 6.6032843547853979 4.9216905280403340 21.7080705234455849 Os
atom 12.0009689909553430 3.2029482625783983 19.8389018032766629 O
atom 2.5330185986348432 4.1795838876494473 17.4108435477070884 O
atom 15.5123047820553825 0.7421048674898493 19.1751250386044489 O
atom 13.9750598808881019 1.7187411824197214 21.6031898705902918 O
atom 16.6128535531045003 1.7187437854969139 21.3761866730808450 O
atom 12.8745078809543916 0.7421057544122039 19.4021279275567693 O
atom 21.9056190182977275 4.1795831545722049 17.6378467675795960 O
atom 14.6387662140737760 3.2029462456564435 19.6119025993624199 O
atom 18.7089667099445940 0.0000025410314221 18.4064838257579027 Os
atom 20.9099836510755885 7.3825474620273281 17.3059568920866127 Os
atom 8.8043056338459529 7.3825442690361092 20.6075370783249134 Os
atom 11.0053382408679656 0.0000023500338574 19.5070100461927041 Os
atom 16.4030212447266202 8.1246455845721002 17.6378440182432428 O
atom 20.1413646495064960 9.1012807256565473 19.6119031260250800 O
atom 11.1102544200017874 5.6638022354965907 21.3761834854842334 O
atom 18.3771035302268899 6.6404343544116369 19.4021252745491140 O
atom 21.0149020592111349 6.6404388674898982 19.1751265357280474 O
atom 8.4724551084216362 5.6638026724186643 21.6031866964457677 O
atom 17.5035683118681789 9.1012814325785758 19.8389018648316622 O
atom 19.0408114733699918 8.1246456676484051 17.4108363262593784 O
atom 18.7089633200588672 4.9216906910309248 18.4064825959342002 Os
atom 12.1058907934478341 2.4608410080415037 21.7080723771005850 Os
atom 8.8043152623933914 2.4608432890378835 20.6075430709348595 Os
atom 11.0053368768682116 4.9216888000337482 19.5070100953871197 Os
atom 16.4030218439748268 3.2029491445718414 17.6378412097467958 O
atom 20.1413662102721176 4.1795827256565374 19.6119015697207146 O
atom 11.1102563877409288 0.7421034854967675 21.3761833468444422 O
atom 18.3771086642543686 1.7187404844124829 19.4021277565603185 O
atom 21.0149096215731461 1.7187412374905167 19.1751234096656376 O
atom 8.4724596297563117 0.7421050524192657 21.6031875058823957 O
atom 17.5035688753565175 4.1795839525785716 19.8389017351449830 O
atom 19.0408211958221791 3.2029471676500445 17.4108407849258526 O
atom 18.7090266771392137 7.3825444760470260 23.9091330824786219 Os
atom 15.4074516559030741 7.3825467470433939 22.8086029623809026 Os
atom 4.7341125189333706 9.1012856136625775 21.8129610005086789 O
atom 17.7133959609507023 5.6638029935028609 23.5772449466265144 O
atom 15.0755974677668014 5.6638073804249744 23.8042475135948663 O
atom 2.0963147010214271 9.1012830305844528 22.0399601999550256 O
atom 16.8398564582736618 8.1246484816690501 24.0140196094459526 O
atom 18.7090303397914930 2.4608420360470160 23.9091287310763079 Os
atom 15.4074612665573092 2.4608448570450956 22.8086082036722075 Os
atom 17.6084813560351634 4.9216879880407758 21.7080753980756000 Os
atom 4.7341120403873616 4.1795857136620249 21.8129566401882613 O
atom 17.7133970924030990 0.7421047135029690 23.5772452373170687 O
atom 15.0756014926792563 0.7421061104252773 23.8042458767766547 O
atom 2.0963181892761846 4.1795847005846705 22.0399584066151917 O
atom 16.8398620976721105 3.2029576416702676 24.0140252264209408 O
atom 20.9100568289353248 0.0000019770440968 22.8086023921549241 Os
atom 1.1006832022241149 7.3825435980404173 21.7080744567004444 Os
atom 13.2064348131955285 0.0000020960480577 23.9091356159134243 Os
atom 18.6041135550607386 8.1246469005850184 22.0399621150518250 O
atom 0.3320648043744543 9.1012829016694443 24.0140178508281465 O
atom 20.5781965560933280 6.6404346804245025 23.8042418731876815 O
atom 1.2056023929891957 6.6404347235031782 23.5772449947641078 O
atom 21.2419080635746553 8.1246452336624326 21.8129600981813496 O
atom 20.9100548254049201 4.9216889470436742 22.8086000666491771 Os
atom 13.2064303455404382 4.9216986560476705 23.9091369709903603 Os
atom 18.6041174279015387 3.2029465005850111 22.0399575132083569 O
atom 0.3320648401492375 4.1795837716693427 24.0140174483446955 O
atom 20.5782035952498816 1.7187433304255892 23.8042442746880418 O
atom 1.2056041415724350 1.7187417135030154 23.5772416451315365 O
atom 21.2419142395929086 3.2029477636631527 21.8129598566554606 O
atom 7.7038329540389014 7.3825436060481291 23.9091397056895758 Os
atom 4.4022573066659891 7.3825454470438396 22.8086036600157485 Os
atom 15.7393130218393171 9.1012834636630764 21.8129617652233634 O
atom 6.7081993756447460 5.6638008335029992 23.5772454877509503 O
atom 4.0704045496094361 5.6638011004255420 23.8042475180400004 O
atom 13.1015168631044823 9.1012847705853996 22.0399633438350762 O
atom 5.8346620106790379 8.1246457116699276 24.0140248954930584 O
atom 7.7038360442510632 2.4608431860479478 23.9091343435879899 Os
atom 4.4022600793946935 2.4608448670441989 22.8086042816341106 Os
atom 15.7393114655535573 4.1795847436630726 21.8129644843009345 O
atom 6.7082031546024687 0.7421057235034748 23.5772459751982879 O
atom 4.0704062535014778 0.7421066104258295 23.8042488641506118 O
atom 13.1015173908448137 4.1795840105858293 22.0399677041734421 O
atom 5.8346645866208657 3.2029471016700688 24.0140235359562588 O
atom 9.9048650824916784 0.0000033970450477 22.8086047623517487 Os
atom 12.1058820236226765 7.3825483180409526 21.7080778286804552 Os
atom 2.2012366134150536 0.0000032060474830 23.9091309827865430 Os
atom 7.5989196172737028 8.1246464405857246 22.0399649548370853 O
atom 11.3372630220535786 9.1012815816701735 24.0140240626189225 O
atom 9.5730019027739761 6.6404352104252613 23.8042462111429529 O
atom 12.2108004317582193 6.6404397235035235 23.5772474723218863 O
atom 10.2367098459170798 8.1246465236620296 21.8129572628532244 O
atom 9.9048616926059516 4.9216915470445501 22.8086035325280392 Os
atom 2.2012352494152974 4.9216896560473735 23.9091310319809622 Os
atom 7.5989202165219112 3.2029500005854676 22.0399621463406348 O
atom 11.3372645828192091 4.1795835816701619 24.0140225063145571 O
atom 9.5730070368014548 1.7187413404261085 23.8042486931541575 O
atom 12.2108079941202359 1.7187420935041422 23.5772443462594765 O
atom 10.2367195683692636 3.2029480236636703 21.8129617215196951 O
