#===============================================================================
# Created using the Atomic Simulation Environment (ASE)

# Mon Mar 23 14:01:10 2026

#=======================================================
lattice_vector 9.0245745700181317 0.0000000000000000 0.0000000000000000 
lattice_vector -0.0000361800215085 9.0245852999456080 0.0000000000000000 
lattice_vector 0.0000000000000000 0.0000000000000000 36.4266636199999994 
atom -0.0000332900110248 9.0245800699514014 16.6066687100000010 Os
atom 1.3914457408577661 1.3914232891928298 16.6066691700000000 O
atom 2.2561459975098246 2.2561410025092536 15.0000076699999987 Os
atom 3.6475632966864375 0.8647033516394799 15.0000151899999992 O
atom 0.8646910483636203 3.6475634833035566 15.0000112899999998 O
atom 9.0245532749959505 4.5122983499663789 16.6066690799999961 Os
atom 2.2561033124414203 6.7684624124327568 15.0000102099999992 Os
atom 3.6475545516240859 5.3770217416310162 15.0000000000000000 O
atom 0.8646861932950555 8.1598849733028906 15.0000044499999987 O
atom 4.5122511799916971 9.0245832349457569 16.6066690699999988 Os
atom 7.6331642142419778 3.1208232808871670 16.6066694900000016 O
atom 6.7684373075565443 2.2561222175173219 15.0000091100000006 Os
atom 8.1598558867005853 0.8647008166501141 15.0000132499999985 O
atom 5.3769831883806125 3.6475595283132889 15.0000049000000004 O
atom 6.7683900724858947 6.7684447474317047 15.0000100399999994 Os
atom 8.1598443716316584 5.3770224866360978 15.0000029300000008 O
atom 5.3769765433040311 8.1598850183090352 15.0000095999999985 O
atom 2.2561446675106263 2.2561406025065880 18.2133319100000008 Os
atom 3.6475619066867182 0.8647032116366937 18.2133229300000004 O
atom 0.8646910983638411 3.6475633733036572 18.2133266599999999 O
atom 3.1208489641921711 3.1208436058311100 16.6066699399999997 O
atom 9.0245717200162670 0.0000009299942871 19.8199931800000009 Os
atom 2.2561459975098246 2.2561410025092536 21.4266560999999989 Os
atom 1.3914393908613145 1.3914215191801012 19.8199941799999984 O
atom 3.6475632966864375 0.8647033516394799 21.4266636200000029 O
atom 0.8646910483636203 3.6475634833035566 21.4266597200000000 O
atom 3.1208561641946164 3.1208423858455423 19.8199936799999996 O
atom 2.2561022624402174 6.7684630124306526 18.2133303600000005 Os
atom 1.3913713457512560 5.9037637090527699 16.6066709800000005 O
atom 3.6475534316211395 5.3770232116287708 18.2133407299999988 O
atom 0.8646855432950556 8.1598849733015868 18.2133336899999989 O
atom 3.1207888490599225 7.6331968657196736 16.6066710499999992 O
atom -0.0000162650101328 4.5122923399764625 19.8199926799999986 Os
atom 2.2561033124414203 6.7684624124327568 21.4266586400000030 Os
atom 1.3913790057611781 5.9037587590681229 19.8199933299999991 O
atom 3.6475545516240859 5.3770217416310162 21.4266484300000037 O
atom 0.8646861932950555 8.1598849733028906 21.4266528799999953 O
atom 3.1207829690729714 7.6331903557078871 19.8199931999999990 O
atom 6.7684387475579664 2.2561215075202092 18.2133313599999980 Os
atom 5.9037509709323892 1.3913905842288010 16.6066697900000015 O
atom 8.1598562067019280 0.8647001466507552 18.2133249600000013 O
atom 5.3769850083827793 3.6475584483169374 18.2133359000000006 O
atom 4.5122865400060688 0.0000014949985066 19.8199927199999983 Os
atom 6.7684373075565443 2.2561222175173219 21.4266575399999972 Os
atom 5.9037496909136866 1.3913999142262352 19.8199942399999998 O
atom 8.1598558867005853 0.8647008166501141 21.4266616799999987 O
atom 5.3769831883806125 3.6475595283132889 21.4266533299999971 O
atom 7.6331682442424782 3.1208230308952452 19.8199946000000011 O
atom 4.5122698549988804 4.5122923649741269 16.6066714699999984 Os
atom 6.7683912024849127 6.7684452374339683 18.2133302599999993 Os
atom 5.9036885358118472 5.9037380041127125 16.6066711799999993 O
atom 8.1598444616304562 5.3770230866362789 18.2133350500000013 O
atom 5.3769767133057149 8.1598841783093761 18.2133285500000000 O
atom 7.6330947691398565 7.6331615107570281 16.6066701700000010 O
atom 4.5122699850014882 4.5122910649743870 19.8199935099999998 Os
atom 6.7683900724858947 6.7684447474317047 21.4266584699999960 Os
atom 5.9036881558085597 5.9037396441119521 19.8199930899999970 O
atom 8.1598443716316584 5.3770224866360978 21.4266513599999975 O
atom 5.3769765433040311 8.1598850183090352 21.4266580300000022 O
atom 7.6330882091266865 7.6331680807438786 19.8199938200000005 O
