#===============================================================================
# Created using the Atomic Simulation Environment (ASE)

# Mon Mar 23 14:01:08 2026

#=======================================================
lattice_vector 13.9206623415420374 0.0000000000000000 0.0000000000000000 
lattice_vector -6.9602220783261259 12.0556381450883503 0.0000000000000000 
lattice_vector 0.0000000000000000 0.0000000000000000 34.8261930893875515 
atom 0.0002240114114335 0.0000233094590080 15.9923241791083797 Os
atom 0.0003005701098695 8.0371187005381284 15.8569099912792701 O
atom 2.4309506530513629 7.4311826532938969 15.0000008544778467 O
atom -1.7398103131003144 6.2350622306934440 15.0000025451789725 O
atom -0.6902893154950412 10.4451038235891822 15.0000140754164981 O
atom 0.0002735796165257 6.0278502857104810 15.9923209199935954 Os
atom 1.7403312558266237 3.0139239704267693 15.9923253107392256 Os
atom 3.4803884229947832 0.0000210722642130 15.9923249729741670 Os
atom -1.7397798822801291 9.0417558701320058 15.9923242772744985 Os
atom -5.2199448312778900 9.0417539105373823 15.9923243552138921 Os
atom 3.4804161842335155 2.0092907812347716 15.8569129992499533 O
atom 5.9110620810961425 1.4033588491497166 15.0000000000000000 O
atom 1.7403045161342776 0.2072314414093984 15.0000074526390641 O
atom 2.7898241278240796 4.4172763819472545 15.0000187808108940 O
atom 1.7403862192831538 9.0417564784183302 15.9923223056195418 Os
atom 3.4804417671253578 6.0278376218394936 15.9923251375285318 Os
atom 10.4407518522428209 2.0092922019217396 15.8569179875258506 O
atom 12.8713962712510224 1.4033636542200461 15.0000024652626927 O
atom 8.7006368253672033 0.2072349890822858 15.0000080530735609 O
atom 9.7501592089496203 4.4172814891187571 15.0000234919600963 O
atom 6.9605544962687613 0.0000208068992137 15.9923228396618882 Os
atom 6.9606339329141260 8.0371122747032455 15.8569147601823168 O
atom 9.3912843694223369 7.4311868419094971 15.0000003348431648 O
atom 5.2205246123952129 6.2350578011832596 15.0000036940842776 O
atom 6.2700477949751932 10.4451030233962410 15.0000149702709713 O
atom 0.0002756584984350 2.0093014664469933 18.8338661245757280 Os
atom -5.2198907800411343 11.0510320103584281 18.8338643145805733 Os
atom 5.2206043002775031 11.0510344312777953 18.8338634341308264 Os
atom 11.4902663784012500 0.6059610522689712 19.8261920963542195 O
atom 1.7403621392337467 1.8020920362614192 19.8261839335684513 O
atom 7.6512809805538096 9.6476809297188364 19.8261736446418055 O
atom 0.0002499054195189 0.0000319615890646 18.9692743859244004 O
atom -1.7398273291391002 3.0139310085986941 15.9923300074331358 Os
atom 6.9606641261515376 8.0371150072183113 18.8338721145703403 Os
atom -2.4303971228154051 4.6245023352651069 16.9846472843691814 O
atom 1.7403581652718056 5.8206249665138028 16.9846445256058587 O
atom 0.6908397415396560 1.6105792911258008 16.9846364883232539 O
atom 0.0003046925313835 4.0185695669144605 18.6984555653523756 O
atom 2.4309488569868658 3.4126386595404385 17.8415425430191092 O
atom 12.1808550265503364 2.2165100556251600 17.8415482174109883 O
atom -0.6902868760008908 6.4265540612697256 17.8415580675613157 O
atom 0.0002548905596530 4.0185766371048279 16.1277358958822710 O
atom 10.4407779159501466 2.0092990087689464 18.8338684945640935 Os
atom -5.9105065851235290 10.6523229795580363 16.9846472381697886 O
atom -1.7397480231459375 11.8484483256404278 16.9846404725723374 O
atom -2.7892678540086036 7.6384037076225892 16.9846335322637820 O
atom -3.4798111903319411 10.0463866839702458 18.6984540469542182 O
atom -1.0491584557167646 9.4404582913683281 17.8415431780795828 O
atom 8.7007433439093731 8.2443299650797979 17.8415460061631350 O
atom 2.7898241985300647 0.3987409532314726 17.8415558678526551 O
atom -3.4798609993819123 10.0463914393931741 16.1277348797804123 O
atom -3.4798341503273469 8.0371125209899574 18.8338673081409524 Os
atom -1.7397774852475163 5.0232012333268417 18.8338662775643613 Os
atom 8.7007272188047260 5.0231994288358006 18.8338698830658231 Os
atom -3.4798879328179591 6.0278472646576589 15.9923254377347028 Os
atom 8.0101576726316335 6.6337699185940533 19.8261901506751954 O
atom -1.7397484191306882 7.8298993022647947 19.8261868953799123 O
atom 11.1313970684607906 3.6198547291400294 19.8261787888042491 O
atom -3.4798555193237299 6.0278427385055169 18.9692788834515937 O
atom 10.4407229454698562 0.0000243219057547 15.9923254636977745 Os
atom 5.2205559483523976 9.0417575398484491 15.9923273660667746 Os
atom 3.4804443622059256 2.0092999599954866 18.8338642799221319 Os
atom 1.0498245008151270 10.6523239593559200 16.9846496803613363 O
atom 5.2205846820794424 11.8484515058894893 16.9846432553884910 O
atom 4.1710607287461610 7.6384025971989056 16.9846334687729623 O
atom 3.4805216280384035 10.0463894314765891 18.6984583308806123 O
atom 5.9111743060832058 9.4404613001535296 17.8415470001259635 O
atom 1.7404148460207280 8.2443330595902200 17.8415467278314068 O
atom 9.7501594705374917 0.3987446682723839 17.8415559082378294 O
atom 3.4804734453211639 10.0463934847041312 16.1277376856799073 O
atom 3.4804986963330879 8.0371151460223142 18.8338725620156922 Os
atom 5.2205568816833132 5.0232041890323780 18.8338699033011423 Os
atom 1.7403887436503696 5.0232063323472884 18.8338696521691205 Os
atom 1.0498261059216212 6.6337746787728342 19.8261930893875515 O
atom 5.2205837628632388 7.8299048176981456 19.8261922705006768 O
atom 4.1710641652770732 3.6198566601613016 19.8261772934771514 O
atom 3.4804751565009240 6.0278438979352122 18.9692824110642206 O
atom 6.9606154418208623 2.0092992700323036 18.8338662399907122 Os
atom 1.7404437283084293 11.0510380279238607 18.8338654288407596 Os
atom -1.7397281928249904 11.0510297160139839 18.8338603164511298 Os
atom 4.5299405816364109 0.6059621545140075 19.8261905201520179 O
atom 8.7006979910614319 1.8020890723599645 19.8261874669233293 O
atom 0.6909541372564764 9.6476792232201962 19.8261718028671723 O
atom 6.9605803125016017 0.0000297162265795 18.9692738605421312 O
atom 6.9606121396342928 6.0278390466047780 15.9923257581477358 Os
atom 8.7006702613545759 3.0139244766203435 15.9923270658323133 Os
atom 5.2205027738644487 3.0139274445939441 15.9923269417125411 Os
atom 0.0003332806080440 8.0371130149619336 18.8338671493571965 Os
atom 4.5299381208916740 4.6244985630342761 16.9846500383057091 O
atom 8.7006968384714174 5.8206247174510732 16.9846486074232104 O
atom 7.6511758973883746 1.6105768130347378 16.9846343694166819 O
atom 6.9606392857159678 4.0185681951870098 18.6984590640734538 O
atom 9.3912902525060957 3.4126361773441087 17.8415418385863163 O
atom 5.2205288550286530 2.2165098555614109 17.8415490256686979 O
atom 6.2700479858896445 6.4265554003090184 17.8415605155013637 O
atom 6.9605888048730513 4.0185667574850639 16.1277378415411405 O
