#===============================================================================
# Created using the Atomic Simulation Environment (ASE)

# Mon Mar 23 14:01:08 2026

#=======================================================
lattice_vector 13.9206623415420374 0.0000000000000000 0.0000000000000000 
lattice_vector -6.9602220783261259 12.0556381450883503 0.0000000000000000 
lattice_vector 0.0000000000000000 0.0000000000000000 40.5092764317912355 
atom 0.0002221729454867 8.0371079656844699 15.9923241791083797 Os
atom 6.9605208099700491 4.0185652116752388 15.8569099912792737 O
atom 9.3911708929115392 3.4126291644310069 15.0000008544778538 O
atom 5.2204099267598645 2.2165087418305593 15.0000025451789796 O
atom 6.2699309243651395 6.4265503347262900 15.0000140754164946 O
atom 6.9604938194767030 2.0092967968475905 15.9923209199935954 Os
atom 1.7403294173606780 11.0510086266522300 15.9923253107392327 Os
atom 3.4803865845288313 8.0371057284896725 15.9923249729741670 Os
atom 5.2204403575800464 5.0232023812691136 15.9923242772744985 Os
atom 1.7402754085822847 5.0232004216744901 15.9923243552138885 Os
atom 3.4804143457675671 10.0463754374602310 15.8569129992499498 O
atom 5.9110602426301906 9.4404435053751765 15.0000000000000000 O
atom 1.7403026776683364 8.2443160976348615 15.0000074526390748 O
atom 9.7500443676842590 0.3987228930843645 15.0000187808108976 O
atom 8.7006064591433283 5.0232029895554406 15.9923223056195454 Os
atom 10.4406620069855389 2.0092841329766062 15.9923251375285318 Os
atom -3.4799123277651711 10.0463768581471982 15.8569179875258470 O
atom -1.0492679087569623 9.4404483104455075 15.0000024652626927 O
atom 8.7006349869012567 8.2443196453077459 15.0000080530735644 O
atom 2.7897171072677631 0.3987280002558701 15.0000234919600999 O
atom 6.9605526578028218 8.0371054631246750 15.9923228396618953 Os
atom 0.0001918312322664 4.0185587858403524 15.8569147601823239 O
atom 2.4308422677404731 3.4126333530466098 15.0000003348431648 O
atom 12.1807448522553887 2.2165043123203696 15.0000036940842776 O
atom -0.6903943067066621 6.4265495345333514 15.0000149702709713 O
atom 0.0002738200324765 10.0463861226724589 18.8338661245757280 Os
atom 1.7403294598190466 7.0324785214955403 18.8338643145805769 Os
atom -1.7398378014043598 7.0324809424149075 18.8338634341308264 Os
atom 0.0002240114114335 0.0000233094590080 21.6754075215120636 Os
atom -2.4303978016067376 8.6430457084944337 19.8261920963542266 O
atom 1.7403603007677977 9.8391766924868787 19.8261839335684549 O
atom 0.6908388788719464 5.6291274408559486 19.8261736446418126 O
atom 0.0003005701098695 8.0371187005381284 21.5399933336829541 O
atom 2.4309506530513629 7.4311826532938969 20.6830841968815307 O
atom -1.7398103131003144 6.2350622306934440 20.6830858875826564 O
atom -0.6902893154950412 10.4451038235891822 20.6830974178201821 O
atom 0.0002480669535693 8.0371166178145241 18.9692743859244004 O
atom 0.0002735796165257 6.0278502857104810 21.6754042623972794 Os
atom 1.7403312558266237 3.0139239704267693 21.6754086531429095 Os
atom -1.7398291676050448 11.0510156648241580 15.9923300074331394 Os
atom 0.0002220244696807 4.0185615183554244 18.8338721145703474 Os
atom 4.5298231170447760 0.6059488464022195 16.9846472843691849 O
atom 8.7005784051319814 1.8020714776509097 16.9846445256058658 O
atom 0.6908379030737043 9.6476639473512655 16.9846364883232539 O
atom 6.9605249323915599 0.0000160780515701 18.6984555653523756 O
atom 2.4309470185209219 11.4497233157658993 17.8415425430191021 O
atom -1.7398091534576596 10.2535947118506243 17.8415482174109954 O
atom 6.2699333638592876 2.4080005724068330 17.8415580675613157 O
atom 6.9604751304198338 0.0000231482419407 16.1277358958822710 O
atom 3.4803884229947832 0.0000210722642130 21.6754083153778510 Os
atom -1.7397798822801291 9.0417558701320058 21.6754076196781824 Os
atom -5.2199448312778900 9.0417539105373823 21.6754076976175760 Os
atom -3.4798862640578427 10.0463836649944085 18.8338684945641006 Os
atom 1.0497136547366464 6.6337694906951494 16.9846472381697851 O
atom 5.2204722167142430 7.8298948367775374 16.9846404725723445 O
atom 4.1709523858515789 3.6198502187596988 16.9846335322637856 O
atom 3.4804090495282285 6.0278331951073554 18.6984540469542253 O
atom 5.9110617841434197 5.4219048025054404 17.8415431780795899 O
atom 1.7403012422275237 4.2257764762169074 17.8415460061631350 O
atom 2.7898223600641185 8.4358256094569271 17.8415558678526516 O
atom 3.4803592404782608 6.0278379505302846 16.1277348797804194 O
atom 3.4803860895328325 4.0185590321270626 18.8338673081409524 Os
atom 5.2204427546126642 1.0046477444639541 18.8338662775643542 Os
atom 1.7402851171228668 1.0046459399729080 18.8338698830658267 Os
atom 3.4803323070422172 2.0092937757947693 15.9923254377347064 Os
atom 1.0497155709497639 2.6152164297311655 19.8261901506751919 O
atom 5.2204718207294825 3.8113458134019047 19.8261868953799123 O
atom -2.7892671115471979 11.6569393853654919 19.8261787888042562 O
atom 3.4804161842335155 2.0092907812347716 21.5399963416536373 O
atom 5.9110620810961425 1.4033588491497166 20.6830833424036840 O
atom 1.7403045161342776 0.2072314414093984 20.6830907950427481 O
atom 2.7898241278240796 4.4172763819472545 20.6831021232145780 O
atom 3.4803647205364512 2.0092892496426291 18.9692788834515937 O
atom -3.4799412345381247 8.0371089781312168 15.9923254636977816 Os
atom -1.7398861533294676 5.0232040509855560 15.9923273660667746 Os
atom 1.7403862192831538 9.0417564784183302 21.6754056480232258 Os
atom 3.4804425237399745 10.0463846162209478 18.8338642799221425 Os
atom 8.0100447406753066 6.6337704704930349 16.9846496803613398 O
atom -1.7398574196024148 7.8298980170266024 16.9846432553884910 O
atom 11.1312809686063456 3.6198491083360187 16.9846334687729623 O
atom -3.4799204736434515 6.0278359426136987 18.6984583308806123 O
atom -1.0492677955986511 5.4219078112906427 17.8415470001259635 O
atom 8.7006350858809078 4.2257795707273305 17.8415467278314068 O
atom -4.1705047094705039 8.4358293244978473 17.8415559082378365 O
atom -3.4799686563606955 6.0278399958412381 16.1277376856799073 O
atom 10.4407189361932602 4.0185616571594300 18.8338725620156922 Os
atom 12.1807771215434908 1.0046507001694855 18.8338699033011423 Os
atom 8.7006089835105467 1.0046528434843984 18.8338696521691205 Os
atom 3.4804417671253578 6.0278376218394936 21.6754084799322158 Os
atom 8.0100463457817952 2.6152211899099473 19.8261930893875480 O
atom -1.7398583388186186 3.8113513288352499 19.8261922705006697 O
atom 4.1710623268111275 11.6569413163867655 19.8261772934771585 O
atom 10.4407518522428209 2.0092922019217396 21.5400013299295345 O
atom 12.8713962712510224 1.4033636542200461 20.6830858076663766 O
atom 8.7006368253672033 0.2072349890822858 20.6830913954772448 O
atom 9.7501592089496203 4.4172814891187571 20.6831068343637803 O
atom 10.4406953963611056 2.0092904090723218 18.9692824110642277 O
atom 6.9606136033549131 10.0463839262577626 18.8338662399907157 Os
atom 8.7006639681686071 7.0324845390609676 18.8338654288407596 Os
atom 5.2204920470351892 7.0324762271510943 18.8338603164511298 Os
atom 6.9605544962687613 0.0000208068992137 21.6754061820655721 Os
atom 4.5299387431704625 8.6430468107394685 19.8261905201520108 O
atom -5.2199661889465601 9.8391737285854219 19.8261874669233329 O
atom 7.6511743771166643 5.6291257343573085 19.8261718028671723 O
atom 6.9606339329141260 8.0371122747032455 21.5399981025860008 O
atom 9.3912843694223369 7.4311868419094971 20.6830836772468487 O
atom 5.2205246123952129 6.2350578011832596 20.6830870364879615 O
atom 6.2700477949751932 10.4451030233962410 20.6830983126746553 O
atom 6.9605784740356560 8.0371143724520397 18.9692738605421383 O
atom 0.0001700379524314 2.0092855577418876 15.9923257581477358 Os
atom -5.2199939186534010 11.0510091328458078 15.9923270658323133 Os
atom 5.2205009353984950 11.0510121008194044 15.9923269417125447 Os
atom 6.9605535204682276 4.0185595260990405 18.8338671493572036 Os
atom 11.4901583607518578 0.6059450741713889 16.9846500383057162 O
atom 1.7402547367895613 1.8020712285881857 16.9846486074232104 O
atom 7.6511740589224182 9.6476614692601999 16.9846343694166890 O
atom 0.0001971840341012 0.0000147063241171 18.6984590640734538 O
atom -4.5293739275018927 11.4497208335695699 17.8415418385863234 O
atom 5.2205270165627047 10.2535945117868721 17.8415490256687015 O
atom -0.6903941157922251 2.4080019114461306 17.8415605155013672 O
atom 0.0001467031911898 0.0000132686221736 16.1277378415411476 O
atom 0.0002756584984350 2.0093014664469933 24.5169494669794119 Os
atom -5.2198907800411343 11.0510320103584281 24.5169476569842573 Os
atom 5.2206043002775031 11.0510344312777953 24.5169467765345104 Os
atom 11.4902663784012500 0.6059610522689712 25.5092754387579035 O
atom 1.7403621392337467 1.8020920362614192 25.5092672759721353 O
atom 7.6512809805538096 9.6476809297188364 25.5092569870454895 O
atom 0.0002499054195189 0.0000319615890646 24.6523577283280844 O
atom -1.7398273291391002 3.0139310085986941 21.6754133498368198 Os
atom 6.9606641261515376 8.0371150072183113 24.5169554569740242 Os
atom -2.4303971228154051 4.6245023352651069 22.6677306267728653 O
atom 1.7403581652718056 5.8206249665138028 22.6677278680095426 O
atom 0.6908397415396560 1.6105792911258008 22.6677198307269379 O
atom 0.0003046925313835 4.0185695669144605 24.3815389077560596 O
atom 2.4309488569868658 3.4126386595404385 23.5246258854227932 O
atom 12.1808550265503364 2.2165100556251600 23.5246315598146722 O
atom -0.6902868760008908 6.4265540612697256 23.5246414099649996 O
atom 0.0002548905596530 4.0185766371048279 21.8108192382859549 O
atom 10.4407779159501466 2.0092990087689464 24.5169518369677775 Os
atom -5.9105065851235290 10.6523229795580363 22.6677305805734726 O
atom -1.7397480231459375 11.8484483256404278 22.6677238149760214 O
atom -2.7892678540086036 7.6384037076225892 22.6677168746674660 O
atom -3.4798111903319411 10.0463866839702458 24.3815373893579022 O
atom -1.0491584557167646 9.4404582913683281 23.5246265204832667 O
atom 8.7007433439093731 8.2443299650797979 23.5246293485668190 O
atom 2.7898241985300647 0.3987409532314726 23.5246392102563391 O
atom -3.4798609993819123 10.0463914393931741 21.8108182221840963 O
atom -3.4798341503273469 8.0371125209899574 24.5169506505446364 Os
atom -1.7397774852475163 5.0232012333268417 24.5169496199680452 Os
atom 8.7007272188047260 5.0231994288358006 24.5169532254695071 Os
atom -3.4798879328179591 6.0278472646576589 21.6754087801383868 Os
atom 8.0101576726316335 6.6337699185940533 25.5092734930788794 O
atom -1.7397484191306882 7.8298993022647947 25.5092702377835963 O
atom 11.1313970684607906 3.6198547291400294 25.5092621312079331 O
atom -3.4798555193237299 6.0278427385055169 24.6523622258552777 O
atom 10.4407229454698562 0.0000243219057547 21.6754088061014585 Os
atom 5.2205559483523976 9.0417575398484491 21.6754107084704586 Os
atom 3.4804443622059256 2.0092999599954866 24.5169476223258158 Os
atom 1.0498245008151270 10.6523239593559200 22.6677330227650202 O
atom 5.2205846820794424 11.8484515058894893 22.6677265977921749 O
atom 4.1710607287461610 7.6384025971989056 22.6677168111766463 O
atom 3.4805216280384035 10.0463894314765891 24.3815416732842962 O
atom 5.9111743060832058 9.4404613001535296 23.5246303425296475 O
atom 1.7404148460207280 8.2443330595902200 23.5246300702350908 O
atom 9.7501594705374917 0.3987446682723839 23.5246392506415134 O
atom 3.4804734453211639 10.0463934847041312 21.8108210280835912 O
atom 3.4804986963330879 8.0371151460223142 24.5169559044193761 Os
atom 5.2205568816833132 5.0232041890323780 24.5169532457048263 Os
atom 1.7403887436503696 5.0232063323472884 24.5169529945728044 Os
atom 1.0498261059216212 6.6337746787728342 25.5092764317912355 O
atom 5.2205837628632388 7.8299048176981456 25.5092756129043607 O
atom 4.1710641652770732 3.6198566601613016 25.5092606358808354 O
atom 3.4804751565009240 6.0278438979352122 24.6523657534679046 O
atom 6.9606154418208623 2.0092992700323036 24.5169495823943961 Os
atom 1.7404437283084293 11.0510380279238607 24.5169487712444436 Os
atom -1.7397281928249904 11.0510297160139839 24.5169436588548137 Os
atom 4.5299405816364109 0.6059621545140075 25.5092738625557018 O
atom 8.7006979910614319 1.8020890723599645 25.5092708093270133 O
atom 0.6909541372564764 9.6476792232201962 25.5092551452708562 O
atom 6.9605803125016017 0.0000297162265795 24.6523572029458151 O
atom 6.9606121396342928 6.0278390466047780 21.6754091005514198 Os
atom 8.7006702613545759 3.0139244766203435 21.6754104082359973 Os
atom 5.2205027738644487 3.0139274445939441 21.6754102841162251 Os
atom 0.0003332806080440 8.0371130149619336 24.5169504917608805 Os
atom 4.5299381208916740 4.6244985630342761 22.6677333807093930 O
atom 8.7006968384714174 5.8206247174510732 22.6677319498268943 O
atom 7.6511758973883746 1.6105768130347378 22.6677177118203659 O
atom 6.9606392857159678 4.0185681951870098 24.3815424064771378 O
atom 9.3912902525060957 3.4126361773441087 23.5246251809900002 O
atom 5.2205288550286530 2.2165098555614109 23.5246323680723819 O
atom 6.2700479858896445 6.4265554003090184 23.5246438579050476 O
atom 6.9605888048730513 4.0185667574850639 21.8108211839448245 O
