#===============================================================================
# Created using the Atomic Simulation Environment (ASE)

# Mon Mar 23 14:01:07 2026

#=======================================================
lattice_vector 9.8433162200001281 0.0000000000000000 0.0000000000000000 
lattice_vector -0.0000031600105307 9.8433818399996227 0.0000000000000000 
lattice_vector 0.0000000000000000 0.0000000000000000 31.4842292777810258 
atom 2.4608320549949498 2.4608361949927691 15.7421107149216155 Os
atom 9.8433120899861439 9.8433786799916430 15.7421135549217510 Os
atom 7.3824879349942618 2.4608407749923509 15.7421128549217215 Os
atom 1.7187373669093962 0.7420993269851287 15.0000000000000000 O
atom 0.7420911119061859 3.2029481602186962 15.0000028720625735 O
atom 1.7187395469028701 5.6637980469855114 15.0000011600002523 O
atom 0.7420865619009616 8.1246389202180840 15.0000010420625429 O
atom 6.6403955669090733 0.7421016369850862 15.0000020000000731 O
atom 5.6637473119070281 3.2029434102184466 15.0000008820624160 O
atom 6.6403930469026813 5.6637996369847832 15.0000007300002736 O
atom 5.6637387219006863 8.1246410402171332 15.0000008920625518 O
atom 4.1795695680813969 1.7187381197659883 16.4842292777810258 O
atom 3.2029218230800272 4.1795757129994442 16.4842276398432475 O
atom 2.4608253749878553 7.3825380849915234 15.7421191249218850 Os
atom 0.0000001399901524 4.9216947399922297 15.7421147349219694 Os
atom 4.1795659180763041 6.6404280797655364 16.4842268677809756 O
atom 3.2029170630731030 9.1012769829987512 16.4842273998435189 O
atom 4.9216538899856799 9.8433810599915628 15.7421158449218126 Os
atom 9.1012251080818292 1.7187358497655958 16.4842285977809340 O
atom 8.1245762730787572 4.1795841029989047 16.4842260098434608 O
atom 7.3824774049870161 7.3825438449906269 15.7421163349219952 Os
atom 4.9216589199918515 4.9216844999923124 15.7421156349216815 Os
atom 9.1012191580750663 6.6404362497647904 16.4842256377811722 O
atom 8.1245737230728299 9.1012790329984945 16.4842283698435708 O
