#===============================================================================
# Created using the Atomic Simulation Environment (ASE)

# Mon Mar 23 14:01:10 2026

#=======================================================
lattice_vector 9.0245745700181317 0.0000000000000000 0.0000000000000000 
lattice_vector -0.0000361800215085 9.0245852999456080 0.0000000000000000 
lattice_vector 0.0000000000000000 0.0000000000000000 44.4599678000000011 
atom -0.0000332900110248 9.0245800699514014 18.2133244599999990 Os
atom 1.3914457408577661 1.3914232891928298 18.2133249200000016 O
atom 9.0245717200162670 0.0000009299942871 15.0000005000000023 Os
atom 2.2561459975098246 2.2561410025092536 16.6066634200000003 Os
atom 1.3914393908613145 1.3914215191801012 15.0000014999999998 O
atom 3.6475632966864375 0.8647033516394799 16.6066709399999972 O
atom 0.8646910483636203 3.6475634833035566 16.6066670400000014 O
atom 3.1208561641946164 3.1208423858455423 15.0000010000000010 O
atom 9.0245532749959505 4.5122983499663789 18.2133248300000012 Os
atom -0.0000162650101328 4.5122923399764625 15.0000000000000000 Os
atom 2.2561033124414203 6.7684624124327568 16.6066659599999973 Os
atom 1.3913790057611781 5.9037587590681229 15.0000006500000005 O
atom 3.6475545516240859 5.3770217416310162 16.6066557499999981 O
atom 0.8646861932950555 8.1598849733028906 16.6066601999999968 O
atom 3.1207829690729714 7.6331903557078871 15.0000005199999968 O
atom 4.5122511799916971 9.0245832349457569 18.2133248200000004 Os
atom 7.6331642142419778 3.1208232808871670 18.2133252399999996 O
atom 4.5122865400060688 0.0000014949985066 15.0000000399999998 Os
atom 6.7684373075565443 2.2561222175173219 16.6066648599999986 Os
atom 5.9037496909136866 1.3913999142262352 15.0000015599999976 O
atom 8.1598558867005853 0.8647008166501141 16.6066690000000001 O
atom 5.3769831883806125 3.6475595283132889 16.6066606499999985 O
atom 7.6331682442424782 3.1208230308952452 15.0000019199999990 O
atom 4.5122699850014882 4.5122910649743870 15.0000008300000012 Os
atom 6.7683900724858947 6.7684447474317047 16.6066657899999974 Os
atom 5.9036881558085597 5.9037396441119521 15.0000004099999984 O
atom 8.1598443716316584 5.3770224866360978 16.6066586799999989 O
atom 5.3769765433040311 8.1598850183090352 16.6066653499999966 O
atom 7.6330882091266865 7.6331680807438786 15.0000011399999984 O
atom -0.0000332900110248 9.0245800699514014 24.6399728900000028 Os
atom 2.2561446675106263 2.2561406025065880 19.8199876599999989 Os
atom 1.3914457408577661 1.3914232891928298 24.6399733500000018 O
atom 3.6475619066867182 0.8647032116366937 19.8199786800000020 O
atom 0.8646910983638411 3.6475633733036572 19.8199824099999979 O
atom 3.1208489641921711 3.1208436058311100 18.2133256900000013 O
atom 9.0245717200162670 0.0000009299942871 21.4266489300000025 Os
atom 2.2561459975098246 2.2561410025092536 23.0333118500000005 Os
atom 1.3914393908613145 1.3914215191801012 21.4266499300000000 O
atom 3.6475632966864375 0.8647033516394799 23.0333193700000010 O
atom 0.8646910483636203 3.6475634833035566 23.0333154700000016 O
atom 3.1208561641946164 3.1208423858455423 21.4266494300000012 O
atom 9.0245532749959505 4.5122983499663789 24.6399732599999979 Os
atom 2.2561022624402174 6.7684630124306526 19.8199861099999985 Os
atom 1.3913713457512560 5.9037637090527699 18.2133267300000021 O
atom 3.6475534316211395 5.3770232116287708 19.8199964800000004 O
atom 0.8646855432950556 8.1598849733015868 19.8199894399999970 O
atom 3.1207888490599225 7.6331968657196736 18.2133268000000008 O
atom -0.0000162650101328 4.5122923399764625 21.4266484300000002 Os
atom 2.2561033124414203 6.7684624124327568 23.0333143900000010 Os
atom 1.3913790057611781 5.9037587590681229 21.4266490800000007 O
atom 3.6475545516240859 5.3770217416310162 23.0333041800000018 O
atom 0.8646861932950555 8.1598849733028906 23.0333086300000005 O
atom 3.1207829690729714 7.6331903557078871 21.4266489500000006 O
atom 4.5122511799916971 9.0245832349457569 24.6399732500000006 Os
atom 6.7684387475579664 2.2561215075202092 19.8199871099999996 Os
atom 5.9037509709323892 1.3913905842288010 18.2133255399999996 O
atom 8.1598562067019280 0.8647001466507552 19.8199807099999994 O
atom 5.3769850083827793 3.6475584483169374 19.8199916499999986 O
atom 7.6331642142419778 3.1208232808871670 24.6399736700000034 O
atom 4.5122865400060688 0.0000014949985066 21.4266484699999999 Os
atom 6.7684373075565443 2.2561222175173219 23.0333132900000024 Os
atom 5.9037496909136866 1.3913999142262352 21.4266499900000014 O
atom 8.1598558867005853 0.8647008166501141 23.0333174300000003 O
atom 5.3769831883806125 3.6475595283132889 23.0333090800000022 O
atom 7.6331682442424782 3.1208230308952452 21.4266503500000027 O
atom 4.5122698549988804 4.5122923649741269 18.2133272200000000 Os
atom 6.7683912024849127 6.7684452374339683 19.8199860099999974 Os
atom 5.9036885358118472 5.9037380041127125 18.2133269299999974 O
atom 8.1598444616304562 5.3770230866362789 19.8199907999999994 O
atom 5.3769767133057149 8.1598841783093761 19.8199842999999980 O
atom 7.6330947691398565 7.6331615107570281 18.2133259199999991 O
atom 4.5122699850014882 4.5122910649743870 21.4266492600000014 Os
atom 6.7683900724858947 6.7684447474317047 23.0333142200000012 Os
atom 5.9036881558085597 5.9037396441119521 21.4266488400000021 O
atom 8.1598443716316584 5.3770224866360978 23.0333071100000026 O
atom 5.3769765433040311 8.1598850183090352 23.0333137800000003 O
atom 7.6330882091266865 7.6331680807438786 21.4266495700000021 O
atom 2.2561446675106263 2.2561406025065880 26.2466360900000026 Os
atom 3.6475619066867182 0.8647032116366937 26.2466271100000021 O
atom 0.8646910983638411 3.6475633733036572 26.2466308400000017 O
atom 3.1208489641921711 3.1208436058311100 24.6399741200000015 O
atom 9.0245717200162670 0.0000009299942871 27.8532973600000027 Os
atom 2.2561459975098246 2.2561410025092536 29.4599602800000007 Os
atom 1.3914393908613145 1.3914215191801012 27.8532983600000001 O
atom 3.6475632966864375 0.8647033516394799 29.4599678000000047 O
atom 0.8646910483636203 3.6475634833035566 29.4599639000000018 O
atom 3.1208561641946164 3.1208423858455423 27.8532978600000014 O
atom 2.2561022624402174 6.7684630124306526 26.2466345400000023 Os
atom 1.3913713457512560 5.9037637090527699 24.6399751600000023 O
atom 3.6475534316211395 5.3770232116287708 26.2466449100000006 O
atom 0.8646855432950556 8.1598849733015868 26.2466378700000007 O
atom 3.1207888490599225 7.6331968657196736 24.6399752300000010 O
atom -0.0000162650101328 4.5122923399764625 27.8532968600000004 Os
atom 2.2561033124414203 6.7684624124327568 29.4599628200000048 Os
atom 1.3913790057611781 5.9037587590681229 27.8532975100000009 O
atom 3.6475545516240859 5.3770217416310162 29.4599526100000055 O
atom 0.8646861932950555 8.1598849733028906 29.4599570599999971 O
atom 3.1207829690729714 7.6331903557078871 27.8532973800000008 O
atom 6.7684387475579664 2.2561215075202092 26.2466355399999998 Os
atom 5.9037509709323892 1.3913905842288010 24.6399739700000033 O
atom 8.1598562067019280 0.8647001466507552 26.2466291400000031 O
atom 5.3769850083827793 3.6475584483169374 26.2466400800000024 O
atom 4.5122865400060688 0.0000014949985066 27.8532969000000001 Os
atom 6.7684373075565443 2.2561222175173219 29.4599617199999990 Os
atom 5.9037496909136866 1.3913999142262352 27.8532984200000016 O
atom 8.1598558867005853 0.8647008166501141 29.4599658600000005 O
atom 5.3769831883806125 3.6475595283132889 29.4599575099999988 O
atom 7.6331682442424782 3.1208230308952452 27.8532987800000029 O
atom 4.5122698549988804 4.5122923649741269 24.6399756500000002 Os
atom 6.7683912024849127 6.7684452374339683 26.2466344400000011 Os
atom 5.9036885358118472 5.9037380041127125 24.6399753600000011 O
atom 8.1598444616304562 5.3770230866362789 26.2466392300000031 O
atom 5.3769767133057149 8.1598841783093761 26.2466327300000017 O
atom 7.6330947691398565 7.6331615107570281 24.6399743500000028 O
atom 4.5122699850014882 4.5122910649743870 27.8532976900000016 Os
atom 6.7683900724858947 6.7684447474317047 29.4599626499999978 Os
atom 5.9036881558085597 5.9037396441119521 27.8532972699999988 O
atom 8.1598443716316584 5.3770224866360978 29.4599555399999993 O
atom 5.3769765433040311 8.1598850183090352 29.4599622100000040 O
atom 7.6330882091266865 7.6331680807438786 27.8532980000000023 O
