#===============================================================================
# Created using the Atomic Simulation Environment (ASE)

# Mon Mar 23 14:01:07 2026

#=======================================================
lattice_vector 13.9206623415420374 0.0000000000000000 0.0000000000000000 
lattice_vector -0.0000018384659456 9.8433818399999584 0.0000000000000000 
lattice_vector 0.0000000000000000 0.0000000000000000 47.0419319713041801 
atom 6.9604424128056630 0.0000033400167207 15.6905921398242469 Os
atom 10.4406068243890040 0.0000010550165287 15.6905914963667357 Os
atom 12.8712801855376533 6.6404336520072462 15.6905832108775165 O
atom 8.7005196436217531 5.6637976902426344 15.0000000000000000 O
atom 10.4406044909270594 4.9216880250161079 15.6905895164795481 Os
atom 12.8712804824903682 1.7187406420067632 15.6905798874808831 O
atom 8.7005229175285113 0.7421027602430050 15.0000009828601932 O
atom 5.9109506057955832 6.6404339020080423 15.6905880686883918 O
atom 1.7401911457330967 5.6637998002432006 15.0000023758572034 O
atom 5.9109523311032195 1.7187431420076853 15.6905846745693971 O
atom 1.7401928852194013 0.7421053102434498 15.0000035213641247 O
atom 0.0001105561209603 0.0000020700163175 15.6905896013165389 Os
atom 0.0001095803204246 4.9216885200163007 15.6905896720282669 Os
atom 6.9604940598926639 0.0000052650248748 19.1707587076763808 Os
atom 8.7005478612132769 7.3825438050206200 17.4306755828631772 Os
atom 5.2203805999898742 7.3825462900205547 17.4306762616987108 Os
atom 0.0002221729454863 0.0000052000334634 22.6509231965739808 Os
atom 4.5298205997874996 8.1246447880346899 19.1707696094395850 O
atom 8.7005787021620336 9.1012859997986979 19.8613499989797866 O
atom 7.6510572802661789 5.6638023870113097 17.4306667384371501 O
atom 6.9605189715041034 6.6404433052552720 20.2202495656825540 O
atom 9.3911690544455961 6.6404358620155381 19.1707488453262833 O
atom 5.2204080882939241 5.6638070102513707 18.4801692689800525 O
atom 6.2699290858992001 9.1012836530382621 20.9108491212723209 O
atom 6.9604664683478008 8.1246479747941596 18.1212659051248686 O
atom 6.9604919810107511 4.9217035250248591 19.1707595703549138 Os
atom 8.7005496572208525 2.4608413650200713 17.4306707038209403 Os
atom 5.2203910722551381 2.4608444000217804 17.4306786021474913 Os
atom 6.9604404258639150 4.9216872800169655 15.6905948763369345 Os
atom 4.5298212785788357 3.2029548280342635 19.1707664416029964 O
atom 8.7005765666660366 4.1795860997979544 19.8613464210450168 O
atom 7.6510581429338842 0.7421041070113670 17.4306670637077019 O
atom 6.9605230939256106 1.7187445752554926 20.2202488231959485 O
atom 9.3911672583811026 1.7187435720151762 19.1707478978250201 O
atom 5.2204110864025299 0.7421057402512623 18.4801668506596783 O
atom 6.2699315253933419 4.1795853230381041 20.9108467241692075 O
atom 6.9604732919538872 3.2029571347952599 18.1212698578047160 O
atom 3.4803865845288269 0.0000029150332707 22.6509225531164695 Os
atom 5.2204385191141007 7.3825442850292902 20.9108427941460420 Os
atom 1.7402735701163394 7.3825426400292065 20.9108417264099558 Os
atom 3.4803339758023366 0.0000018900254577 19.1707592238209372 Os
atom 8.0099320561308751 8.1246461280261340 15.6906017829567297 O
atom 12.1806906181084766 9.1012819297899039 16.3811800582447127 O
atom 4.1709505473856421 5.6638020270201288 20.9108332638057597 O
atom 10.4406274509224648 6.6404338452463323 16.7400809260520624 O
atom 5.9110599456774864 6.6404355120239886 22.6509142676272504 O
atom 1.7402994037615751 5.6637995502593768 21.9603310567497338 O
atom 9.7500407614583473 9.1012814530299355 17.4306828433520415 O
atom 3.4803574020123191 8.1246460848027198 21.6014320911010209 O
atom 3.4803842510668836 4.9216898850328512 22.6509205732292820 Os
atom 5.2204409161467140 2.4608431250285334 20.9108359564130630 Os
atom 1.7402832786569153 2.4608395700295311 20.9108378584674419 Os
atom 3.4803304685762737 4.9216984500254997 19.1707615148667792 Os
atom 8.0099339723439922 3.2029457280255560 15.6905965998573471 O
atom 12.1806902221237134 4.1795827997898023 16.3811800723984327 O
atom 4.1709531283129770 0.7421036070201825 20.9108323516257677 O
atom 10.4406345856277429 1.7187424952469950 16.7400813856220019 O
atom 5.9110602426301950 1.7187425020235061 22.6509109442306134 O
atom 1.7403026776683372 0.7421046202597478 21.9603320396099271 O
atom 9.7500425292183177 4.1795822530300049 17.4306826029300801 O
atom 3.4803628820705033 3.2029486148029278 21.6014303162275318 O
atom 3.4802790053220503 0.0000034250171422 15.6905937732235436 Os
atom 12.1807743497466276 7.3825438650301907 20.9108462801453996 Os
atom 8.7006046206773799 7.3825459200291697 20.9108415354916382 Os
atom 10.4406627636001534 0.0000051000248485 19.1707563317727683 Os
atom 1.0496008005274993 8.1246455180264689 15.6906043426840363 O
atom 5.2203609817918153 9.1012829197905951 16.3811841665227540 O
atom 11.1312791301403990 5.6638011570197966 20.9108325708618530 O
atom 3.4802979277507817 6.6404336152471668 16.7400860101367250 O
atom 12.8713927074774421 6.6404357620247856 22.6509191254381257 O
atom 8.7006332474149630 5.6638016602599430 21.9603334326069337 O
atom 2.7897136919237382 9.1012844630306091 17.4306850212078395 O
atom 10.4406918467154046 8.1246461348034877 21.6014355629692254 O
atom 3.4802749960454604 4.9216871350170388 15.6905953218129852 Os
atom 12.1807752830775424 2.4608434450294565 20.9108406232923052 Os
atom 8.7006071450446072 2.4608453400293562 20.9108416556882979 Os
atom 10.4406601685195888 4.9216907500245863 19.1707557024617863 Os
atom 1.0496024056339939 3.2029479180262070 15.6906017475975794 O
atom 5.2203600625756117 4.1795841997909084 16.3811876455038110 O
atom 11.1312825666713113 0.7421060470200082 20.9108322455732321 O
atom 3.4803079120950069 1.7187407752480681 16.7400862787653217 O
atom 12.8713944327850793 1.7187450020244281 22.6509157313191274 O
atom 8.7006349869012620 0.7421071702601926 21.9603345781138621 O
atom 2.7897152688018156 4.1795837030312768 17.4306893981948896 O
atom 10.4406935578951607 3.2029475248033554 21.6014338659076621 O
atom 0.0001715016730554 0.0000034050255219 19.1707575338107397 Os
atom 1.7402200280208067 7.3825480750215187 17.4306799668980545 Os
atom 12.1807104484294246 7.3825442400197279 17.4306709937640036 Os
atom 6.9605526578028263 0.0000039300330602 22.6509206580662728 Os
atom 11.4901571445647015 8.1246465980351044 19.1707689588582859 O
atom 1.7402522124476711 9.1012815397992899 19.8613511727403385 O
atom 0.6907304369688583 5.6638020570113818 17.4306642493868402 O
atom 0.0001899927663155 6.6404353052555010 20.2202497495139148 O
atom 2.4308404292745256 6.6404395820160413 19.1707508393466242 O
atom 12.1807430137894421 5.6638027302515059 18.4801676496761722 O
atom 13.2302661963694295 9.1012824830388510 20.9108493899257191 O
atom 0.0001345338878521 8.1246464447938607 18.1212641797906144 O
atom 0.0001681994864874 4.9216915550252116 19.1707570317842837 Os
atom 1.7402263212067761 2.4608407650210329 17.4306724290991291 Os
atom 12.1807211752586788 2.4608432600210701 17.4306740413174204 Os
atom 6.9605516820022872 4.9216903800330432 22.6509207287780008 Os
atom 11.4901565222859094 3.2029501580346542 19.1707665122818405 O
atom 1.7402528983236150 4.1795835397990810 19.8613496100371592 O
atom 0.6907319572405636 0.7421033070114103 17.4306639029007719 O
atom 0.0001953455681576 1.7187414352560881 20.2202508879209013 O
atom 2.4308463123582866 1.7187419520158631 19.1707458895604965 O
atom 12.1807472564228885 0.7421051102518011 18.4801673950921455 O
atom 13.2302663872838746 4.1795850030388211 20.9108494959984235 O
atom 0.0001448647252427 3.2029479447949658 18.1212657424226116 O
atom 0.0002738200324856 0.0000071250416175 26.1310897644261040 Os
atom 1.7403276213531094 7.3825456650373633 24.3910066396129110 Os
atom 12.1808227016717385 7.3825481500372980 24.3910073184484411 Os
atom 6.9606642746273488 0.0000070600502061 29.6112542533237182 Os
atom 11.4902627014693657 8.1246466480514332 26.1311006661893188 O
atom 1.7403584623018542 9.1012878598154394 26.8216810557295169 O
atom 0.6908370404060040 5.6638042470280530 24.3909977951868804 O
atom 0.0002987316439254 6.6404451652720144 27.1805806224322843 O
atom 2.4309488145854212 6.6404377220322797 26.1310799020760207 O
atom 12.1808501899757875 5.6638088702681131 25.4405003257297864 O
atom 13.2303711875810599 9.1012855130550054 27.8711801780220547 O
atom 0.0002462284876260 8.1246498348109011 25.0815969618745989 O
atom 0.0002717411505794 4.9217053850416024 26.1310906271046441 Os
atom 1.7403294173606811 2.4608432250368142 24.3910017605706706 Os
atom 12.1808331739369997 2.4608462600385232 24.3910096588972323 Os
atom 0.0002201860037399 4.9216891400337079 22.6509259330866648 Os
atom 11.4902633802606946 3.2029566880510068 26.1310974983527231 O
atom 1.7403563268058653 4.1795879598146968 26.8216774777947471 O
atom 0.6908379030737126 0.7421059670281097 24.3909981204574287 O
atom 0.0003028540654291 1.7187464352722353 27.1805798799456788 O
atom 2.4309470185209312 1.7187454320319189 26.1310789545747539 O
atom 12.1808531880843880 0.7421076002680052 25.4404979074094122 O
atom 13.2303736270752026 4.1795871830548474 27.8711777809189378 O
atom 0.0002530520937123 3.2029589948120027 25.0816009145544463 O
atom 10.4408286862106934 0.0000047750500128 29.6112536098662069 Os
atom 12.1808806207959659 7.3825461450460326 27.8711738508957829 Os
atom 8.7007156717982017 7.3825445000459489 27.8711727831596896 Os
atom 10.4407760774842000 0.0000037500421998 26.1310902805706746 Os
atom 1.0497118162707020 8.1246479880428772 22.6509328397064635 O
atom 5.2204703782483000 9.1012837898066454 23.3415111149944501 O
atom 11.1313926490675019 5.6638038870368739 27.8711643205554900 O
atom 3.4804072110622908 6.6404357052630756 23.7004119828017927 O
atom 12.8715020473593356 6.6404373720407319 29.6112453243769771 O
atom 8.7007415054434336 5.6638014102761209 28.9206621134994641 O
atom 2.7898205215981706 9.1012833130466788 24.3910139001017718 O
atom 10.4407995036941816 8.1246479448194613 28.5617631478507512 O
atom 10.4408263527487470 4.9216917450495936 29.6112516299790052 Os
atom 12.1808830178285792 2.4608449850452763 27.8711670131628004 Os
atom 8.7007253803387776 2.4608414300462740 27.8711689152171793 Os
atom 10.4407725702581349 4.9217003100422438 26.1310925716165166 Os
atom 1.0497137324838204 3.2029475880422988 22.6509276566070774 O
atom 5.2204699822635332 4.1795846598065456 23.3415111291481594 O
atom 11.1313952299948475 0.7421054670369254 27.8711634083755051 O
atom 3.4804143457675654 1.7187443552637376 23.7004124423717322 O
atom 12.8715023443120540 1.7187443620402487 29.6112420009803436 O
atom 8.7007447793501971 0.7421064802764906 28.9206630963596574 O
atom 2.7898222893581370 4.1795841130467473 24.3910136596798104 O
atom 10.4408049837523613 3.2029504748196702 28.5617613729772692 O
atom 10.4407211070039150 0.0000052850338849 22.6509248299732775 Os
atom 5.2205541098864581 7.3825457250469322 27.8711773368951263 Os
atom 1.7403843808172088 7.3825477800459121 27.8711725922413756 Os
atom 3.4804425237399812 0.0000069600415912 26.1310873885224986 Os
atom 8.0100429022093653 8.1246473780432105 22.6509353994337665 O
atom 12.1808030834736805 9.1012847798073384 23.3415152232724843 O
atom 4.1710588902802233 5.6638030170365399 27.8711636276115904 O
atom 10.4407400294326376 6.6404354752639092 23.7004170668864553 O
atom 5.9111724676172646 6.6404376220415289 29.6112501821878560 O
atom 1.7404130075547877 5.6638035202766872 28.9206644893566640 O
atom 9.7501557936056020 9.1012863230473524 24.3910160779575769 O
atom 3.4804716068552231 8.1246479948202293 28.5617666197189557 O
atom 10.4407170977273225 4.9216889950337821 22.6509263785627191 Os
atom 5.2205550432173702 2.4608453050461989 27.8711716800420355 Os
atom 1.7403869051844261 2.4608472000460990 27.8711727124380282 Os
atom 3.4804399286594130 4.9216926100413287 26.1310867592115237 Os
atom 8.0100445073158575 3.2029497780429494 22.6509328043473097 O
atom 12.1808021642574786 4.1795860598076517 23.3415187022535449 O
atom 4.1710623268111364 0.7421079070367510 27.8711633023229659 O
atom 10.4407500137768672 1.7187426352648105 23.7004173355150520 O
atom 5.9111741929249106 1.7187468620411708 29.6112467880688648 O
atom 1.7404147470410829 0.7421090302769353 28.9206656348635924 O
atom 9.7501573704836755 4.1795855630480192 24.3910204549446235 O
atom 3.4804733180349849 3.2029493848200983 28.5617649226573924 O
atom 6.9606136033549184 0.0000052650422646 26.1310885905604735 Os
atom 8.7006621297026658 7.3825499350382611 24.3910110236477884 Os
atom 5.2204902085692479 7.3825461000364712 24.3910020505137375 Os
atom 0.0003324179426419 0.0000057900498029 29.6112517148160030 Os
atom 4.5299369047045248 8.1246484580518477 26.1311000156080162 O
atom 8.7006943141295370 9.1012833998160332 26.8216822294900759 O
atom 7.6511725386507203 5.6638039170281234 24.3909953061365705 O
atom 6.9606320944481839 6.6404371652722443 27.1805808062636522 O
atom 9.3912825309563903 6.6404414420327837 26.1310818960963616 O
atom 5.2205227739292717 5.6638045902682483 25.4404987064259061 O
atom 6.2700459565092537 9.1012843430555943 27.8711804466754494 O
atom 6.9605766355697147 8.1246483048106040 25.0815952365403447 O
atom 6.9606103011683498 4.9216934150419540 26.1310880885340211 Os
atom 8.7006684228886417 2.4608426250377757 24.3910034858488629 Os
atom 5.2205009353985012 2.4608451200378130 24.3910050980671507 Os
atom 0.0003314421421154 4.9216922400497856 29.6112517855277382 Os
atom 4.5299362824257399 3.2029520180513971 26.1310975690315708 O
atom 8.7006950000054850 4.1795853998158243 26.8216806667868859 O
atom 7.6511740589224262 0.7421051670281530 24.3909949596505093 O
atom 6.9606374472500168 1.7187432952728305 27.1805819446706316 O
atom 9.3912884140401491 1.7187438120326057 26.1310769463102339 O
atom 5.2205270165627118 0.7421069702685440 25.4404984518418793 O
atom 6.2700461474236944 4.1795868630555635 27.8711805527481538 O
atom 6.9605869664071056 3.2029498048117087 25.0815967991723454 O
atom 8.7007697230349681 7.3825475250541057 31.3513376963626378 Os
atom 5.2206024618115592 7.3825500100540404 31.3513383751981785 Os
atom 7.6512791420878701 5.6638061070447954 31.3513288519366249 O
atom 6.9606883301694857 8.1246516948276444 32.0419280186243327 O
atom 8.7007715190425419 2.4608450850535566 31.3513328173204080 Os
atom 5.2206129340768221 2.4608481200552652 31.3513407156469590 Os
atom 6.9606622876856061 4.9216910000504512 29.6112569898364022 Os
atom 7.6512800047555718 0.7421078270448525 31.3513291772071732 O
atom 6.9606951537755650 3.2029608548287447 32.0419319713041801 O
atom 8.0101539179525645 8.1246498480596188 29.6112638964561903 O
atom 12.1809124799301571 9.1012856498233887 30.3018421717441804 O
atom 10.4408493127441506 6.6404375652798189 30.6607430395515301 O
atom 9.7502626232800331 9.1012851730634221 31.3513449568515021 O
atom 8.0101558341656798 3.2029494480590412 29.6112587133568006 O
atom 12.1809120839454028 4.1795865198232880 30.3018421858978932 O
atom 10.4408564474494288 1.7187462152804802 30.6607434991214625 O
atom 9.7502643910400018 4.1795859730634906 31.3513447164295478 O
atom 3.4805008671437405 0.0000071450506276 29.6112558867230113 Os
atom 1.0498226623491871 8.1246492380599538 29.6112664561834968 O
atom 5.2205828436135029 9.1012866398240799 30.3018462800222146 O
atom 3.4805197895724662 6.6404373352806525 30.6607481236361856 O
atom 2.7899355537454169 9.1012881830640957 31.3513471347073072 O
atom 3.4804968578671418 4.9216908550505245 29.6112574353124494 Os
atom 1.0498242674556848 3.2029516380596914 29.6112638610970400 O
atom 5.2205819243973028 4.1795879198243941 30.3018497590032716 O
atom 3.4805297739166976 1.7187444952815534 30.6607483922647823 O
atom 2.7899371306234908 4.1795874230647625 31.3513515116943502 O
atom 1.7404418898424976 7.3825517950550044 31.3513420803975116 Os
atom 12.1809323102511087 7.3825479600532127 31.3513331072634678 Os
atom 0.6909522987905461 5.6638057770448667 31.3513263628863079 O
atom 0.0003563957095336 8.1246501648273455 32.0419262932900750 O
atom 1.7404481830284608 2.4608444850545181 31.3513345425985896 Os
atom 12.1809430370803646 2.4608469800545554 31.3513361548168881 Os
atom 0.6909538190622513 0.7421070270448955 31.3513260164002396 O
atom 0.0003667265469304 3.2029516648284511 32.0419278559220828 O
