#===============================================================================
# Created using the Atomic Simulation Environment (ASE)

# Mon Mar 23 14:01:11 2026

#=======================================================
lattice_vector 9.0245853000181313 0.0000000000000000 0.0000000000000000 
lattice_vector 0.0000000000000000 6.4266484300000002 0.0000000000000000 
lattice_vector 0.0000000000000000 0.0000000000000000 36.2417246433342655 
atom 9.0244776900883696 3.2133235400000006 15.8647123666828946 Os
atom 4.5121898100800157 6.4266478700000009 15.8647120116924611 Os
atom 0.8645950734082352 1.6066553200000000 15.0000003199986480 O
atom 0.8645957434088768 4.8199920399999998 15.0000000000000000 O
atom 5.3769180134045831 1.6066654100000000 15.0000066650593737 O
atom 5.3769174134047608 4.8199817200000012 15.0000065750581655 O
atom 9.0244715300768625 6.4266474999999996 15.8647181066705514 Os
atom 2.2560230175542504 1.6066622699999999 18.1208689291559608 Os
atom 1.3913091708694223 6.4266479600000004 17.2561665358143586 O
atom 0.8645800484330514 1.6066532899999999 19.5122805899775997 O
atom 3.6474513667482742 1.6066570200000003 16.7294209383050259 O
atom 3.1207225542283146 0.0000003000000000 18.9855766924688822 O
atom 2.2560234175515839 4.8199864600000000 18.1208702591567672 Os
atom 1.3913074008821509 3.2133245399999999 17.2561601858108133 O
atom 0.8645801884302650 4.8199939800000005 19.5122819799778711 O
atom 3.6474514767483739 4.8199900800000002 16.7294208883052420 O
atom 3.1207213342138815 3.2133240400000003 18.9855838924664369 O
atom 6.7683454276120578 1.6066607200000003 18.1208446142156205 Os
atom 5.9036495909913524 0.0000013400000000 17.2561102309101244 O
atom 5.3769000484228462 1.6066710900000003 19.5122902050324214 O
atom 8.1597729667322128 1.6066640500000000 16.7294334733630592 O
atom 7.6330758143216215 0.0000014100000000 18.9855346675903860 O
atom 4.5121838000699324 3.2133230400000006 15.8647170416804144 Os
atom 6.7683448276099529 4.8199889999999996 18.1208456642144142 Os
atom 5.9036446409759966 3.2133236900000002 17.2561178909001995 O
atom 5.3768985784205992 4.8199787900000004 19.5122913250294800 O
atom 8.1597729667309089 4.8199832400000000 16.7294341233630561 O
atom 7.6330693043334090 3.2133235600000001 18.9855287875773300 O
atom 9.0244566050932615 6.4266478600000001 20.3770025766497014 Os
atom 3.6474283517457486 1.6066662599999999 21.2417148482679607 O
atom 9.0244601650949061 3.2133230799999999 20.3770017566568313 Os
atom 3.6474294317493969 4.8199836899999999 21.2417130282701194 O
atom 4.5121657350830215 0.0000018300000000 20.3770031616532634 Os
atom 8.1597540817351781 1.6066589100000002 21.2417246433342655 O
atom 4.5121644350827630 3.2133238700000000 20.3770032916506665 Os
atom 8.1597549217355212 4.8199883899999998 21.2417244733359496 O
