#===============================================================================
# Created using the Atomic Simulation Environment (ASE)

# Mon Mar 23 14:01:09 2026

#=======================================================
lattice_vector 22.0103944943716279 0.0000000000000000 0.0000000000000000 
lattice_vector -8.8041042034015895 10.7828962547440934 0.0000000000000000 
lattice_vector 0.0000000000000000 0.0000000000000000 42.4701311765390486 
atom -1.1004811322236689 1.3478781356998346 15.2072177874946419 Os
atom -7.7035590566982108 9.4350525988899374 15.2072164382274089 Os
atom 13.2062932828254826 1.7971693425697060 16.2118593628338417 Os
atom 9.7998695073073527 10.2479886861200846 15.2072272107259323 O
atom 13.3112047214849003 7.7305715906866794 15.6059224843464861 O
atom 10.6734062283009976 7.8232494678781164 15.8131445307333394 O
atom 12.4376652188078580 10.1553170547864280 15.0000000000000000 O
atom -1.4323332299823697 3.3233350185601189 15.4144341216031364 O
atom 1.2054599860802016 3.2306604185848475 15.2072105361436059 O
atom 6.6032125543270066 9.8843431320708017 16.2118592015871847 Os
atom -5.8343891777441002 8.7147809459154342 15.4144309658715777 O
atom -3.1965888464766077 8.6221094350891736 15.2072123038374194 O
atom -5.5025309084325063 6.7393184032477143 15.2072179222212185 Os
atom -3.3015031850120575 4.0435930076766757 15.2072169893671472 Os
atom 14.2019261884357348 4.8565313807256691 15.2072243488998780 O
atom 17.7132615860223339 2.3391161238324498 15.6059276037691532 O
atom 15.0754627976581901 2.4317894421440536 15.8131482988665226 O
atom 16.8397230001271083 4.7638606659287905 15.0000044784696129 O
atom 9.9047216157051796 1.3478783091377371 15.2072204043334480 Os
atom 3.3016417145731070 9.4350545086220770 15.2072228395354401 Os
atom 2.2010957941347145 1.7971694922771817 16.2118576645220216 Os
atom -1.2053266352569889 10.2479904643896997 15.2072271209006686 O
atom 2.3060081361789435 7.7305698398017988 15.6059238601434132 O
atom -0.3317866898563595 7.8232437368696477 15.8131470986029932 O
atom 1.4324707712132421 10.1553166841677509 15.0000059563269659 O
atom 9.5728686414223016 3.3233343119992256 15.4144395716922809 O
atom 12.2106623136387018 3.2306625583499726 15.2072140960338551 O
atom -4.4019872330727621 9.8843428563742162 16.2118523879387872 Os
atom 5.1708106633081741 8.7147832007089043 15.4144347094879066 O
atom 7.8086091922924172 8.6221150109033537 15.2072125242738494 O
atom 5.5026704531401549 6.7393221916567443 15.2072200246669063 Os
atom 7.7036995539820303 4.0435933107459148 15.2072211697966573 Os
atom -2.2009559900505016 7.1886111784351012 16.2118593546830851 Os
atom 3.1967289770561149 4.8565364672489233 15.2072271494710911 O
atom 6.7080651482751330 2.3391155523666654 15.6059247827700389 O
atom 4.0702683902905088 2.4317915052279395 15.8131494337752727 O
atom 5.8345283289034704 4.7638616646069050 15.0000060747029593 O
atom 12.1058117346950453 3.1450462349423365 19.2257816557768990 Os
atom 14.3068380136220945 0.4493244433883460 19.2257803065096660 Os
atom 11.0052629923859620 0.0000347336207614 18.2211384290506260 Os
atom 4.4021916553725715 3.5943374418122089 20.2304232311160987 Os
atom 9.7998720832560320 1.2622605306184955 19.2257910790081858 O
atom 0.3319238554162477 1.1625487555303013 16.6105710269429494 O
atom 4.5071030940319865 9.5277396899291844 19.6244863526287432 O
atom 11.7739550753554987 9.6133741990992370 17.4237125856367179 O
atom -7.5986406530188173 9.5206945637246481 17.2164935153823926 O
atom 1.8693046008480843 9.6204175671206187 19.8317083990155965 O
atom 19.7045205318759358 1.2552188952255319 16.8177928447248171 O
atom 12.4376677947565302 1.1695888992848356 19.0185638682822571 O
atom 12.1058090737768911 7.6379171975630724 17.2164971374161198 Os
atom 14.3068391003256945 4.9421762284150104 17.2164991031476546 Os
atom 11.0052700270915054 4.4928909369478172 16.2118657580326371 Os
atom 4.4021884891164493 8.0871960697396652 18.2211462082256404 Os
atom 9.7998715689414233 5.7551242267798530 17.2165059401143203 O
atom 13.5382136678402780 7.4525709548480030 18.6198526467665211 O
atom 13.3112058529372987 3.2377009128870715 17.6152076885727169 O
atom 11.7739596369363486 5.1205031178026204 19.4329979898853935 O
atom 14.4117528529989123 5.0278285178273494 19.2257744044258629 O
atom 10.6734102532134525 3.3303752736912440 17.8224291960630126 O
atom 10.9004198167290962 7.5452435757205265 18.8270761669146651 O
atom 12.4376708582063067 5.6624553431981370 17.0092870290487070 O
atom 16.5078655894695316 2.2464588807222672 17.2165003666578933 Os
atom 9.9047848296770287 10.3336369899287526 17.2165002380612187 Os
atom 6.6032151302756814 0.8986149765692093 20.2304230698694383 Os
atom 8.8042435737297282 2.6957520393200283 18.2211441016373854 Os
atom 14.2019248915436105 0.3636778356868491 17.2165066137127809 O
atom 17.9402706352289627 2.0611284616992602 18.6198509402469412 O
atom 8.9091568057155790 8.6291552861123240 17.6152067863114929 O
atom 7.3719036891746130 10.5119490451579374 19.4329948341538383 O
atom 10.0097040204421077 10.4192775343316750 19.2257761721196729 O
atom 6.2713579592012536 8.7218245950939792 17.8224270650052858 O
atom 15.3024714309763112 2.1538016960358402 18.8270750972924539 O
atom 16.8397194000575325 0.2710026660790722 17.0092839590530822 O
atom 7.7037619584862069 8.5364865024902166 19.2257817905034756 Os
atom 9.9047896819066548 5.8407611069191789 19.2257808576494043 Os
atom 6.6032234037239261 5.3914675996014845 18.2211452835014285 Os
atom 8.8042391060746326 7.1886218188680679 16.2118611019736250 Os
atom 5.3978245609828228 6.6536994799681715 19.2257882171821350 O
atom -4.0701263993165639 6.5539848804730267 16.6105719904260205 O
atom 8.9091599585694237 4.1362842230749521 19.6244914720514103 O
atom 16.1760123557840814 4.2219174560447392 17.4237152678176237 O
atom -3.1965870978933641 4.1292420819512019 17.2164920334427052 O
atom 6.2713611702052781 4.2289575413865554 19.8317121671487797 O
atom 15.3024710240140962 6.6466582316527880 16.8177965802019109 O
atom 8.0356213726741927 6.5610287651712937 19.0185683467518700 O
atom 1.1006199882522658 3.1450464083802396 19.2257842726157051 Os
atom 3.3016442905217822 0.4493263531204844 19.2257867078176972 Os
atom 0.0000686431488681 0.0000338316998006 18.2211395966258038 Os
atom 15.4073886610534281 3.5943375915196838 20.2304215328042787 Os
atom 20.8050704350633140 1.2622623088881095 19.2257909891829257 O
atom 11.3371243583221997 1.1625471050552429 16.6105726027660623 O
atom -6.4980934912739707 9.5277379390443020 19.6244877284256702 O
atom 0.7687572110280245 9.6133669673495881 17.4237178724725545 O
atom 3.4065575601825104 9.5206957997617998 17.2164988021892000 O
atom 12.8745061770623543 9.6204118361121509 19.8317109668852503 O
atom 8.6993281995873613 1.2552217671102914 16.8177950043227007 O
atom 1.4324733471619184 1.1695885286661591 19.0185698246092230 O
atom 1.1006152790980104 7.6379041051796452 17.2165057310528411 Os
atom 3.3016448047852656 4.9421795695261173 17.2165037571530348 Os
atom 0.0000688399288954 4.4928893449023581 16.2118621736395099 Os
atom -6.6030085121333144 8.0871963983598043 18.2211407213664032 Os
atom -1.2053238759633709 5.7551193721366074 17.2165097327416561 O
atom 2.5330185986348472 7.4525732717266138 18.6198602034241780 O
atom 2.3060119151366636 3.2377021361265022 17.6152079498293190 O
atom 0.7687670139693881 5.1205024112417270 19.4330034399745379 O
atom 3.4065606861857898 5.0278306575924763 19.2257779643161122 O
atom -0.3317849859643200 3.3303769497231555 17.8224317190217398 O
atom -0.1047754760738935 7.5452467415724787 18.8270849360690846 O
atom 1.4324733471550641 5.6624450314152055 17.0092897888327244 O
atom 5.5026738430258764 2.2464611446321912 17.2165019506236554 Os
atom -1.1004108432960329 10.3336426752876687 17.2165013892988981 Os
atom 17.6084098372475424 0.8986147008726261 20.2304162562210443 Os
atom -2.2009546260507493 2.6957511611296532 18.2211394190371365 Os
atom 3.1967309537565827 0.3636785751105531 17.2165093938624629 O
atom 6.9350743585364549 2.0611297926771286 18.6198571496946386 O
atom -2.0960384469169258 8.6291549337318756 17.6152036468712296 O
atom -3.6332909641447406 10.5119512999514075 19.4329985777701637 O
atom -0.9954924351604969 10.4192831101458570 19.2257763925561065 O
atom -4.7338377584970797 8.7218294679971304 17.8224278937289711 O
atom 4.2972780208981440 2.1538027476585184 18.8270772038286296 O
atom 5.8345211823999570 0.2710026861573889 17.0092808441242838 O
atom -3.3014311743127593 8.5364902908992466 19.2257838929491633 Os
atom -1.1004020734708828 5.8407614099884180 19.2257850380789144 Os
atom -4.4019776045253236 5.3914720416375461 18.2211438995514818 Os
atom 11.0053368768682116 8.9857792776776026 20.2304232229653422 Os
atom 16.4030218439748303 6.6537045664914247 19.2257910177533482 O
atom 6.9350733433534133 6.5539867719463283 16.6105766852622878 O
atom -2.0960364791777812 4.1362836516091681 19.6244886510522960 O
atom 5.1708157973356537 4.2219174432741235 17.4237201137208118 O
atom 7.8086167546544401 4.1292435315792062 17.2164943440858274 O
atom 17.2765612572092238 4.2289596044704405 19.8317133020575262 O
atom 4.2972760084378159 6.6466607840372705 16.8177978294226165 O
atom -2.9695732985494434 6.5610297638494073 19.0185699429852164 O
atom 3.3017101072421329 4.9422143341848397 23.2443455240591561 Os
atom 5.5027363861691763 2.2464925426308500 23.2443441747919195 Os
atom 2.2011613649330486 1.7972028328632630 22.2397022973328795 Os
atom -4.4019099720803441 5.3915055410547099 24.2489870993983558 Os
atom 0.9957704558031200 3.0594286298609972 23.2443549472904429 O
atom 13.5382167223349619 2.9597168547728052 20.6291348952252065 O
atom 4.5071056699806613 0.5420115344275906 23.6430502209110003 O
atom 11.7739576513041744 0.6276460435976468 21.4422764539189750 O
atom 14.4117564173014863 0.5349664082230569 21.2350573836646497 O
atom 1.8693071767967568 0.6346894116190263 23.8502722672978535 O
atom 10.9004189044230166 3.0523869944680335 20.8363567130070777 O
atom 3.6335661673036181 2.9667569985273397 23.0371277365645142 O
atom 3.3017074463239768 9.4350852968055747 21.2350610056983768 Os
atom 5.5027374728727789 6.7393443276575118 21.2350629714299117 Os
atom 2.2011683996385925 6.2900590361903186 20.2304296263148942 Os
atom -4.4019131383364627 9.8843641689821684 22.2397100765078974 Os
atom 0.9957699414885138 7.5522923260223545 21.2350698083965810 O
atom 4.7341120403873589 9.2497390540905045 22.6384165150487817 O
atom 4.5071042254843867 5.0348690121295734 21.6337715568549740 O
atom 2.9698580094834290 6.9176712170451236 23.4515618581676470 O
atom 5.6076512255460020 6.8249966170698517 23.2443382727081200 O
atom 1.8693086257605371 5.1275433729337472 21.8409930643452697 O
atom 2.0963181892761820 9.3424116749630279 22.8456400351969258 O
atom 3.6335692307533933 7.4596234424406394 21.0278508973309641 O
atom 7.7037639620166223 4.0436269799647686 21.2350642349401468 Os
atom 9.9047874056257044 1.3479088344271599 21.2350641063434757 Os
atom -2.2008864971772297 2.6957830758117107 24.2489869381516954 Os
atom 0.0001419462768136 4.4929201385625319 22.2397079699196425 Os
atom 5.3978232640906985 2.1608459349293532 21.2350704819950380 O
atom 9.1361690077760507 3.8582965609417665 22.6384148085291983 O
atom 0.1050551782626612 10.4263233853548289 21.6337706545937465 O
atom 7.3719062651232923 1.5262208896563458 23.4515587024360883 O
atom 10.0097065963907799 1.4335493788300850 23.2443400404019300 O
atom -2.5327436682516637 10.5189926943364807 21.8409909332875429 O
atom 6.4983698035234001 3.9509697952783420 22.8456389655747145 O
atom 8.0356177726046152 2.0681707653215762 21.0278478273353393 O
atom -1.1003396689667060 10.3336546017327215 23.2443456587857327 Os
atom 1.1006880544537443 7.6379292061616804 23.2443447259316613 Os
atom -2.2008782237289890 7.1886356988439877 22.2397091517836891 Os
atom 0.0001374786217192 8.9857899181105694 20.2304249702558820 Os
atom -3.4062770664700888 8.4508675792106729 23.2443520854643921 O
atom 9.1361664676021501 8.3511529797155291 20.6291358587082740 O
atom 0.1050583311165077 5.9334523223174536 23.6430553403336674 O
atom 7.3719107283311676 6.0190855552872415 21.4422791360998772 O
atom 10.0097057690253504 5.9264101811937042 21.2350559017249623 O
atom -2.5327404572476331 6.0261256406290578 23.8502760354310368 O
atom 6.4983693965611833 8.4438263308952894 20.8363604484841680 O
atom -0.7684802547787207 8.3581968644137952 23.0371322150341271 O
atom 14.3069128551709817 4.9422145076227411 23.2443481408979622 Os
atom 16.5079371574404981 2.2464944523629886 23.2443505760999543 Os
atom 13.2063615100675822 1.7972019309423022 22.2397034649080609 Os
atom 6.6032870336005178 5.3915056907621857 24.2489854010865358 Os
atom 12.0009688076104037 3.0594304081306110 23.2443548574651828 O
atom 2.5330227308692836 2.9597152042977446 20.6291364710483158 O
atom 15.5123035790463337 0.5420097835427118 23.6430515967079273 O
atom 0.7687597869767018 0.6276388118479943 21.4422817407548081 O
atom 3.4065601361311861 0.5349676442602095 21.2350626704714571 O
atom 12.8745087530110336 0.6346836806105571 23.8502748351675073 O
atom -0.1047734278655526 3.0523898663527955 20.8363588726049542 O
atom 14.6387662140806327 2.9667566279086608 23.0371336928914801 O
atom -7.7034863483549021 9.4350722044221467 21.2350695993350982 Os
atom -5.5024568226676482 6.7393476687686196 21.2350676254352919 Os
atom 13.2063617068476091 6.2900574441448596 20.2304260419217670 Os
atom 6.6032843547853979 9.8843644976023075 22.2397045896486603 Os
atom 12.0009689909553448 7.5522874713791106 21.2350736010239132 O
atom -6.2710830288180688 9.2497413709691134 22.6384240717064351 O
atom 15.5123047820553790 5.0348702353690040 21.6337718181115797 O
atom 13.9750598808881001 6.9176705104842293 23.4515673082567950 O
atom -5.3975409412671240 6.8249987568349768 23.2443418325983657 O
atom 12.8745078809543969 5.1275450489656587 21.8409955873039969 O
atom 13.1015173908448226 9.3424148408149801 22.8456488043513382 O
atom 14.6387662140737778 7.4596131306577087 21.0278536571149814 O
atom -3.3014277844270365 4.0436292438746939 21.2350658189059125 Os
atom -1.1004082673473565 1.3479145197860776 21.2350652575811552 Os
atom 8.8043082097946304 2.6957828001151278 24.2489801245033014 Os
atom 11.0053382408679639 4.4929192603721546 22.2397032873193936 Os
atom 16.4030238206752976 2.1608466743530572 21.2350732621447165 O
atom -1.8690272689164598 3.8582978919196327 22.6384210179768921 O
atom 11.1102544200017874 10.4263230329743806 21.6337675151534867 O
atom 18.3771061061755638 1.5262231444498171 23.4515624460524208 O
atom -0.9954898592118209 1.4335549546442656 23.2443402608383636 O
atom 8.4724551084216362 10.5189975672396319 21.8409917620112282 O
atom 17.5035708878168599 3.9509708469010225 22.8456410721108867 O
atom 19.0408140493186728 2.0681707853998930 21.0278447124065409 O
atom 9.9048616926059516 10.3336583901417480 23.2443477612314240 Os
atom 12.1058907934478288 7.6379295092309194 23.2443489063611750 Os
atom 8.8043152623933914 7.1886401408800484 22.2397077678337425 Os
atom 11.0053394528168909 0.0000511221760123 24.2489870912475993 Os
atom 7.5989202165219139 8.4508726657339270 23.2443548860356088 O
atom -1.8690282840995016 8.3511548711888306 20.6291405535445449 O
atom 11.1102563877409324 5.9334517508516695 23.6430525193345531 O
atom -3.6332858301172593 6.0190855425166268 21.4422839820030688 O
atom -0.9954848727984744 5.9264116308217067 21.2350582123680809 O
atom 8.4724596297563100 6.0261277037129446 23.8502771703397869 O
atom -4.5068256190151006 8.4438288832797728 20.8363616977048736 O
atom 10.2367195683692724 8.3581978630919078 23.0371338112674735 O
atom -5.5023915202107831 6.7393824334273411 27.2629093923414132 Os
atom -3.3013652412837344 4.0436606418733518 27.2629080430741766 Os
atom 15.4074542318517622 3.5943709321057646 26.2582661656151402 Os
atom 14.2020633227218358 4.8565967291035008 27.2629188155727000 O
atom 4.7341150948820490 4.7568849540153071 24.6476987635074636 O
atom 2.9698560238512601 2.4248141428401482 25.4608403222012356 O
atom 5.6076547898485716 2.3321345074655584 25.2536212519469103 O
atom 2.0963172769701059 4.8495550937105349 24.8549205812893312 O
atom 16.8398590342223322 4.7639250977698415 27.0556916048467713 O
atom 3.3017100222726561 0.4493571413039846 25.2536248739806375 Os
atom -3.3013641545801335 8.5365124269000159 25.2536268397121688 Os
atom -6.6029332278143205 8.0872271354328227 24.2489934945971513 Os
atom 17.6084839319838444 0.8986360134805755 26.2582739447901545 Os
atom 14.2020628084072307 9.3494604252648568 25.2536336766788381 O
atom 4.7341146163360364 0.2640108985889142 26.6569803833310353 O
atom -4.2969974019685315 6.8320371113720757 25.6523354251372311 O
atom -5.8342436179694861 8.7148393162876268 27.4701257264499077 O
atom -3.1964504019069149 8.6221647163123531 27.2629021409903771 O
atom 15.0756014926792510 6.9247114721762495 25.8595569326275267 O
atom 2.0963207652248621 0.3566835194614363 26.8642039034791793 O
atom -5.1705323966995191 9.2567915416831408 25.0464147656132212 O
atom -1.1003376654362964 5.8407950792072700 25.2536281032224039 Os
atom 1.1006857781727906 3.1450769336696616 25.2536279746257328 Os
atom 13.2064348131955303 6.2900882378050316 26.2582718382018996 Os
atom 18.6041161310094125 3.9580140341718524 25.2536343502772951 O
atom 0.3320673803231348 5.6554646601842684 26.6569786768114554 O
atom 0.1050577542113444 1.4405952298532338 25.6523345228760036 O
atom -1.4321953623296282 3.3233889888988473 27.4701225707183525 O
atom 1.2056049689378689 3.2307174780725840 27.2629039086841907 O
atom 19.4776534020686434 1.5332645388348896 25.8595548015698000 O
atom -2.3057318239295190 5.7481378945208439 26.8642028338569716 O
atom -0.7684838548482981 3.8653388645640780 25.0464116956175964 O
atom -1.1003370930180285 1.3479264462311280 27.2629095270679898 Os
atom -7.7034135729991702 9.4350973054041827 27.2629085942139184 Os
atom 11.0054146431897308 8.9858037980864900 26.2582730200659462 Os
atom 0.0001400545703940 0.0000617626089790 24.2489888385381391 Os
atom 9.8000158004486178 10.2480356784531779 27.2629159537466563 O
atom 0.3320648401492352 10.1483210789580305 24.6476997269905347 O
atom -1.4321908991217462 7.8162536545297447 25.4608430043821343 O
atom 1.2056041415724348 7.7235782804362074 25.2536197700072194 O
atom -2.3057322308917332 10.2409944301377909 24.8549243167664287 O
atom 12.4378126121399930 10.1553649636562984 27.0556960833163842 O
atom 5.5028112277180661 6.7393826068652443 27.2629120091802193 Os
atom 7.7038355299875807 4.0436625516054878 27.2629144443822113 Os
atom 4.4022598826146684 3.5943700301848041 26.2582673331903180 Os
atom 3.1968671801574868 4.8565985073731124 27.2629187257474399 O
atom 15.7393155977879982 4.7568833035402482 24.6477003393305765 O
atom 13.9750526538954141 2.4248069110904984 25.4608456090370723 O
atom 16.6128530030499029 2.3321357435027110 25.2536265387537142 O
atom 13.1015194390531580 4.8495579655952969 24.8549227408872113 O
atom 5.8346645866277180 4.7639247271511627 27.0556975611737371 O
atom 14.3069107219653979 0.4493440489205563 25.2536334676173588 Os
atom 7.7038360442510658 8.5365157680111245 25.2536314937175490 Os
atom 4.4022600793946989 8.0872255433873619 24.2489899102040241 Os
atom 6.6032869307340754 0.8986363421007174 26.2582684579309174 Os
atom 3.1968673635024283 9.3494555706216129 25.2536374693061703 O
atom 15.7393140415022330 0.2640132154675232 26.6569879399886958 O
atom 6.7082031546024652 6.8320383346115063 25.6523356863938332 O
atom 5.1709582534351872 8.7148386097267316 27.4701311765390521 O
atom 7.8087519256515883 8.6221668560774791 27.2629057008806264 O
atom 4.0704062535014804 6.9247131482081610 25.8595594555862540 O
atom 13.1015199667934965 0.3566866853133898 26.8642126726335988 O
atom 5.8346645866208622 9.2567812299002092 25.0464175253972385 O
atom 9.9048650824916766 5.8407973431171971 25.2536296871881696 Os
atom 12.1058845995713575 3.1450826190285790 25.2536291258634158 Os
atom 2.2012366134150514 6.2900873596146569 26.2582671556016543 Os
atom 7.5989221932223803 3.9580147735955586 25.2536371304269807 O
atom 11.3372655980022561 5.6554659911621341 26.6569848862591456 O
atom 11.1102569959504649 1.4405948774727881 25.6523313834357474 O
atom 9.5730044787226483 3.3233912436923188 27.4701263143346779 O
atom 12.2108030077068914 3.2307230538867695 27.2629041291206242 O
atom 8.4724576843703083 1.5332694117380408 25.8595556302934853 O
atom 8.6994692603639425 5.7481389461435217 26.8642049403931473 O
atom 10.2367124218657572 3.8653388846423944 25.0464085806888015 O
atom 9.9048642685546273 1.3479302346401583 27.2629116295136811 Os
atom 3.3017891659949141 9.4350976084734217 27.2629127746434321 Os
atom 0.0002136349404792 8.9858082401225516 26.2582716361159996 Os
atom -1.2051814109310020 10.2480407649764285 27.2629187543178624 O
atom 11.3372645828192109 10.1483229704313320 24.6477044218268020 O
atom 9.5730070368014530 7.8162536417591282 25.4608478502853259 O
atom 12.2108079941202377 7.7235797300642108 25.2536220806503380 O
atom 8.6994672479036161 10.2409969825222742 24.8549255659871307 O
atom 1.4326179409163549 10.1553659623344110 27.0556976795497306 O
