#===============================================================================
# Created using the Atomic Simulation Environment (ASE)

# Mon Mar 23 14:01:10 2026

#=======================================================
lattice_vector 11.0790232517419795 0.0000000000000000 0.0000000000000000 
lattice_vector 3.7278993459126002 10.4330108955597858 0.0000000000000000 
lattice_vector 0.0000000000000000 0.0000000000000000 39.0564664274630218 
atom 7.3510678575034731 5.1795911639853713 16.1320689727488045 Os
atom 11.9847859259725613 8.4445177688423190 15.0000184076454914 Os
atom 13.1181896619275271 6.8359358103296790 15.0000000000000000 O
atom 10.8513608513745474 10.0531034713116298 15.0000012238411458 O
atom 10.3484457547038442 7.2915388192174140 15.2643067804313972 O
atom 8.4844548013425314 2.0750903487580747 15.2643072873381662 O
atom 9.2150168050589958 10.3961012776981736 16.1320707344280621 Os
atom 10.1208158432499413 3.2280432881404026 15.0000231376106150 Os
atom 11.2542479878800314 1.6194490991067765 15.0000192775709067 O
atom 8.9874207553511134 4.8366184082736083 15.0000237784727268 O
atom 4.8089540202309680 7.2915050605588787 15.2643033254162290 O
atom 12.8905766413380665 5.1795981229247579 16.1320703787597424 Os
atom 6.4452778413182505 8.4444997287859671 15.0000128666504260 Os
atom 7.5786750581979216 6.8359258492377482 15.0000123989628875 O
atom 5.3118517154097367 10.0530977434196984 15.0000034353330065 O
atom 4.5813071262246430 3.2280299579370606 15.0000118886919722 Os
atom 5.7147322151406073 1.6194450700102605 15.0000289039273547 O
atom 3.4479118313047388 4.8366168260199691 15.0000249217540542 O
atom 2.9449684465706358 2.0750617992625200 15.2643085438130441 O
atom 3.6231390406443258 2.5528837907086235 20.6602877345166398 Os
atom 8.2568571091134118 5.8178103955655729 19.5282371694133232 Os
atom 8.4844869799118712 5.9781851403383239 17.5284196754997339 O
atom 9.3902608450683829 4.2092284370529329 19.5282187617678318 O
atom 7.1234320345153970 7.4263960980348855 19.5282199856089775 O
atom 9.8931963081135113 6.9707755985558482 19.2639404478831935 O
atom 5.4870986255471692 3.8662443722287159 18.3961787440440041 Os
atom 10.1208226154144203 7.1311640513137329 17.2641286389699431 Os
atom 6.6205169378446920 4.6648314459406679 19.7925255421992290 O
atom 11.2542168290299642 5.5225751065369968 17.2641217568771879 O
atom 8.9873912714659721 8.7397462792377425 17.2641168670211158 O
atom 11.7571668569415113 8.2841263284012197 16.9998337328776046 O
atom 7.3510479426169599 9.0827540023988327 18.3961810403686314 Os
atom 8.2568529375260962 1.9146920875686690 17.2641294284988760 Os
atom 8.4844253303959807 9.8813938710411140 19.7925260491059980 O
atom 9.3902730872214715 0.3060902599802945 17.2641404705470265 O
atom 7.1234529025852495 3.5232628570002009 17.2641363738252984 O
atom 9.8931761675499921 3.0676880433906213 16.9998411743971189 O
atom 5.4870879881998489 7.7693939044214275 20.6602894961958938 Os
atom 6.3928870263907944 0.6013359148636562 19.5282418993784503 Os
atom 6.6204977143192085 0.7617309130983819 17.5284167139321845 O
atom 11.2542185169334843 9.4257526213898153 19.5282380393387385 O
atom 5.2594919384919621 2.2099110349968623 19.5282425402405551 O
atom 8.0292081673460540 1.7543312810206177 19.2639428834001194 O
atom 11.0266125731153100 3.8662408872771854 18.3961787829051850 Os
atom 4.5813157457066715 7.1311458120059630 17.2641212292845019 Os
atom 12.1600484551138042 4.6647976872821317 19.7925220871840608 O
atom 5.7147181642497893 5.5225766009662740 17.2641127932015479 O
atom 3.4478848536894984 8.7397398196752381 17.2641179682380681 O
atom 6.2176721310233507 8.2841037484317894 16.9998345834361544 O
atom 9.1626478244789222 2.5528907496480127 20.6602891405275706 Os
atom 2.7173490244591059 5.8177923555092219 19.5282316284182578 Os
atom 2.9449884328268299 5.9781597209107495 17.5284169110947730 O
atom 3.8507462413387752 4.2092184759610021 19.5282311607307193 O
atom 12.6629461502925693 7.4263903701429514 19.5282221971008383 O
atom 4.3537104861216669 6.9707483067656923 19.2639464916143410 O
atom 14.7545257388417301 10.3961004102008712 16.1320722797384732 Os
atom 0.8533783093654915 0.6013225846603152 19.5282306504598075 Os
atom 1.0810030106085446 0.7617056413132404 17.5284189165761575 O
atom 5.7147027441940601 9.4257485922932993 19.5282476656951864 O
atom 10.7990062661875665 2.2099094527432217 19.5282436835218860 O
atom 2.4897158231738366 1.7542987103254950 19.2639415457204528 O
atom 12.8905626979675976 9.0827464501886901 18.3961795410507634 Os
atom 2.7173394799445725 1.9146745435034924 17.2641232715931139 Os
atom 14.0239622273660682 9.8813653215455588 19.7925273055808759 O
atom 3.8507723188827141 0.3060941215061326 17.2641323687270472 O
atom 1.5839442303106142 3.5232617635477017 17.2641383485417883 O
atom 4.3536752157937624 3.0676602203175278 16.9998317717510758 O
atom 4.5289282922542631 3.1911030222888259 24.0564559311811550 Os
atom 4.7565581630527145 3.3514777670615787 22.0566384372675657 O
atom 5.6623320282092360 1.5825210637761866 24.0564375235356636 O
atom 3.3955032176562474 4.7996887247581341 24.0564387473768164 O
atom 6.1652674912543644 4.3440682252791003 23.7921592096510324 O
atom 1.7591698086880263 1.2395369989519684 22.9243975058118394 Os
atom 6.3928937985552734 4.5044566780369841 21.7923474007377749 Os
atom 7.5262880121708173 2.8958677332602498 21.7923405186450196 O
atom 5.2594624546068305 6.1130389059609973 21.7923356287889440 O
atom 8.0292380400823617 5.6574189551244736 21.5280524946454435 O
atom 3.6231191257578175 6.4560466291220866 22.9243998021364632 Os
atom 8.2568234665795490 9.7209956098517072 21.7923481902667149 Os
atom 9.3902436162749225 8.1123937822633359 21.7923592323148583 O
atom 3.3955240857261031 0.8965554837234557 21.7923551355931266 O
atom 6.1652473506908461 0.4409806701138758 21.5280599361649507 O
atom 6.3928575554442428 8.4076394371466971 24.0564606611462821 Os
atom 6.6204682433726614 8.5680344353814224 22.0566354757000163 O
atom 7.5262897000743285 6.7990452481130701 24.0564568011065774 O
atom 5.2594624675454256 10.0162145572799020 24.0564613020083939 O
atom 8.0291786963995087 9.5606348033036586 23.7921616451679512 O
atom 7.2986837562561568 1.2395335140004391 22.9243975446730204 Os
atom 11.9324101805895051 4.5044384387292160 21.7923399910523372 Os
atom 1.9867893473906468 2.8958692276895257 21.7923315549693797 O
atom 10.7989792885723350 6.1130324463984920 21.7923367300058999 O
atom 2.4897433141642087 5.6573963751550416 21.5280533452039897 O
atom 10.0684434593419372 3.1910849822324754 24.0564503901860931 Os
atom 10.2960828677096661 3.3514523476339999 22.0566356728626083 O
atom 11.2018406762216127 1.5825111026842547 24.0564499224985511 O
atom 8.9350173334334180 4.7996829968662089 24.0564409588686701 O
atom 11.7048049210044987 4.3440409334889445 23.7921652533821728 O
atom 11.0265969219825859 7.7693930369241260 20.6602910415063050 Os
atom 11.9323720901609196 8.4076261069433542 24.0564494122276429 Os
atom 12.1599967914039819 8.5680091635962796 22.0566376783439928 O
atom 13.0657971790768883 6.7990412190165532 24.0564664274630218 O
atom 10.7989767952410194 10.0162129750262601 24.0564624452897249 O
atom 13.5687096039692747 9.5606022326085363 23.7921603074882810 O
atom 9.1626338811084516 6.4560390769119431 22.9243983028185987 Os
atom 13.7963332607400098 9.7209780657865306 21.7923420333609457 Os
atom 3.8507428479361718 8.1123976437891709 21.7923511304948860 O
atom 8.9350386651934421 0.8965543902709572 21.7923571103096236 O
atom 0.6257463989346256 0.4409528470407817 21.5280505335189147 O
