#===============================================================================
# Created using the Atomic Simulation Environment (ASE)

# Mon Mar 23 14:01:08 2026

#=======================================================
lattice_vector 22.0103944943716279 0.0000000000000000 0.0000000000000000 
lattice_vector -0.0000025759486765 9.8433818399997932 0.0000000000000000 
lattice_vector 0.0000000000000000 0.0000000000000000 36.8129622124503300 
atom 4.4021916553725644 0.0000031920272799 15.1048891890698336 Os
atom 11.7739550753554987 6.6404419264044741 15.0000009246993322 O
atom 11.7739596369363451 1.7187431964050350 15.0000012332565866 O
atom 6.2713579592012554 5.6637977064045701 15.0000000000000000 O
atom 9.9047896819066565 2.4608415820267764 15.1048844866192589 Os
atom 6.2713611702052781 0.7421027764050862 15.0000016770391049 O
atom 15.4073886610534299 0.0000040220271039 15.1048876998500141 Os
atom 0.7687572110280211 6.6404331664045770 15.0000027985290849 O
atom 15.4073859822383099 4.9216896720267078 15.1048865728811386 Os
atom 0.7687670139693886 1.7187403264060956 15.0000059200258455 O
atom 17.2765567358745500 5.6638018164050372 15.0000027458813143 O
atom 20.9099924209007497 2.4608401520278784 15.1048884265361352 Os
atom 17.2765612572092202 0.7421041964056401 15.0000035553179494 O
atom 3.3017101072421373 0.0000048290369610 18.4064796701695919 Os
atom 5.5027338102205068 7.3825436200333998 17.3059491319141756 Os
atom 2.2011587889843613 7.3825458910297685 16.2054190118164563 Os
atom 17.6084845222912811 0.0000040480409055 19.5070101256636690 Os
atom 0.9957678798544392 8.1246442025781125 17.6378403903466712 O
atom 13.5382141463862844 9.1012847576489513 15.2097770499442291 O
atom 4.5071030940319892 5.6638021374892356 16.9740609960620681 O
atom 2.9698534479025840 6.6404427824181003 19.4021218612931712 O
atom 5.6076522138998977 6.6404355754962143 19.1751212933681252 O
atom 1.8693046008480889 5.6638065244113500 17.2010635630304201 O
atom 10.9004163284743409 9.1012821745708283 15.4367762493905758 O
atom 3.6335635913549433 8.1246476256554256 17.4108356588815063 O
atom 3.3017074463239751 4.9217030890367210 18.4064801218633676 Os
atom 5.5027374728727816 2.4608411800333903 17.3059447805118616 Os
atom 2.2011683996385947 2.4608440010314698 16.2054242531077612 Os
atom 4.4021884891164547 4.9216871320271514 15.1048914475111467 Os
atom 0.9957699414885147 3.2029542425780186 17.6378373090399698 O
atom 13.5382136678402762 4.1795848576484005 15.2097726896238150 O
atom 4.5071042254843867 0.7421038574893435 16.9740612867526188 O
atom 2.9698580094834286 1.7187440524186608 19.4021221698504256 O
atom 5.6076512255460038 1.7187432854958478 19.1751195358333497 O
atom 1.8693086257605434 0.7421052544116516 17.2010619262122049 O
atom 10.9004198167290962 4.1795838445710451 15.4367744560507418 O
atom 3.6335692307533924 3.2029567856566423 17.4108412758564945 O
atom 7.7037639620166178 0.0000011210304720 16.2054184415904778 Os
atom 9.9047848296770287 7.3825427420267937 15.1048905061359982 Os
atom 19.8095054212457171 7.3825417390370580 18.4064803968828592 Os
atom 0.0001419462768180 0.0000012400344329 17.3059516653489744 Os
atom 5.3978206881420228 8.1246460445713939 15.4367781644873752 O
atom 9.1361664318273714 9.1012820456558199 17.4108339002636932 O
atom 0.1050551782626636 5.6638012754966223 19.1751234812739391 O
atom 7.3719036891746175 6.6404338244108763 17.2010579226232316 O
atom 10.0097040204421077 6.6404338674895529 16.9740610441996580 O
atom 19.4776508261199695 5.6637985624181955 19.4021209365938425 O
atom 6.4983672275747209 9.1012813325778446 17.6378364985420326 O
atom 8.0356151966559395 8.1246443776488064 15.2097761476169033 O
atom 7.7037619584862060 4.9216880910300498 16.2054161160847272 Os
atom 1.1006880544537463 2.4608424380404017 19.5070054232131014 Os
atom 19.8095162706426429 2.4608386690383242 18.4064795068679814 Os
atom 0.0001374786217239 4.9216978000340452 17.3059530204259140 Os
atom 5.3978245609828273 3.2029456445713853 15.4367735626439071 O
atom 9.1361664676021466 4.1795829156557174 17.4108334977802457 O
atom 0.1050583311165125 0.7421028554969342 19.1751231413804355 O
atom 7.3719107283311676 1.7187424744119635 17.2010603241235920 O
atom 10.0097057690253468 1.7187408574893894 16.9740576945670902 O
atom 19.4776540371239975 0.7421036324187118 19.4021226136329439 O
atom 6.4983693965611851 4.1795821325780667 17.6378365387864413 O
atom 8.0356213726741927 3.2029469076495269 15.2097759060910143 O
atom 14.3069128551709834 0.0000039190379194 18.4064821298093619 Os
atom 16.5079345814918170 7.3825427500345047 17.3059557551251224 Os
atom 13.2063589341189029 7.3825445910302152 16.2054197094512986 Os
atom 6.6032870336005232 0.0000048780407295 19.5070086364438531 Os
atom 12.0009662316617263 8.1246458625783209 17.6378410343270389 O
atom 2.5330201549206031 9.1012826076494520 15.2097778146589135 O
atom 15.5123010030976616 5.6637999774893757 16.9740615371865040 O
atom 13.9750500779467348 6.6404340224182032 19.4021237351229239 O
atom 16.6128504271012254 6.6404345454968592 19.1751266241481204 O
atom 12.8745061770623526 5.6638002444119184 17.2010635674755470 O
atom 21.9056184905573943 9.1012839145717752 15.4367793932706299 O
atom 14.6387636381319517 8.1246448556563031 17.4108409449286121 O
atom 14.3069081460167222 4.9216876290374154 18.4064826217668447 Os
atom 16.5079376717039779 2.4608423300343221 17.3059503930235401 Os
atom 13.2063617068476091 2.4608440110305732 16.2054203310696643 Os
atom 6.6032843547853979 4.9216905280403340 19.5070075094749775 Os
atom 12.0009689909553430 3.2029482625783983 17.6378387893060555 O
atom 2.5330185986348432 4.1795838876494473 15.2097805337364811 O
atom 15.5123047820553825 0.7421048674898493 16.9740620246338416 O
atom 13.9750598808881019 1.7187411824197214 19.4021268566196845 O
atom 16.6128535531045003 1.7187437854969139 19.1751236591102376 O
atom 12.8745078809543916 0.7421057544122039 17.2010649135861620 O
atom 21.9056190182977275 4.1795831545722049 15.4367837536089887 O
atom 14.6387662140737760 3.2029462456564435 17.4108395853918125 O
atom 18.7089667099445940 0.0000025410314221 16.2054208117872953 Os
atom 20.9099836510755885 7.3825474620273281 15.1048938781160054 Os
atom 8.8043056338459529 7.3825442690361092 18.4064740643543061 Os
atom 11.0053382408679656 0.0000023500338574 17.3059470322220967 Os
atom 16.4030212447266202 8.1246455845721002 15.4367810042726354 O
atom 20.1413646495064960 9.1012807256565473 17.4108401120544727 O
atom 11.1102544200017874 5.6638022354965907 19.1751204715136261 O
atom 18.3771035302268899 6.6404343544116369 17.2010622605785066 O
atom 21.0149020592111349 6.6404388674898982 16.9740635217574400 O
atom 8.4724551084216362 5.6638026724186643 19.4021236824751604 O
atom 17.5035683118681789 9.1012814325785758 17.6378388508610549 O
atom 19.0408114733699918 8.1246456676484051 15.2097733122887711 O
atom 18.7089633200588672 4.9216906910309248 16.2054195819635929 Os
atom 12.1058907934478341 2.4608410080415037 19.5070093631299777 Os
atom 8.8043152623933914 2.4608432890378835 18.4064800569642522 Os
atom 11.0053368768682116 4.9216888000337482 17.3059470814165124 Os
atom 16.4030218439748268 3.2029491445718414 15.4367781957761885 O
atom 20.1413662102721176 4.1795827256565374 17.4108385557501073 O
atom 11.1102563877409288 0.7421034854967675 19.1751203328738349 O
atom 18.3771086642543686 1.7187404844124829 17.2010647425897112 O
atom 21.0149096215731461 1.7187412374905167 16.9740603956950302 O
atom 8.4724596297563117 0.7421050524192657 19.4021244919117883 O
atom 17.5035688753565175 4.1795839525785716 17.6378387211743757 O
atom 19.0408211958221791 3.2029471676500445 15.2097777709552453 O
atom 18.7090266771392137 7.3825444760470260 21.7080700685080146 Os
atom 15.4074516559030741 7.3825467470433939 20.6075399484102952 Os
atom 4.7341125189333706 9.1012856136625775 19.6118979865380716 O
atom 17.7133959609507023 5.6638029935028609 21.3761819326559070 O
atom 15.0755974677668014 5.6638073804249744 21.6031844996242590 O
atom 2.0963147010214271 9.1012830305844528 19.8388971859844183 O
atom 16.8398564582736618 8.1246484816690501 21.8129565954753453 O
atom 18.7090303397914930 2.4608420360470160 21.7080657171057005 Os
atom 15.4074612665573092 2.4608448570450956 20.6075451897016002 Os
atom 17.6084813560351634 4.9216879880407758 19.5070123841049927 Os
atom 4.7341120403873616 4.1795857136620249 19.6118936262176540 O
atom 17.7133970924030990 0.7421047135029690 21.3761822233464613 O
atom 15.0756014926792563 0.7421061104252773 21.6031828628060474 O
atom 2.0963181892761846 4.1795847005846705 19.8388953926445843 O
atom 16.8398620976721105 3.2029576416702676 21.8129622124503335 O
atom 20.9100568289353248 0.0000019770440968 20.6075393781843168 Os
atom 1.1006832022241149 7.3825435980404173 19.5070114427298371 Os
atom 13.2064348131955285 0.0000020960480577 21.7080726019428170 Os
atom 18.6041135550607386 8.1246469005850184 19.8388991010812177 O
atom 0.3320648043744543 9.1012829016694443 21.8129548368575392 O
atom 20.5781965560933280 6.6404346804245025 21.6031788592170741 O
atom 1.2056023929891957 6.6404347235031782 21.3761819807935005 O
atom 21.2419080635746553 8.1246452336624326 19.6118970842107423 O
atom 20.9100548254049201 4.9216889470436742 20.6075370526785697 Os
atom 13.2064303455404382 4.9216986560476705 21.7080739570197530 Os
atom 18.6041174279015387 3.2029465005850111 19.8388944992377496 O
atom 0.3320648401492375 4.1795837716693427 21.8129544343740882 O
atom 20.5782035952498816 1.7187433304255892 21.6031812607174345 O
atom 1.2056041415724350 1.7187417135030154 21.3761786311609292 O
atom 21.2419142395929086 3.2029477636631527 19.6118968426848532 O
atom 7.7038329540389014 7.3825436060481291 21.7080766917189685 Os
atom 4.4022573066659891 7.3825454470438396 20.6075406460451411 Os
atom 15.7393130218393171 9.1012834636630764 19.6118987512527561 O
atom 6.7081993756447460 5.6638008335029992 21.3761824737803430 O
atom 4.0704045496094361 5.6638011004255420 21.6031845040693931 O
atom 13.1015168631044823 9.1012847705853996 19.8389003298644688 O
atom 5.8346620106790379 8.1246457116699276 21.8129618815224511 O
atom 7.7038360442510632 2.4608431860479478 21.7080713296173826 Os
atom 4.4022600793946935 2.4608448670441989 20.6075412676635032 Os
atom 15.7393114655535573 4.1795847436630726 19.6119014703303272 O
atom 6.7082031546024687 0.7421057235034748 21.3761829612276806 O
atom 4.0704062535014778 0.7421066104258295 21.6031858501800045 O
atom 13.1015173908448137 4.1795840105858293 19.8389046902028348 O
atom 5.8346645866208657 3.2029471016700688 21.8129605219856515 O
atom 9.9048650824916784 0.0000033970450477 20.6075417483811414 Os
atom 12.1058820236226765 7.3825483180409526 19.5070148147098479 Os
atom 2.2012366134150536 0.0000032060474830 21.7080679688159357 Os
atom 7.5989196172737028 8.1246464405857246 19.8389019408664780 O
atom 11.3372630220535786 9.1012815816701735 21.8129610486483152 O
atom 9.5730019027739761 6.6404352104252613 21.6031831971723456 O
atom 12.2108004317582193 6.6404397235035235 21.3761844583512790 O
atom 10.2367098459170798 8.1246465236620296 19.6118942488826171 O
atom 9.9048616926059516 4.9216915470445501 20.6075405185574319 Os
atom 2.2012352494152974 4.9216896560473735 21.7080680180103549 Os
atom 7.5989202165219112 3.2029500005854676 19.8388991323700274 O
atom 11.3372645828192091 4.1795835816701619 21.8129594923439498 O
atom 9.5730070368014548 1.7187413404261085 21.6031856791835501 O
atom 12.2108079941202359 1.7187420935041422 21.3761813322888692 O
atom 10.2367195683692636 3.2029480236636703 19.6118987075490878 O
