#===============================================================================
# Created using the Atomic Simulation Environment (ASE)

# Mon Mar 23 14:01:07 2026

#=======================================================
lattice_vector 9.8433162200001281 0.0000000000000000 0.0000000000000000 
lattice_vector -0.0000031600105307 9.8433818399996227 0.0000000000000000 
lattice_vector 0.0000000000000000 0.0000000000000000 33.9451037300000635 
atom 2.4608320549949498 2.4608361949927691 18.2029851671406533 Os
atom 9.8433120899861439 9.8433786799916430 18.2029880071407888 Os
atom 7.3824879349942618 2.4608407749923509 18.2029873071407593 Os
atom 2.4608245799863484 9.8433787349921609 15.7421224271407851 Os
atom 0.0000011849946204 2.4608396899928979 15.7421250971407289 Os
atom 1.7187373669093962 0.7420993269851287 17.4608744522190378 O
atom 0.7420904451420957 4.1795824402193951 15.0000040820624605 O
atom 3.2029214398436383 3.2029487830000223 16.4842338542816336 O
atom 0.7420911119061859 3.2029481602186962 17.4608773242816113 O
atom 4.1795659448470950 0.7420981197660064 16.4842368522189986 O
atom 1.7187399201446041 1.7187376469861595 15.0000077400000364 O
atom 2.4608294399904653 4.9216950249929097 15.7421213371410147 Os
atom 9.8433118149879899 7.3825401099921795 15.7421211071409601 Os
atom 1.7187395469028701 5.6637980469855114 17.4608756122192901 O
atom 0.7420868551361453 9.1012775502188408 15.0000056320625603 O
atom 3.2029136398380116 8.1246416229986469 16.4842404542816325 O
atom 0.7420865619009616 8.1246389202180840 17.4608754942815807 O
atom 4.1795669948402212 5.6637988797661407 16.4842404122193074 O
atom 1.7187365801381098 6.6404362569857094 15.0000071000002464 O
atom 7.3824795899862536 9.8433796849916479 15.7421230271407850 Os
atom 4.9216602249955246 2.4608345499931046 15.7421230571405957 Os
atom 6.6403955669090733 0.7421016369850862 17.4608764522191109 O
atom 5.6637440851424481 4.1795806102186628 15.0000046020623756 O
atom 8.1245767398438211 3.2029480229995628 16.4842341342815928 O
atom 5.6637473119070281 3.2029434102184466 17.4608753342814538 O
atom 9.1012230348466918 0.7421010297658601 16.4842362322190752 O
atom 6.6403974901449310 1.7187364069862929 15.0000000000000000 O
atom 7.3824824999910916 4.9216915349921084 15.7421209871408792 Os
atom 4.9216495149876405 7.3825418599914947 15.7421215271409807 Os
atom 6.6403930469026813 5.6637996369847832 17.4608751822193113 O
atom 5.6637418351359239 9.1012793602183653 15.0000047820625895 O
atom 8.1245728298380513 8.1246418929988895 16.4842380742816559 O
atom 5.6637387219006863 8.1246410402171332 17.4608753442815896 O
atom 9.1012220448403802 5.6637985097657788 16.4842357922192662 O
atom 6.6403903601383822 6.6404349069849928 15.0000077600001660 O
atom 4.1795695680813969 1.7187381197659883 18.9451037300000635 O
atom 3.2029218230800272 4.1795757129994442 18.9451020920622852 O
atom 2.4608253749878553 7.3825380849915234 18.2029935771409228 Os
atom 0.0000001399901524 4.9216947399922297 18.2029891871410072 Os
atom 4.1795659180763041 6.6404280797655364 18.9451013200000133 O
atom 3.2029170630731030 9.1012769829987512 18.9451018520625567 O
atom 4.9216538899856799 9.8433810599915628 18.2029902971408504 Os
atom 9.1012251080818292 1.7187358497655958 18.9451030499999717 O
atom 8.1245762730787572 4.1795841029989047 18.9451004620624985 O
atom 7.3824774049870161 7.3825438449906269 18.2029907871410330 Os
atom 4.9216589199918515 4.9216844999923124 18.2029900871407193 Os
atom 9.1012191580750663 6.6404362497647904 18.9451000900002100 O
atom 8.1245737230728299 9.1012790329984945 18.9451028220626085 O
