#===============================================================================
# Created using the Atomic Simulation Environment (ASE)

# Mon Mar 23 14:01:09 2026

#=======================================================
lattice_vector 22.0103944943716279 0.0000000000000000 0.0000000000000000 
lattice_vector -8.8041042034015895 10.7828962547440934 0.0000000000000000 
lattice_vector 0.0000000000000000 0.0000000000000000 44.4794142006970219 
atom -1.1004811322236689 1.3478781356998346 17.2165008116526153 Os
atom -7.7035590566982108 9.4350525988899374 17.2164994623853822 Os
atom 11.0052604164372863 8.9857628891223520 16.2118575849263422 Os
atom 13.2062932828254826 1.7971693425697060 18.2211423869918150 Os
atom 9.7998695073073527 10.2479886861200846 17.2165102348839056 O
atom 13.3112047214849003 7.7305715906866794 17.6152055085044594 O
atom -1.4323377915632154 7.8162060998567355 15.4144317415124359 O
atom 1.2054609744340974 7.7235264644821449 15.2072126712581106 O
atom 10.6734062283009976 7.8232494678781164 17.8224275548913127 O
atom 12.4376652188078580 10.1553170547864280 17.0092830241579733 O
atom -1.1004837931418225 5.8407490983205692 15.2072162932918378 Os
atom 1.1005462334069795 3.1450081291725085 15.2072182590233727 Os
atom 13.2062901165693649 6.2900279704971629 16.2118653641013566 Os
atom 18.6039731963943424 3.9579561275373507 15.2072250959900384 O
atom 0.3319208009215613 5.6554028556055007 16.6105718026422373 O
atom 0.1049129860185832 1.4405328136445692 15.6059268444484331 O
atom -1.4323332299823697 3.3233350185601189 17.4237171457611097 O
atom 1.2054599860802016 3.2306604185848475 17.2164935603015792 O
atom 19.4775118806663663 1.5332071744487419 15.8131483519387288 O
atom -2.3058730501896174 5.7480754764780233 16.8177953227903849 O
atom -0.7686220087124082 3.8652872439556338 15.0000061849244233 O
atom 3.3015727225508198 0.4492907814797655 15.2072195225336095 Os
atom -3.3015080372416854 8.5364688906862476 15.2072193939369349 Os
atom 6.6032125543270066 9.8843431320708017 18.2211422257451581 Os
atom 17.6083452011826402 0.8985839400775267 16.2118632575131016 Os
atom 14.2019223155949366 9.3494059911884406 15.2072257695884954 O
atom 4.7339777683102486 0.2639603624567608 16.6105700961226574 O
atom -4.2971360612031351 6.8319871868698216 15.6059259421872092 O
atom -5.8343891777441002 8.7147809459154342 17.4237139900295510 O
atom -3.1965888464766077 8.6221094350891736 17.2164953279953927 O
atom 15.0754595866541692 6.9246564958514760 15.8131462208810021 O
atom 2.0961785640575954 0.3566335967933387 16.8177942531681737 O
atom -5.1706776702627710 9.2567308215806658 15.0000031149288002 O
atom -5.5025309084325063 6.7393184032477143 17.2165009463791918 Os
atom -3.3015031850120575 4.0435930076766757 17.2165000135251205 Os
atom 15.4073250311768390 3.5942995003589826 16.2118644393771447 Os
atom 14.2019261884357348 4.8565313807256691 17.2165073730578513 O
atom 17.7132615860223339 2.3391161238324498 17.6152106279271266 O
atom 2.9697194888653664 2.4247493568022374 15.4144344236933382 O
atom 5.6075145295595501 2.3320739827087000 15.2072111893184196 O
atom 15.0754627976581901 2.4317894421440536 17.8224313230244960 O
atom 16.8397230001271083 4.7638606659287905 17.0092875026275863 O
atom 9.9047216157051796 1.3478783091377371 17.2165034284914213 Os
atom 3.3016417145731070 9.4350545086220770 17.2165058636934134 Os
atom 0.0000660672001909 8.9857619872013892 16.2118587525015165 Os
atom 2.2010957941347145 1.7971694922771817 18.2211406886799949 Os
atom -1.2053266352569889 10.2479904643896997 17.2165101450586420 O
atom 2.3060081361789435 7.7305698398017988 17.6152068843013865 O
atom 9.5728588384809381 7.8161988681070849 15.4144370283482708 O
atom 12.2106591876354287 7.7235277005192984 15.2072179580649145 O
atom -0.3317866898563595 7.8232437368696477 17.8224301227609665 O
atom 1.4324707712132421 10.1553166841677509 17.0092889804849392 O
atom 9.9047169065509220 5.8407360059371429 15.2072248869285609 Os
atom 12.1057464322381776 3.1450114702836154 15.2072229130287511 Os
atom 2.2010931153195994 6.2900282991173038 16.2118598772421194 Os
atom 7.5987777514895427 3.9579512728941055 15.2072288886173723 O
atom 11.3371202260877570 5.6554051724841106 16.6105793592998978 O
atom 11.1101135425895787 1.4405340368839994 15.6059271057050371 O
atom 9.5728686414223016 3.3233343119992256 17.4237225958502542 O
atom 12.2106623136387018 3.2306625583499726 17.2164971201918284 O
atom 8.4723166414885931 1.5332088504806536 15.8131508748974561 O
atom 8.6993261513790188 5.7480786423299772 16.8178040919448009 O
atom 10.2365749746079793 3.8652769321727041 15.0000089447084424 O
atom 14.3067754704787919 0.4492930453896891 15.2072211064993716 Os
atom 7.7036907841568825 8.5364745760451672 15.2072205451746161 Os
atom -4.4019872330727621 9.8843428563742162 18.2211354120967606 Os
atom 6.6031470014021645 0.8985830618871506 16.2118585749128528 Os
atom 3.1967283778079056 9.3494067306121433 15.2072285497381792 O
atom 15.7391759859893696 0.2639616934346269 16.6105763055703513 O
atom 6.7080631805359863 6.8319868344893733 15.6059228027469477 O
atom 5.1708106633081741 8.7147832007089043 17.4237177336458799 O
atom 7.8086091922924172 8.6221150109033537 17.2164955484318227 O
atom 4.0702638689558324 6.9246613687546281 15.8131470496046855 O
atom 13.1013796483510578 0.3566346484160193 16.8177963597043458 O
atom 5.8345186064512813 9.2567308416589800 15.0000000000000000 O
atom 5.5026704531401549 6.7393221916567443 17.2165030488248796 Os
atom 7.7036995539820303 4.0435933107459148 17.2165041939546306 Os
atom 4.4021240229275911 3.5943039423950442 16.2118630554271981 Os
atom -2.2009559900505016 7.1886111784351012 18.2211423788410585 Os
atom 3.1967289770561149 4.8565364672489233 17.2165101736290644 O
atom 6.7080651482751330 2.3391155523666654 17.6152078069280122 O
atom 13.9749174247885684 2.4247493440316212 15.4144392695965262 O
atom 16.6127183821073530 2.3320754323367034 15.2072134999615418 O
atom 4.0702683902905088 2.4317915052279395 17.8224324579332460 O
atom 5.8345283289034704 4.7638616646069050 17.0092890988609327 O
atom 12.1058117346950453 3.1450462349423365 21.2350646799348723 Os
atom 14.3068380136220945 0.4493244433883460 21.2350633306676393 Os
atom 11.0052629923859620 0.0000347336207614 20.2304214532085993 Os
atom 4.4021916553725715 3.5943374418122089 22.2397062552740721 Os
atom 9.7998720832560320 1.2622605306184955 21.2350741031661592 O
atom 0.3319238554162477 1.1625487555303013 18.6198540511009227 O
atom 4.5071030940319865 9.5277396899291844 21.6337693767867165 O
atom 11.7739550753554987 9.6133741990992370 19.4329956097946912 O
atom -7.5986406530188173 9.5206945637246481 19.2257765395403659 O
atom 1.8693046008480843 9.6204175671206187 21.8409914231735698 O
atom 19.7045205318759358 1.2552188952255319 18.8270758688827904 O
atom 12.4376677947565302 1.1695888992848356 21.0278468924402304 O
atom 12.1058090737768911 7.6379171975630724 19.2257801615740931 Os
atom 14.3068391003256945 4.9421762284150104 19.2257821273056280 Os
atom 11.0052700270915054 4.4928909369478172 18.2211487821906104 Os
atom 4.4021884891164493 8.0871960697396652 20.2304292323836137 Os
atom 9.7998715689414233 5.7551242267798530 19.2257889642722937 O
atom 13.5382136678402780 7.4525709548480030 20.6291356709244944 O
atom 13.3112058529372987 3.2377009128870715 19.6244907127306902 O
atom 11.7739596369363486 5.1205031178026204 21.4422810140433668 O
atom 14.4117528529989123 5.0278285178273494 21.2350574285838363 O
atom 10.6734102532134525 3.3303752736912440 19.8317122202209859 O
atom 10.9004198167290962 7.5452435757205265 20.8363591910726385 O
atom 12.4376708582063067 5.6624553431981370 19.0185700532066804 O
atom 16.5078655894695316 2.2464588807222672 19.2257833908158666 Os
atom 9.9047848296770287 10.3336369899287526 19.2257832622191920 Os
atom 6.6032151302756814 0.8986149765692093 22.2397060940274116 Os
atom 8.8042435737297282 2.6957520393200283 20.2304271257953587 Os
atom 14.2019248915436105 0.3636778356868491 19.2257896378707542 O
atom 17.9402706352289627 2.0611284616992602 20.6291339644049145 O
atom 8.9091568057155790 8.6291552861123240 19.6244898104694663 O
atom 7.3719036891746130 10.5119490451579374 21.4422778583118117 O
atom 10.0097040204421077 10.4192775343316750 21.2350591962776463 O
atom 6.2713579592012536 8.7218245950939792 19.8317100891632592 O
atom 15.3024714309763112 2.1538016960358402 20.8363581214504272 O
atom 16.8397194000575325 0.2710026660790722 19.0185669832110555 O
atom 7.7037619584862069 8.5364865024902166 21.2350648146614489 Os
atom 9.9047896819066548 5.8407611069191789 21.2350638818073776 Os
atom 6.6032234037239261 5.3914675996014845 20.2304283076594018 Os
atom 8.8042391060746326 7.1886218188680679 18.2211441261315983 Os
atom 5.3978245609828228 6.6536994799681715 21.2350712413401084 O
atom -4.0701263993165639 6.5539848804730267 18.6198550145839938 O
atom 8.9091599585694237 4.1362842230749521 21.6337744962093836 O
atom 16.1760123557840814 4.2219174560447392 19.4329982919755970 O
atom -3.1965870978933641 4.1292420819512019 19.2257750576006785 O
atom 6.2713611702052781 4.2289575413865554 21.8409951913067530 O
atom 15.3024710240140962 6.6466582316527880 18.8270796043598843 O
atom 8.0356213726741927 6.5610287651712937 21.0278513709098434 O
atom 1.1006199882522658 3.1450464083802396 21.2350672967736784 Os
atom 3.3016442905217822 0.4493263531204844 21.2350697319756705 Os
atom 0.0000686431488681 0.0000338316998006 20.2304226207837772 Os
atom 15.4073886610534281 3.5943375915196838 22.2397045569622520 Os
atom 20.8050704350633140 1.2622623088881095 21.2350740133408991 O
atom 11.3371243583221997 1.1625471050552429 18.6198556269240356 O
atom -6.4980934912739707 9.5277379390443020 21.6337707525836436 O
atom 0.7687572110280245 9.6133669673495881 19.4330008966305279 O
atom 3.4065575601825104 9.5206957997617998 19.2257818263471734 O
atom 12.8745061770623543 9.6204118361121509 21.8409939910432236 O
atom 8.6993281995873613 1.2552217671102914 18.8270780284806740 O
atom 1.4324733471619184 1.1695885286661591 21.0278528487671963 O
atom 1.1006152790980104 7.6379041051796452 19.2257887552108144 Os
atom 3.3016448047852656 4.9421795695261173 19.2257867813110082 Os
atom 0.0000688399288954 4.4928893449023581 18.2211451977974832 Os
atom -6.6030085121333144 8.0871963983598043 20.2304237455243765 Os
atom -1.2053238759633709 5.7551193721366074 19.2257927568996294 O
atom 2.5330185986348472 7.4525732717266138 20.6291432275821514 O
atom 2.3060119151366636 3.2377021361265022 19.6244909739872924 O
atom 0.7687670139693881 5.1205024112417270 21.4422864641325113 O
atom 3.4065606861857898 5.0278306575924763 21.2350609884740855 O
atom -0.3317849859643200 3.3303769497231555 19.8317147431797132 O
atom -0.1047754760738935 7.5452467415724787 20.8363679602270579 O
atom 1.4324733471550641 5.6624450314152055 19.0185728129906977 O
atom 5.5026738430258764 2.2464611446321912 19.2257849747816287 Os
atom -1.1004108432960329 10.3336426752876687 19.2257844134568714 Os
atom 17.6084098372475424 0.8986147008726261 22.2396992803790177 Os
atom -2.2009546260507493 2.6957511611296532 20.2304224431951098 Os
atom 3.1967309537565827 0.3636785751105531 19.2257924180204363 O
atom 6.9350743585364549 2.0611297926771286 20.6291401738526119 O
atom -2.0960384469169258 8.6291549337318756 19.6244866710292030 O
atom -3.6332909641447406 10.5119512999514075 21.4422816019281370 O
atom -0.9954924351604969 10.4192831101458570 21.2350594167140798 O
atom -4.7338377584970797 8.7218294679971304 19.8317109178869444 O
atom 4.2972780208981440 2.1538027476585184 20.8363602279866029 O
atom 5.8345211823999570 0.2710026861573889 19.0185638682822571 O
atom -3.3014311743127593 8.5364902908992466 21.2350669171071367 Os
atom -1.1004020734708828 5.8407614099884180 21.2350680622368877 Os
atom -4.4019776045253236 5.3914720416375461 20.2304269237094552 Os
atom 11.0053368768682116 8.9857792776776026 22.2397062471233156 Os
atom 16.4030218439748303 6.6537045664914247 21.2350740419113215 O
atom 6.9350733433534133 6.5539867719463283 18.6198597094202611 O
atom -2.0960364791777812 4.1362836516091681 21.6337716752102693 O
atom 5.1708157973356537 4.2219174432741235 19.4330031378787851 O
atom 7.8086167546544401 4.1292435315792062 19.2257773682438007 O
atom 17.2765612572092238 4.2289596044704405 21.8409963262154996 O
atom 4.2972760084378159 6.6466607840372705 18.8270808535805898 O
atom -2.9695732985494434 6.5610297638494073 21.0278529671431897 O
atom 3.3017101072421329 4.9422143341848397 25.2536285482171294 Os
atom 5.5027363861691763 2.2464925426308500 25.2536271989498928 Os
atom 2.2011613649330486 1.7972028328632630 24.2489853214908528 Os
atom -4.4019099720803441 5.3915055410547099 26.2582701235563292 Os
atom 0.9957704558031200 3.0594286298609972 25.2536379714484163 O
atom 13.5382167223349619 2.9597168547728052 22.6384179193831798 O
atom 4.5071056699806613 0.5420115344275906 25.6523332450689736 O
atom 11.7739576513041744 0.6276460435976468 23.4515594780769483 O
atom 14.4117564173014863 0.5349664082230569 23.2443404078226230 O
atom 1.8693071767967568 0.6346894116190263 25.8595552914558269 O
atom 10.9004189044230166 3.0523869944680335 22.8456397371650510 O
atom 3.6335661673036181 2.9667569985273397 25.0464107607224875 O
atom 3.3017074463239768 9.4350852968055747 23.2443440298563502 Os
atom 5.5027374728727789 6.7393443276575118 23.2443459955878851 Os
atom 2.2011683996385925 6.2900590361903186 22.2397126504728675 Os
atom -4.4019131383364627 9.8843641689821684 24.2489931006658708 Os
atom 0.9957699414885138 7.5522923260223545 23.2443528325545543 O
atom 4.7341120403873589 9.2497390540905045 24.6476995392067550 O
atom 4.5071042254843867 5.0348690121295734 23.6430545810129473 O
atom 2.9698580094834290 6.9176712170451236 25.4608448823256204 O
atom 5.6076512255460020 6.8249966170698517 25.2536212968660934 O
atom 1.8693086257605371 5.1275433729337472 23.8502760885032430 O
atom 2.0963181892761820 9.3424116749630279 24.8549230593548991 O
atom 3.6335692307533933 7.4596234424406394 23.0371339214889375 O
atom 7.7037639620166223 4.0436269799647686 23.2443472590981202 Os
atom 9.9047874056257044 1.3479088344271599 23.2443471305014491 Os
atom -2.2008864971772297 2.6957830758117107 26.2582699623096687 Os
atom 0.0001419462768136 4.4929201385625319 24.2489909940776158 Os
atom 5.3978232640906985 2.1608459349293532 23.2443535061530113 O
atom 9.1361690077760507 3.8582965609417665 24.6476978326871716 O
atom 0.1050551782626612 10.4263233853548289 23.6430536787517198 O
atom 7.3719062651232923 1.5262208896563458 25.4608417265940616 O
atom 10.0097065963907799 1.4335493788300850 25.2536230645599034 O
atom -2.5327436682516637 10.5189926943364807 23.8502739574455163 O
atom 6.4983698035234001 3.9509697952783420 24.8549219897326878 O
atom 8.0356177726046152 2.0681707653215762 23.0371308514933126 O
atom -1.1003396689667060 10.3336546017327215 25.2536286829437060 Os
atom 1.1006880544537443 7.6379292061616804 25.2536277500896347 Os
atom -2.2008782237289890 7.1886356988439877 24.2489921759416625 Os
atom 0.0001374786217192 8.9857899181105694 22.2397079944138554 Os
atom -3.4062770664700888 8.4508675792106729 25.2536351096223655 O
atom 9.1361664676021501 8.3511529797155291 22.6384188828662474 O
atom 0.1050583311165077 5.9334523223174536 25.6523383644916407 O
atom 7.3719107283311676 6.0190855552872415 23.4515621602578506 O
atom 10.0097057690253504 5.9264101811937042 23.2443389258829356 O
atom -2.5327404572476331 6.0261256406290578 25.8595590595890101 O
atom 6.4983693965611833 8.4438263308952894 22.8456434726421413 O
atom -0.7684802547787207 8.3581968644137952 25.0464152391921004 O
atom 14.3069128551709817 4.9422145076227411 25.2536311650559355 Os
atom 16.5079371574404981 2.2464944523629886 25.2536336002579276 Os
atom 13.2063615100675822 1.7972019309423022 24.2489864890660343 Os
atom 6.6032870336005178 5.3915056907621857 26.2582684252445091 Os
atom 12.0009688076104037 3.0594304081306110 25.2536378816231561 O
atom 2.5330227308692836 2.9597152042977446 22.6384194952062892 O
atom 15.5123035790463337 0.5420097835427118 25.6523346208659007 O
atom 0.7687597869767018 0.6276388118479943 23.4515647649127814 O
atom 3.4065601361311861 0.5349676442602095 23.2443456946294305 O
atom 12.8745087530110336 0.6346836806105571 25.8595578593254807 O
atom -0.1047734278655526 3.0523898663527955 22.8456418967629276 O
atom 14.6387662140806327 2.9667566279086608 25.0464167170494534 O
atom -7.7034863483549021 9.4350722044221467 23.2443526234930715 Os
atom -5.5024568226676482 6.7393476687686196 23.2443506495932652 Os
atom 13.2063617068476091 6.2900574441448596 22.2397090660797403 Os
atom 6.6032843547853979 9.8843644976023075 24.2489876138066336 Os
atom 12.0009689909553448 7.5522874713791106 23.2443566251818865 O
atom -6.2710830288180688 9.2497413709691134 24.6477070958644084 O
atom 15.5123047820553790 5.0348702353690040 23.6430548422695530 O
atom 13.9750598808881001 6.9176705104842293 25.4608503324147684 O
atom -5.3975409412671240 6.8249987568349768 25.2536248567563391 O
atom 12.8745078809543969 5.1275450489656587 23.8502786114619703 O
atom 13.1015173908448226 9.3424148408149801 24.8549318285093115 O
atom 14.6387662140737778 7.4596131306577087 23.0371366812729548 O
atom -3.3014277844270365 4.0436292438746939 23.2443488430638858 Os
atom -1.1004082673473565 1.3479145197860776 23.2443482817391285 Os
atom 8.8043082097946304 2.6957828001151278 26.2582631486612748 Os
atom 11.0053382408679639 4.4929192603721546 24.2489863114773669 Os
atom 16.4030238206752976 2.1608466743530572 23.2443562863026898 O
atom -1.8690272689164598 3.8582978919196327 24.6477040421348654 O
atom 11.1102544200017874 10.4263230329743806 23.6430505393114601 O
atom 18.3771061061755638 1.5262231444498171 25.4608454702103941 O
atom -0.9954898592118209 1.4335549546442656 25.2536232849963369 O
atom 8.4724551084216362 10.5189975672396319 23.8502747861692015 O
atom 17.5035708878168599 3.9509708469010225 24.8549240962688600 O
atom 19.0408140493186728 2.0681707853998930 23.0371277365645142 O
atom 9.9048616926059516 10.3336583901417480 25.2536307853893973 Os
atom 12.1058907934478288 7.6379295092309194 25.2536319305191483 Os
atom 8.8043152623933914 7.1886401408800484 24.2489907919917158 Os
atom 11.0053394528168909 0.0000511221760123 26.2582701154055727 Os
atom 7.5989202165219139 8.4508726657339270 25.2536379101935822 O
atom -1.8690282840995016 8.3511548711888306 22.6384235777025182 O
atom 11.1102563877409324 5.9334517508516695 25.6523355434925264 O
atom -3.6332858301172593 6.0190855425166268 23.4515670061610422 O
atom -0.9954848727984744 5.9264116308217067 23.2443412365260542 O
atom 8.4724596297563100 6.0261277037129446 25.8595601944977602 O
atom -4.5068256190151006 8.4438288832797728 22.8456447218628469 O
atom 10.2367195683692724 8.3581978630919078 25.0464168354254468 O
atom -5.5023915202107831 6.7393824334273411 29.2721924164993865 Os
atom -3.3013652412837344 4.0436606418733518 29.2721910672321499 Os
atom 15.4074542318517622 3.5943709321057646 28.2675491897731135 Os
atom 14.2020633227218358 4.8565967291035008 29.2722018397306734 O
atom 4.7341150948820490 4.7568849540153071 26.6569817876654369 O
atom 2.9698560238512601 2.4248141428401482 27.4701233463592089 O
atom 5.6076547898485716 2.3321345074655584 27.2629042761048836 O
atom 2.0963172769701059 4.8495550937105349 26.8642036054473046 O
atom 16.8398590342223322 4.7639250977698415 29.0649746290047446 O
atom 3.3017100222726561 0.4493571413039846 27.2629078981386108 Os
atom -3.3013641545801335 8.5365124269000159 27.2629098638701421 Os
atom -6.6029332278143205 8.0872271354328227 26.2582765187551246 Os
atom 17.6084839319838444 0.8986360134805755 28.2675569689481279 Os
atom 14.2020628084072307 9.3494604252648568 27.2629167008368114 O
atom 4.7341146163360364 0.2640108985889142 28.6662634074890086 O
atom -4.2969974019685315 6.8320371113720757 27.6616184492952044 O
atom -5.8342436179694861 8.7148393162876268 29.4794087506078810 O
atom -3.1964504019069149 8.6221647163123531 29.2721851651483504 O
atom 15.0756014926792510 6.9247114721762495 27.8688399567855001 O
atom 2.0963207652248621 0.3566835194614363 28.8734869276371526 O
atom -5.1705323966995191 9.2567915416831408 27.0556977897711946 O
atom -1.1003376654362964 5.8407950792072700 27.2629111273803773 Os
atom 1.1006857781727906 3.1450769336696616 27.2629109987837062 Os
atom 13.2064348131955303 6.2900882378050316 28.2675548623598729 Os
atom 18.6041161310094125 3.9580140341718524 27.2629173744352684 O
atom 0.3320673803231348 5.6554646601842684 28.6662617009694287 O
atom 0.1050577542113444 1.4405952298532338 27.6616175470339769 O
atom -1.4321953623296282 3.3233889888988473 29.4794055948763258 O
atom 1.2056049689378689 3.2307174780725840 29.2721869328421640 O
atom 19.4776534020686434 1.5332645388348896 27.8688378257277733 O
atom -2.3057318239295190 5.7481378945208439 28.8734858580149449 O
atom -0.7684838548482981 3.8653388645640780 27.0556947197755697 O
atom -1.1003370930180285 1.3479264462311280 29.2721925512259631 Os
atom -7.7034135729991702 9.4350973054041827 29.2721916183718918 Os
atom 11.0054146431897308 8.9858037980864900 28.2675560442239195 Os
atom 0.0001400545703940 0.0000617626089790 26.2582718626961125 Os
atom 9.8000158004486178 10.2480356784531779 29.2721989779046297 O
atom 0.3320648401492352 10.1483210789580305 26.6569827511485080 O
atom -1.4321908991217462 7.8162536545297447 27.4701260285401077 O
atom 1.2056041415724348 7.7235782804362074 27.2629027941651927 O
atom -2.3057322308917332 10.2409944301377909 26.8642073409244020 O
atom 12.4378126121399930 10.1553649636562984 29.0649791074743575 O
atom 5.5028112277180661 6.7393826068652443 29.2721950333381926 Os
atom 7.7038355299875807 4.0436625516054878 29.2721974685401847 Os
atom 4.4022598826146684 3.5943700301848041 28.2675503573482914 Os
atom 3.1968671801574868 4.8565985073731124 29.2722017499054132 O
atom 15.7393155977879982 4.7568833035402482 26.6569833634885498 O
atom 13.9750526538954141 2.4248069110904984 27.4701286331950456 O
atom 16.6128530030499029 2.3321357435027110 27.2629095629116875 O
atom 13.1015194390531580 4.8495579655952969 26.8642057650451846 O
atom 5.8346645866277180 4.7639247271511627 29.0649805853317105 O
atom 14.3069107219653979 0.4493440489205563 27.2629164917753322 Os
atom 7.7038360442510658 8.5365157680111245 27.2629145178755223 Os
atom 4.4022600793946989 8.0872255433873619 26.2582729343619974 Os
atom 6.6032869307340754 0.8986363421007174 28.2675514820888907 Os
atom 3.1968673635024283 9.3494555706216129 27.2629204934641436 O
atom 15.7393140415022330 0.2640132154675232 28.6662709641466691 O
atom 6.7082031546024652 6.8320383346115063 27.6616187105518065 O
atom 5.1709582534351872 8.7148386097267316 29.4794142006970254 O
atom 7.8087519256515883 8.6221668560774791 29.2721887250385997 O
atom 4.0704062535014804 6.9247131482081610 27.8688424797442273 O
atom 13.1015199667934965 0.3566866853133898 28.8734956967915721 O
atom 5.8346645866208622 9.2567812299002092 27.0557005495552119 O
atom 9.9048650824916766 5.8407973431171971 27.2629127113461429 Os
atom 12.1058845995713575 3.1450826190285790 27.2629121500213891 Os
atom 2.2012366134150514 6.2900873596146569 28.2675501797596276 Os
atom 7.5989221932223803 3.9580147735955586 27.2629201545849540 O
atom 11.3372655980022561 5.6554659911621341 28.6662679104171190 O
atom 11.1102569959504649 1.4405948774727881 27.6616144075937207 O
atom 9.5730044787226483 3.3233912436923188 29.4794093384926512 O
atom 12.2108030077068914 3.2307230538867695 29.2721871532785975 O
atom 8.4724576843703083 1.5332694117380408 27.8688386544514586 O
atom 8.6994692603639425 5.7481389461435217 28.8734879645511207 O
atom 10.2367124218657572 3.8653388846423944 27.0556916048467748 O
atom 9.9048642685546273 1.3479302346401583 29.2721946536716544 Os
atom 3.3017891659949141 9.4350976084734217 29.2721957988014054 Os
atom 0.0002136349404792 8.9858082401225516 28.2675546602739729 Os
atom -1.2051814109310020 10.2480407649764285 29.2722017784758357 O
atom 11.3372645828192109 10.1483229704313320 26.6569874459847753 O
atom 9.5730070368014530 7.8162536417591282 27.4701308744432993 O
atom 12.2108079941202377 7.7235797300642108 27.2629051048083113 O
atom 8.6994672479036161 10.2409969825222742 26.8642085901451040 O
atom 1.4326179409163549 10.1553659623344110 29.0649807037077039 O
