#===============================================================================
# Created using the Atomic Simulation Environment (ASE)

# Mon Mar 23 14:01:10 2026

#=======================================================
lattice_vector 11.0790232517419795 0.0000000000000000 0.0000000000000000 
lattice_vector 3.7278993459126002 10.4330108955597858 0.0000000000000000 
lattice_vector 0.0000000000000000 0.0000000000000000 43.3203818638146245 
atom 11.0789966743626191 7.8062985372621165 15.8677656473325754 Os
atom 14.0763745715629902 9.9182461924941610 15.0000034550151664 O
atom 12.2123836182016756 4.7017977220348213 15.0000039619219354 O
atom 9.2150462760055429 2.5897977554151344 15.8677674090118295 Os
atom 8.5368828370901184 9.9182124338356239 15.0000000000000000 O
atom 5.5394822064552365 7.8063054962015048 15.8677670533435098 Os
atom 6.6728972634297827 4.7017691725392661 15.0000052183968151 O
atom 7.3510678575034731 5.1795911639853713 20.3959844091004072 Os
atom 11.9847859259725613 8.4445177688423190 19.2639338439970942 Os
atom 12.2124157967710207 8.6048925136150682 17.2641163500835049 O
atom 13.1181896619275271 6.8359358103296790 19.2639154363516028 O
atom 10.8513608513745474 10.0531034713116298 19.2639166601927485 O
atom 13.6211251249726590 9.5974829718325942 18.9996371224669645 O
atom 9.2150274424063152 6.4929517455054615 18.1318754186277751 Os
atom 13.8487514322735681 9.7578714245904781 16.9998253135537141 Os
atom 10.3484457547038442 7.2915388192174140 19.5282222167830000 O
atom 3.9031223941471320 8.1492824798137420 16.9998184314609588 O
atom 8.9874207424125228 0.9334427569547028 16.9998135416048832 O
atom 0.6781730761460816 0.4778228061181803 16.7355304074613755 O
atom 7.3510774135635115 1.2764504801157939 18.1318777149524060 Os
atom 11.9847817543852457 4.5413994608454153 16.9998261030826470 Os
atom 8.4844548013425314 2.0750903487580747 19.5282227236897690 O
atom 2.0391786523386357 2.9327976332570413 16.9998371451307975 O
atom 10.8513817194443920 6.1499702302769492 16.9998330484090658 O
atom 2.5420817326671630 5.6943954166673683 16.7355378489808899 O
atom 9.2150168050589958 10.3961012776981736 20.3959861707796648 Os
atom 10.1208158432499413 3.2280432881404026 19.2639385739622178 Os
atom 10.3484265311783528 3.3884382863751292 17.2641133885159519 O
atom 11.2542479878800314 1.6194490991067765 19.2639347139225094 O
atom 8.9874207553511134 4.8366184082736083 19.2639392148243296 O
atom 11.7571369842052018 4.3810386542973649 18.9996395579838868 O
atom 3.6755181382324720 6.4929482605539324 18.1318754574889525 Os
atom 8.3092445625658211 9.7578531852827091 16.9998179038682729 Os
atom 4.8089540202309680 7.2915050605588787 19.5282187617678318 O
atom 9.4426469811089344 8.1492839742430210 16.9998094677853189 O
atom 3.4479143246360477 0.9334362973921990 16.9998146428218391 O
atom 6.2177016019699023 0.4778002261487492 16.7355312580199254 O
atom 12.8905766413380665 5.1795981229247579 20.3959858151113451 Os
atom 6.4452778413182505 8.4444997287859671 19.2639283030020287 Os
atom 6.6729172496859785 8.6048670941874938 17.2641135856785439 O
atom 7.5786750581979216 6.8359258492377482 19.2639278353144903 O
atom 5.3118517154097367 10.0530977434196984 19.2639188716846093 O
atom 8.0816393029808111 9.5974556800424367 18.9996431661981120 O
atom 3.6755319580463008 2.5897968879178332 15.8677689543222442 Os
atom 4.5813071262246430 3.2280299579370606 19.2639273250435750 Os
atom 4.8089318274676938 3.3884130145899864 17.2641155911599249 O
atom 5.7147322151406073 1.6194450700102605 19.2639443402789574 O
atom 3.4479118313047388 4.8366168260199691 19.2639403581056570 O
atom 6.2176446400329830 4.3810060836022409 18.9996382203042202 O
atom 1.8115689171721714 1.2764429279056499 18.1318762156345343 Os
atom 6.4452682968037216 4.5413819167802387 16.9998199461768849 Os
atom 2.9449684465706358 2.0750617992625200 19.5282239801646469 O
atom 7.5787011357418628 2.9328014947828778 16.9998290433108181 O
atom 5.3118730471697617 6.1499691368244500 16.9998350231255593 O
atom 8.0816040326529155 5.6943675935942748 16.7355284463348468 O
atom 3.6231390406443258 2.5528837907086235 24.9242031708682426 Os
atom 8.2568571091134118 5.8178103955655729 23.7921526057649260 Os
atom 8.4844869799118712 5.9781851403383239 21.7923351118513366 O
atom 9.3902608450683829 4.2092284370529329 23.7921341981194345 O
atom 7.1234320345153970 7.4263960980348855 23.7921354219605803 O
atom 9.8931963081135113 6.9707755985558482 23.5278558842347962 O
atom 5.4870986255471692 3.8662443722287159 22.6600941803956069 Os
atom 10.1208226154144203 7.1311640513137329 21.5280440753215458 Os
atom 6.6205169378446920 4.6648314459406679 24.0564409785508317 O
atom 11.2542168290299642 5.5225751065369968 21.5280371932287906 O
atom 8.9873912714659721 8.7397462792377425 21.5280323033727186 O
atom 11.7571668569415113 8.2841263284012197 21.2637491692292073 O
atom 7.3510479426169599 9.0827540023988327 22.6600964767202342 Os
atom 8.2568529375260962 1.9146920875686690 21.5280448648504787 Os
atom 8.4844253303959807 9.8813938710411140 24.0564414854576007 O
atom 9.3902730872214715 0.3060902599802945 21.5280559068986292 O
atom 7.1234529025852495 3.5232628570002009 21.5280518101769012 O
atom 9.8931761675499921 3.0676880433906213 21.2637566107487217 O
atom 5.4870879881998489 7.7693939044214275 24.9242049325474966 Os
atom 6.3928870263907944 0.6013359148636562 23.7921573357300531 Os
atom 6.6204977143192085 0.7617309130983819 21.7923321502837872 O
atom 11.2542185169334843 9.4257526213898153 23.7921534756903412 O
atom 5.2594919384919621 2.2099110349968623 23.7921579765921578 O
atom 8.0292081673460540 1.7543312810206177 23.5278583197517221 O
atom 11.0266125731153100 3.8662408872771854 22.6600942192567878 Os
atom 4.5813157457066715 7.1311458120059630 21.5280366656361046 Os
atom 12.1600484551138042 4.6647976872821317 24.0564375235356636 O
atom 5.7147181642497893 5.5225766009662740 21.5280282295531507 O
atom 3.4478848536894984 8.7397398196752381 21.5280334045896709 O
atom 6.2176721310233507 8.2841037484317894 21.2637500197877571 O
atom 9.1626478244789222 2.5528907496480127 24.9242045768791733 Os
atom 2.7173490244591059 5.8177923555092219 23.7921470647698605 Os
atom 2.9449884328268299 5.9781597209107495 21.7923323474463757 O
atom 3.8507462413387752 4.2092184759610021 23.7921465970823220 O
atom 12.6629461502925693 7.4263903701429514 23.7921376334524410 O
atom 4.3537104861216669 6.9707483067656923 23.5278619279659438 O
atom 14.7545257388417301 10.3961004102008712 20.3959877160900760 Os
atom 0.8533783093654915 0.6013225846603152 23.7921460868114103 Os
atom 1.0810030106085446 0.7617056413132404 21.7923343529277602 O
atom 5.7147027441940601 9.4257485922932993 23.7921631020467892 O
atom 10.7990062661875665 2.2099094527432217 23.7921591198734887 O
atom 2.4897158231738366 1.7542987103254950 23.5278569820720556 O
atom 12.8905626979675976 9.0827464501886901 22.6600949774023661 Os
atom 2.7173394799445725 1.9146745435034924 21.5280387079447166 Os
atom 14.0239622273660682 9.8813653215455588 24.0564427419324787 O
atom 3.8507723188827141 0.3060941215061326 21.5280478050786499 O
atom 1.5839442303106142 3.5232617635477017 21.5280537848933911 O
atom 4.3536752157937624 3.0676602203175278 21.2637472081026786 O
atom 4.5289282922542631 3.1911030222888259 28.3203713675327577 Os
atom 4.7565581630527145 3.3514777670615787 26.3205538736191684 O
atom 5.6623320282092360 1.5825210637761866 28.3203529598872663 O
atom 3.3955032176562474 4.7996887247581341 28.3203541837284192 O
atom 6.1652674912543644 4.3440682252791003 28.0560746460026351 O
atom 1.7591698086880263 1.2395369989519684 27.1883129421634422 Os
atom 6.3928937985552734 4.5044566780369841 26.0562628370893776 Os
atom 7.5262880121708173 2.8958677332602498 26.0562559549966224 O
atom 5.2594624546068305 6.1130389059609973 26.0562510651405468 O
atom 8.0292380400823617 5.6574189551244736 25.7919679309970462 O
atom 3.6231191257578175 6.4560466291220866 27.1883152384880660 Os
atom 8.2568234665795490 9.7209956098517072 26.0562636266183176 Os
atom 9.3902436162749225 8.1123937822633359 26.0562746686664610 O
atom 3.3955240857261031 0.8965554837234557 26.0562705719447294 O
atom 6.1652473506908461 0.4409806701138758 25.7919753725165535 O
atom 6.3928575554442428 8.4076394371466971 28.3203760974978849 Os
atom 6.6204682433726614 8.5680344353814224 26.3205509120516190 O
atom 7.5262897000743285 6.7990452481130701 28.3203722374581801 O
atom 5.2594624675454256 10.0162145572799020 28.3203767383599967 O
atom 8.0291786963995087 9.5606348033036586 28.0560770815195539 O
atom 7.2986837562561568 1.2395335140004391 27.1883129810246231 Os
atom 11.9324101805895051 4.5044384387292160 26.0562554274039400 Os
atom 1.9867893473906468 2.8958692276895257 26.0562469913209824 O
atom 10.7989792885723350 6.1130324463984920 26.0562521663575026 O
atom 2.4897433141642087 5.6573963751550416 25.7919687815555925 O
atom 10.0684434593419372 3.1910849822324754 28.3203658265376959 Os
atom 10.2960828677096661 3.3514523476339999 26.3205511092142110 O
atom 11.2018406762216127 1.5825111026842547 28.3203653588501538 O
atom 8.9350173334334180 4.7996829968662089 28.3203563952202728 O
atom 11.7048049210044987 4.3440409334889445 28.0560806897337756 O
atom 11.0265969219825859 7.7693930369241260 24.9242064778579078 Os
atom 11.9323720901609196 8.4076261069433542 28.3203648485792456 Os
atom 12.1599967914039819 8.5680091635962796 26.3205531146955956 O
atom 13.0657971790768883 6.7990412190165532 28.3203818638146245 O
atom 10.7989767952410194 10.0162129750262601 28.3203778816413276 O
atom 13.5687096039692747 9.5606022326085363 28.0560757438398838 O
atom 9.1626338811084516 6.4560390769119431 27.1883137391702014 Os
atom 13.7963332607400098 9.7209780657865306 26.0562574697125484 Os
atom 3.8507428479361718 8.1123976437891709 26.0562665668464888 O
atom 8.9350386651934421 0.8965543902709572 26.0562725466612264 O
atom 0.6257463989346256 0.4409528470407817 25.7919659698705175 O
