#===============================================================================
# Created using the Atomic Simulation Environment (ASE)

# Mon Mar 23 14:01:07 2026

#=======================================================
lattice_vector 9.8433162200001281 0.0000000000000000 0.0000000000000000 
lattice_vector -0.0000031600105307 9.8433818399996227 0.0000000000000000 
lattice_vector 0.0000000000000000 0.0000000000000000 46.2494457577807907 
atom 2.4608322149961799 2.4608367549954040 20.6638540949213869 Os
atom 9.8433122499873758 9.8433792399942774 20.6638569349215224 Os
atom 1.7187401769116037 0.7420980169895538 15.0000046899997486 O
atom 0.7420898319082387 3.2029479702225521 15.0000045020623105 O
atom 1.7187382269049352 5.6637979169894397 15.0000000000000000 O
atom 0.7420895019027748 8.1246402602226393 15.0000019120623591 O
atom 7.3824880949954901 2.4608413349949854 20.6638562349214965 Os
atom 6.6403938969111778 0.7421011569889019 15.0000028399998016 O
atom 5.6637471519080904 3.2029492502224071 15.0000051420623386 O
atom 6.6403932569046029 5.6638002869888897 15.0000019200000381 O
atom 5.6637436619025134 8.1246422602219930 15.0000023520623849 O
atom 2.4608247399875784 9.8433792949947971 18.2029913549215152 Os
atom 0.0000013449958505 2.4608402499955324 18.2029940249214661 Os
atom 2.4608300149965694 2.4608383349963017 15.7421194649214087 Os
atom 9.8433118799881356 9.8433786899955606 15.7421189449214971 Os
atom 4.1795691080834976 1.7187372997697972 16.4842371777807486 O
atom 1.7187375269106264 0.7420998869877631 19.9217433799997821 O
atom 0.7420906051433258 4.1795830002220296 17.4608730098431977 O
atom 3.2029215998448684 3.2029493430026572 18.9451027820623707 O
atom 0.7420912719074161 3.2029487202213311 19.9217462520623450 O
atom 3.2029181930808490 4.1795828330027200 16.4842364098431773 O
atom 4.1795661048483250 0.7420986797686407 18.9451057799997429 O
atom 1.7187400801458339 1.7187382069887938 17.4608766677807772 O
atom 2.4608295999916949 4.9216955849955442 18.2029902649217519 Os
atom 9.8433119749892199 7.3825406699948148 18.2029900349217044 Os
atom 2.4608273849897442 7.3825389149959104 15.7421206849216802 Os
atom 9.8433141999925660 4.9216930399959180 15.7421173149216500 Os
atom 4.1795652080771726 6.6404348997692768 16.4842358277809211 O
atom 1.7187397069040999 5.6637986069881459 19.9217445400000344 O
atom 0.7420870151373754 9.1012781102214770 17.4608745598433011 O
atom 3.2029137998392407 8.1246421830012814 18.9451093820623768 O
atom 0.7420867219021916 8.1246394802207202 19.9217444220623143 O
atom 3.2029168430749984 9.1012773230025310 16.4842377998432852 O
atom 4.1795671548414512 5.6637994397687743 18.9451093400000445 O
atom 1.7187367401393399 6.6404368169883430 17.4608760277809800 O
atom 7.3824797499874837 9.8433802449942842 18.2029919549215222 Os
atom 4.9216603849967546 2.4608351099957395 18.2029919849213329 Os
atom 7.3824876149965659 2.4608390849964068 15.7421128849214256 Os
atom 4.9216529099877384 9.8433807899954484 15.7421181049215519 Os
atom 9.1012236580835708 1.7187371497691613 16.4842394477807161 O
atom 6.6403957269103033 0.7421021969877206 19.9217453799998481 O
atom 5.6637442451436764 4.1795811702212973 17.4608735298431128 O
atom 8.1245768998450529 3.2029485830021978 18.9451030620623229 O
atom 5.6637474719082581 3.2029439702210811 19.9217442620621945 O
atom 8.1245763730812328 4.1795808330027446 16.4842359798431239 O
atom 9.1012231948479219 0.7421015897684947 18.9451051599998159 O
atom 6.6403976501461601 1.7187369669889270 17.4608689277807372 O
atom 7.3824826599923217 4.9216920949947438 18.2029899149216092 Os
atom 4.9216496749888705 7.3825424199941292 18.2029904549217214 Os
atom 7.3824812549896119 7.3825400649951947 15.7421219749216732 Os
atom 4.9216545799922882 4.9216943399956516 15.7421181149216807 Os
atom 9.1012214380774381 6.6404335897689499 16.4842366277808665 O
atom 6.6403932069039113 5.6638001969874168 19.9217441100000379 O
atom 5.6637419951371539 9.1012799202209997 17.4608737098433267 O
atom 8.1245729898392831 8.1246424530015240 18.9451070020623931 O
atom 5.6637388819019163 8.1246416002197677 19.9217442720623268 O
atom 8.1245722630748798 9.1012784530020898 16.4842381498432964 O
atom 9.1012222048416120 5.6637990697684133 18.9451047200000104 O
atom 6.6403905201396132 6.6404354669876273 17.4608766877809032 O
atom 2.4608284799871458 9.8433781049942244 23.1247232449215190 Os
atom 0.0000014549954360 2.4608390999944589 23.1247230749214410 Os
atom 2.4608320549949498 2.4608361949927691 30.5073271949213805 Os
atom 9.8433120899861439 9.8433786799916430 30.5073300349215160 Os
atom 4.1795697280826269 1.7187386797686226 21.4059726577808007 O
atom 1.7187400169103737 0.7420974569869192 24.8434777899997314 O
atom 0.7420908751430638 4.1795805602207894 22.3826087798431317 O
atom 3.2029201298456700 3.2029403030011556 23.8668379320621042 O
atom 0.7420896719070087 3.2029474102199176 24.8434776020623005 O
atom 3.2029219830812572 4.1795762730020787 21.4059710198430295 O
atom 4.1795690148474698 0.7421001397679460 23.8668373199998101 O
atom 1.7187401401457125 1.7187351569876692 22.3826072377806966 O
atom 2.4608314899935926 4.9216798449946495 23.1247230349213240 Os
atom 9.8433120249884727 7.3825415399936984 23.1247202449217397 Os
atom 2.4608255349890853 7.3825386449941579 20.6638625049216600 Os
atom 0.0000002999913825 4.9216952999948642 20.6638581149217444 Os
atom 4.1795660780775350 6.6404286397681718 21.4059702477807541 O
atom 1.7187380669037053 5.6637973569868061 24.8434730999999900 O
atom 0.7420895651366156 9.1012788402206422 22.3826089698433535 O
atom 3.2029157598391373 8.1246390330004701 23.8668396720623051 O
atom 0.7420893419015446 8.1246397002200048 24.8434750120623491 O
atom 3.2029172230743335 9.1012775430013875 21.4059707798433010 O
atom 4.1795646648410214 5.6637984697673307 23.8668367000000003 O
atom 1.7187371801404030 6.6404259969870614 22.3826142077806836 O
atom 7.3824835299866782 9.8433813849937142 23.1247239249215895 Os
atom 4.9216602049954110 2.4608395499945117 23.1247248149214641 Os
atom 7.3824879349942618 2.4608407749923509 30.5073293349214865 Os
atom 4.9216540499869090 9.8433816199941973 20.6638592249215911 Os
atom 9.1012252680830610 1.7187364097682301 21.4059719777807089 O
atom 6.6403937369099477 0.7421005969862674 24.8434759399997844 O
atom 5.6637472951428949 4.1795818502204325 22.3826118798431608 O
atom 8.1245771998443903 3.2029488330010838 23.8668345720623378 O
atom 5.6637469919068586 3.2029486902197721 24.8434782420623250 O
atom 8.1245764330799872 4.1795846630015392 21.4059693898432393 O
atom 9.1012254948473252 0.7421014097676680 23.8668378899998359 O
atom 6.6403979701453144 1.7187379769875899 22.3826084477807754 O
atom 7.3824847099913287 4.9216944149939081 23.1247215249217035 Os
atom 4.9216527449885330 7.3825407099934894 23.1247210249217048 Os
atom 7.3824775649882470 7.3825444049932623 20.6638597149217738 Os
atom 4.9216590799930824 4.9216850599949469 20.6638590149214600 Os
atom 9.1012193180762964 6.6404368097674240 21.4059690177809507 O
atom 6.6403930969033738 5.6637997269862561 24.8434750200000209 O
atom 5.6637438951364203 9.1012802702199380 22.3826124098433610 O
atom 8.1245715498390219 8.1246401830001105 23.8668392920623162 O
atom 5.6637435019012852 8.1246417002193567 24.8434754520623713 O
atom 8.1245738830740581 9.1012795930011290 21.4059717498433493 O
atom 9.1012231448407288 5.6638006097673443 23.8668383200000633 O
atom 6.6403919101389803 6.6404354469866274 22.3826104177809242 O
atom 2.4608245799863484 9.8433787349921609 28.0464644549215123 Os
atom 0.0000011849946204 2.4608396899928979 28.0464671249214561 Os
atom 2.4608298549953402 2.4608377749936663 25.5855925649213916 Os
atom 9.8433117199869038 9.8433781299929262 25.5855920449214906 Os
atom 4.1795689480822684 1.7187367397671631 26.3277102777807386 O
atom 1.7187373669093962 0.7420993269851287 29.7652164799997649 O
atom 0.7420904451420957 4.1795824402193951 27.3043461098431877 O
atom 3.2029214398436383 3.2029487830000223 28.7885758820623607 O
atom 0.7420911119061859 3.2029481602186962 29.7652193520623385 O
atom 3.2029180330796194 4.1795822730000856 26.3277095098431673 O
atom 4.1795659448470950 0.7420981197660064 28.7885788799997258 O
atom 1.7187399201446041 1.7187376469861595 27.3043497677807636 O
atom 2.4608294399904653 4.9216950249929097 28.0464633649217419 Os
atom 9.8433118149879899 7.3825401099921795 28.0464631349216873 Os
atom 2.4608272249885137 7.3825383549932750 25.5855937849216630 Os
atom 9.8433140399913341 4.9216924799932826 25.5855904149216471 Os
atom 4.1795650480759416 6.6404343397666423 26.3277089277809040 O
atom 1.7187395469028701 5.6637980469855114 29.7652176400000172 O
atom 0.7420868551361453 9.1012775502188408 27.3043476598432875 O
atom 3.2029136398380116 8.1246416229986469 28.7885824820623597 O
atom 0.7420865619009616 8.1246389202180840 29.7652175220623079 O
atom 3.2029166830737688 9.1012767629998965 26.3277108998432752 O
atom 4.1795669948402212 5.6637988797661407 28.7885824400000345 O
atom 1.7187365801381098 6.6404362569857094 27.3043491277809736 O
atom 7.3824795899862536 9.8433796849916479 28.0464650549215122 Os
atom 4.9216602249955246 2.4608345499931046 28.0464650849213228 Os
atom 7.3824874549953368 2.4608385249937723 25.5855859849214156 Os
atom 4.9216527499865084 9.8433802299928157 25.5855912049215348 Os
atom 9.1012234980823390 1.7187365897665272 26.3277125477806990 O
atom 6.6403955669090733 0.7421016369850862 29.7652184799998381 O
atom 5.6637440851424481 4.1795806102186628 27.3043466298431028 O
atom 8.1245767398438211 3.2029480229995628 28.7885761620623200 O
atom 5.6637473119070281 3.2029434102184466 29.7652173620621809 O
atom 8.1245762130800045 4.1795802730001101 26.3277090798431104 O
atom 9.1012230348466918 0.7421010297658601 28.7885782599998024 O
atom 6.6403974901449310 1.7187364069862929 27.3043420277807272 O
atom 7.3824824999910916 4.9216915349921084 28.0464630149216063 Os
atom 4.9216495149876405 7.3825418599914947 28.0464635549217078 Os
atom 7.3824810949883828 7.3825395049925593 25.5855950749216632 Os
atom 4.9216544199910590 4.9216937799930180 25.5855912149216707 Os
atom 9.1012212780762063 6.6404330297663163 26.3277097277808565 O
atom 6.6403930469026813 5.6637996369847832 29.7652172100000385 O
atom 5.6637418351359239 9.1012793602183653 27.3043468098433166 O
atom 8.1245728298380513 8.1246418929988895 28.7885801020623830 O
atom 5.6637387219006863 8.1246410402171332 29.7652173720623168 O
atom 8.1245721030736444 9.1012778929994536 26.3277112498432828 O
atom 9.1012220448403802 5.6637985097657788 28.7885778199999933 O
atom 6.6403903601383822 6.6404349069849928 27.3043497877808932 O
atom 4.1795695680813969 1.7187381197659883 31.2494457577807907 O
atom 3.2029218230800272 4.1795757129994442 31.2494441198430124 O
atom 2.4608253749878553 7.3825380849915234 30.5073356049216500 Os
atom 0.0000001399901524 4.9216947399922297 30.5073312149217344 Os
atom 4.1795659180763041 6.6404280797655364 31.2494433477807405 O
atom 3.2029170630731030 9.1012769829987512 31.2494438798432839 O
atom 4.9216538899856799 9.8433810599915628 30.5073323249215775 Os
atom 9.1012251080818292 1.7187358497655958 31.2494450777806989 O
atom 8.1245762730787572 4.1795841029989047 31.2494424898432257 O
atom 7.3824774049870161 7.3825438449906269 30.5073328149217602 Os
atom 4.9216589199918515 4.9216844999923124 30.5073321149214465 Os
atom 9.1012191580750663 6.6404362497647904 31.2494421177809372 O
atom 8.1245737230728299 9.1012790329984945 31.2494448498433357 O
