#===============================================================================
# Created using the Atomic Simulation Environment (ASE)

# Mon Mar 23 14:01:10 2026

#=======================================================
lattice_vector 11.0790232517419795 0.0000000000000000 0.0000000000000000 
lattice_vector 3.7278993459126002 10.4330108955597858 0.0000000000000000 
lattice_vector 0.0000000000000000 0.0000000000000000 36.5280497135308337 
atom 3.6231390406443258 2.5528837907086235 18.1318710205844553 Os
atom 8.2568571091134118 5.8178103955655729 16.9998204554811387 Os
atom 8.4844869799118712 5.9781851403383239 15.0000029615675494 O
atom 9.3902608450683829 4.2092284370529329 16.9998020478356473 O
atom 7.1234320345153970 7.4263960980348855 16.9998032716767931 O
atom 9.8931963081135113 6.9707755985558482 16.7355237339510090 O
atom 5.4870986255471692 3.8662443722287159 15.8677620301118196 Os
atom 6.6205169378446920 4.6648314459406679 17.2641088282670445 O
atom 7.3510479426169599 9.0827540023988327 15.8677643264364470 Os
atom 8.4844253303959807 9.8813938710411140 17.2641093351738135 O
atom 5.4870879881998489 7.7693939044214275 18.1318727822637094 Os
atom 6.3928870263907944 0.6013359148636562 16.9998251854462659 Os
atom 6.6204977143192085 0.7617309130983819 15.0000000000000000 O
atom 11.2542185169334843 9.4257526213898153 16.9998213254065540 O
atom 5.2594919384919621 2.2099110349968623 16.9998258263083706 O
atom 8.0292081673460540 1.7543312810206177 16.7355261694679349 O
atom 11.0266125731153100 3.8662408872771854 15.8677620689730006 Os
atom 12.1600484551138042 4.6647976872821317 17.2641053732518763 O
atom 9.1626478244789222 2.5528907496480127 18.1318724265953861 Os
atom 2.7173490244591059 5.8177923555092219 16.9998149144860733 Os
atom 2.9449884328268299 5.9781597209107495 15.0000001971625885 O
atom 3.8507462413387752 4.2092184759610021 16.9998144467985348 O
atom 12.6629461502925693 7.4263903701429514 16.9998054831686538 O
atom 4.3537104861216669 6.9707483067656923 16.7355297776821565 O
atom 0.8533783093654915 0.6013225846603152 16.9998139365276231 Os
atom 1.0810030106085446 0.7617056413132404 15.0000022026439730 O
atom 5.7147027441940601 9.4257485922932993 16.9998309517630020 O
atom 10.7990062661875665 2.2099094527432217 16.9998269695897015 O
atom 2.4897158231738366 1.7542987103254950 16.7355248317882683 O
atom 12.8905626979675976 9.0827464501886901 15.8677628271185789 Os
atom 14.0239622273660682 9.8813653215455588 17.2641105916486914 O
atom 4.5289282922542631 3.1911030222888259 21.5280392172489705 Os
atom 4.7565581630527145 3.3514777670615787 19.5282217233353812 O
atom 5.6623320282092360 1.5825210637761866 21.5280208096034791 O
atom 3.3955032176562474 4.7996887247581341 21.5280220334446319 O
atom 6.1652674912543644 4.3440682252791003 21.2637424957188479 O
atom 1.7591698086880263 1.2395369989519684 20.3959807918796550 Os
atom 6.3928937985552734 4.5044566780369841 19.2639306868055904 Os
atom 7.5262880121708173 2.8958677332602498 19.2639238047128352 O
atom 5.2594624546068305 6.1130389059609973 19.2639189148567596 O
atom 8.0292380400823617 5.6574189551244736 18.9996357807132590 O
atom 3.6231191257578175 6.4560466291220866 20.3959830882042787 Os
atom 8.2568234665795490 9.7209956098517072 19.2639314763345304 Os
atom 9.3902436162749225 8.1123937822633359 19.2639425183826738 O
atom 3.3955240857261031 0.8965554837234557 19.2639384216609422 O
atom 6.1652473506908461 0.4409806701138758 18.9996432222327662 O
atom 6.3928575554442428 8.4076394371466971 21.5280439472140976 Os
atom 6.6204682433726614 8.5680344353814224 19.5282187617678318 O
atom 7.5262897000743285 6.7990452481130701 21.5280400871743929 O
atom 5.2594624675454256 10.0162145572799020 21.5280445880762095 O
atom 8.0291786963995087 9.5606348033036586 21.2637449312357667 O
atom 7.2986837562561568 1.2395335140004391 20.3959808307408359 Os
atom 11.9324101805895051 4.5044384387292160 19.2639232771201527 Os
atom 1.9867893473906468 2.8958692276895257 19.2639148410371952 O
atom 10.7989792885723350 6.1130324463984920 19.2639200160737154 O
atom 2.4897433141642087 5.6573963751550416 18.9996366312718052 O
atom 10.0684434593419372 3.1910849822324754 21.5280336762539086 Os
atom 10.2960828677096661 3.3514523476339999 19.5282189589304238 O
atom 11.2018406762216127 1.5825111026842547 21.5280332085663666 O
atom 8.9350173334334180 4.7996829968662089 21.5280242449364856 O
atom 11.7048049210044987 4.3440409334889445 21.2637485394499883 O
atom 11.0265969219825859 7.7693930369241260 18.1318743275741205 Os
atom 11.9323720901609196 8.4076261069433542 21.5280326982954584 Os
atom 12.1599967914039819 8.5680091635962796 19.5282209644118083 O
atom 13.0657971790768883 6.7990412190165532 21.5280497135308373 O
atom 10.7989767952410194 10.0162129750262601 21.5280457313575404 O
atom 13.5687096039692747 9.5606022326085363 21.2637435935560966 O
atom 9.1626338811084516 6.4560390769119431 20.3959815888864142 Os
atom 13.7963332607400098 9.7209780657865306 19.2639253194287612 Os
atom 3.8507428479361718 8.1123976437891709 19.2639344165627016 O
atom 8.9350386651934421 0.8965543902709572 19.2639403963774392 O
atom 0.6257463989346256 0.4409528470407817 18.9996338195867303 O
