#===============================================================================
# Created using the Atomic Simulation Environment (ASE)

# Mon Mar 23 14:01:12 2026

#=======================================================
lattice_vector 12.7627089219227017 0.0000000000000000 0.0000000000000000 
lattice_vector 0.0000000000000000 6.4266484300000002 0.0000000000000000 
lattice_vector 0.0000000000000000 0.0000000000000000 35.6364366843505991 
atom 6.3813374409477408 0.0000009300000002 16.2228876588866342 Os
atom 6.3813290263768749 3.2133248900000004 16.2228879558664829 Os
atom 9.5719577815874786 6.4266470900000003 15.0000044016746727 O
atom 9.5719666982028482 3.2133247400000005 15.0000063179393521 O
atom 3.1906839427407676 4.8199867100000002 16.2228836902639273 Os
atom 3.1907127277254639 6.4266482800000002 15.0000000000000000 O
atom 5.1584481433155798 4.8199931099999995 16.2228781567005242 O
atom 1.2228830716169912 4.8199821700000003 16.2228745866951627 O
atom 3.1906824224615029 1.6066605299999999 16.2228831740750792 Os
atom 3.1907052253191273 3.2133238300000007 15.0000056922051357 O
atom 5.1584474432797185 1.6066563900000004 16.2228784041874903 O
atom 1.2228810210076335 1.6066647400000000 16.2228740634349293 O
atom 12.7626878395799892 3.2133245600000002 16.2228887513641951 Os
atom 6.3813390726014312 4.8199861600000009 19.4135568265832106 Os
atom 6.3813503496211910 0.0000004699999996 18.1906748757915580 O
atom 8.3491144525412810 4.8199951400000005 19.4135398025412584 O
atom 4.4135483413947849 4.8199914100000001 19.4135378235255303 O
atom 6.3813417114468916 6.4266481300000002 20.6364324558485066 O
atom 6.3813397302100157 1.6066619700000002 19.4135580498783256 Os
atom 6.3813471110755478 3.2133238900000007 18.1906691340825688 O
atom 8.3491153364241146 1.6066544500000004 19.4135408844151556 O
atom 4.4135482282576746 1.6066583500000000 19.4135378659518736 O
atom 6.3813476652834709 3.2133243900000004 20.6364366843505991 O
atom 3.1906443783518124 0.0000005599999998 19.4135555166575173 Os
atom 9.5719818599009034 4.8199877100000004 16.2228962378401462 Os
atom 11.5397829360879332 4.8199773400000003 16.2229015018192158 O
atom 7.6042177583204813 4.8199843800000002 16.2229027189266972 O
atom 9.5719501616355362 6.4266470200000008 17.4457811584681437 O
atom 3.1906521848110896 3.2133253899999996 19.4135548236975168 Os
atom 9.5719830266268993 1.6066594300000006 16.2228965560388971 Os
atom 11.5397847674946430 1.6066696400000005 16.2229012543329389 O
atom 7.6042182179396178 1.6066651900000002 16.2229031785463818 O
atom 9.5719506071180174 3.2133248699999997 17.4457723974153964 O
atom 9.5720066493094418 0.0000005700000003 19.4135523452882452 Os
atom 3.1907024207697434 0.0000001500000003 17.4457734192478711 O
atom 9.5720035521805933 3.2133253500000003 19.4135542827589802 Os
atom 3.1907054471851808 3.2133234700000002 17.4457760921132987 O
atom 12.7626868284167951 6.4266466000000007 16.2228895786785330 Os
atom 12.7626690358528414 4.8199878099999998 19.4135492782037531 Os
atom 12.7626705406542111 6.4266468900000007 18.1906718104632859 O
atom 1.9677501875273533 4.8199830199999996 19.4135685004641445 O
atom 10.7948945044393216 4.8199895200000000 19.4135693428053742 O
atom 12.7626617751980849 6.4266479000000016 20.6364337745822084 O
atom 12.7626685833051798 1.6066596000000004 19.4135481326905008 Os
atom 12.7626691122979814 3.2133249800000008 18.1906727014169789 O
atom 1.9677505481520972 1.6066667099999996 19.4135680125606811 O
atom 10.7948937902611899 1.6066600400000002 19.4135698165664934 O
atom 12.7626524908860457 3.2133242500000003 20.6364337816477530 O
