#===============================================================================
# Created using the Atomic Simulation Environment (ASE)

# Mon Mar 23 14:01:09 2026

#=======================================================
lattice_vector 22.0103944943716279 0.0000000000000000 0.0000000000000000 
lattice_vector -8.8041042034015895 10.7828962547440934 0.0000000000000000 
lattice_vector 0.0000000000000000 0.0000000000000000 33.8270809556280483 
atom -4.4019099720803441 5.3915055410547099 15.6059368784873556 Os
atom 4.5071056699806613 0.5420115344275906 15.0000000000000000 O
atom 1.8693071767967568 0.6346894116190263 15.2072220463868533 O
atom -2.2008864971772297 2.6957830758117107 15.6059367172406951 Os
atom 0.1050583311165077 5.9334523223174536 15.0000051194226671 O
atom -2.5327404572476331 6.0261256406290578 15.2072258145200365 O
atom 6.6032870336005178 5.3915056907621857 15.6059351801755355 Os
atom 15.5123035790463337 0.5420097835427118 15.0000013757969271 O
atom 12.8745087530110336 0.6346836806105571 15.2072246142565071 O
atom 8.8043082097946304 2.6957828001151278 15.6059299035923011 Os
atom 11.0053394528168909 0.0000511221760123 15.6059368703365990 Os
atom 11.1102563877409324 5.9334517508516695 15.0000022984235528 O
atom 8.4724596297563100 6.0261277037129446 15.2072269494287866 O
atom -5.5023915202107831 6.7393824334273411 18.6198591714304129 Os
atom -3.3013652412837344 4.0436606418733518 18.6198578221631763 Os
atom 15.4074542318517622 3.5943709321057646 17.6152159447041399 Os
atom 14.2020633227218358 4.8565967291035008 18.6198685946616997 O
atom 4.7341150948820490 4.7568849540153071 16.0046485425964633 O
atom 2.9698560238512601 2.4248141428401482 16.8177901012902353 O
atom 5.6076547898485716 2.3321345074655584 16.6105710310359100 O
atom 2.0963172769701059 4.8495550937105349 16.2118703603783310 O
atom 16.8398590342223322 4.7639250977698415 18.4126413839357710 O
atom 3.3017100222726561 0.4493571413039846 16.6105746530696372 Os
atom -3.3013641545801335 8.5365124269000159 16.6105766188011685 Os
atom -6.6029332278143205 8.0872271354328227 15.6059432736861510 Os
atom 17.6084839319838444 0.8986360134805755 17.6152237238791542 Os
atom 14.2020628084072307 9.3494604252648568 16.6105834557678378 O
atom 4.7341146163360364 0.2640108985889142 18.0139301624200350 O
atom -4.2969974019685315 6.8320371113720757 17.0092852042262308 O
atom -5.8342436179694861 8.7148393162876268 18.8270755055389074 O
atom -3.1964504019069149 8.6221647163123531 18.6198519200793768 O
atom 15.0756014926792510 6.9247114721762495 17.2165067117165265 O
atom 2.0963207652248621 0.3566835194614363 18.2211536825681790 O
atom -5.1705323966995191 9.2567915416831408 16.4033645447022209 O
atom -1.1003376654362964 5.8407950792072700 16.6105778823114036 Os
atom 1.1006857781727906 3.1450769336696616 16.6105777537147326 Os
atom 13.2064348131955303 6.2900882378050316 17.6152216172908993 Os
atom 18.6041161310094125 3.9580140341718524 16.6105841293662948 O
atom 0.3320673803231348 5.6554646601842684 18.0139284559004551 O
atom 0.1050577542113444 1.4405952298532338 17.0092843019650033 O
atom -1.4321953623296282 3.3233889888988473 18.8270723498073522 O
atom 1.2056049689378689 3.2307174780725840 18.6198536877731904 O
atom 19.4776534020686434 1.5332645388348896 17.2165045806587997 O
atom -2.3057318239295190 5.7481378945208439 18.2211526129459713 O
atom -0.7684838548482981 3.8653388645640780 16.4033614747065961 O
atom -1.1003370930180285 1.3479264462311280 18.6198593061569895 Os
atom -7.7034135729991702 9.4350973054041827 18.6198583733029182 Os
atom 11.0054146431897308 8.9858037980864900 17.6152227991549459 Os
atom 0.0001400545703940 0.0000617626089790 15.6059386176271389 Os
atom 9.8000158004486178 10.2480356784531779 18.6198657328356560 O
atom 0.3320648401492352 10.1483210789580305 16.0046495060795344 O
atom -1.4321908991217462 7.8162536545297447 16.8177927834711340 O
atom 1.2056041415724348 7.7235782804362074 16.6105695490962191 O
atom -2.3057322308917332 10.2409944301377909 16.2118740958554284 O
atom 12.4378126121399930 10.1553649636562984 18.4126458624053839 O
atom 5.5028112277180661 6.7393826068652443 18.6198617882692190 Os
atom 7.7038355299875807 4.0436625516054878 18.6198642234712111 Os
atom 4.4022598826146684 3.5943700301848041 17.6152171122793177 Os
atom 3.1968671801574868 4.8565985073731124 18.6198685048364396 O
atom 15.7393155977879982 4.7568833035402482 16.0046501184195762 O
atom 13.9750526538954141 2.4248069110904984 16.8177953881260720 O
atom 16.6128530030499029 2.3321357435027110 16.6105763178427139 O
atom 13.1015194390531580 4.8495579655952969 16.2118725199762110 O
atom 5.8346645866277180 4.7639247271511627 18.4126473402627369 O
atom 14.3069107219653979 0.4493440489205563 16.6105832467063586 Os
atom 7.7038360442510658 8.5365157680111245 16.6105812728065487 Os
atom 4.4022600793946989 8.0872255433873619 15.6059396892930238 Os
atom 6.6032869307340754 0.8986363421007174 17.6152182370199171 Os
atom 3.1968673635024283 9.3494555706216129 16.6105872483951700 O
atom 15.7393140415022330 0.2640132154675232 18.0139377190776955 O
atom 6.7082031546024652 6.8320383346115063 17.0092854654828329 O
atom 5.1709582534351872 8.7148386097267316 18.8270809556280518 O
atom 7.8087519256515883 8.6221668560774791 18.6198554799696261 O
atom 4.0704062535014804 6.9247131482081610 17.2165092346752537 O
atom 13.1015199667934965 0.3566866853133898 18.2211624517225985 O
atom 5.8346645866208622 9.2567812299002092 16.4033673044862383 O
atom 9.9048650824916766 5.8407973431171971 16.6105794662771693 Os
atom 12.1058845995713575 3.1450826190285790 16.6105789049524155 Os
atom 2.2012366134150514 6.2900873596146569 17.6152169346906540 Os
atom 7.5989221932223803 3.9580147735955586 16.6105869095159804 O
atom 11.3372655980022561 5.6554659911621341 18.0139346653481454 O
atom 11.1102569959504649 1.4405948774727881 17.0092811625247471 O
atom 9.5730044787226483 3.3233912436923188 18.8270760934236776 O
atom 12.2108030077068914 3.2307230538867695 18.6198539082096239 O
atom 8.4724576843703083 1.5332694117380408 17.2165054093824850 O
atom 8.6994692603639425 5.7481389461435217 18.2211547194821470 O
atom 10.2367124218657572 3.8653388846423944 16.4033583597778012 O
atom 9.9048642685546273 1.3479302346401583 18.6198614086026808 Os
atom 3.3017891659949141 9.4350976084734217 18.6198625537324318 Os
atom 0.0002136349404792 8.9858082401225516 17.6152214152049993 Os
atom -1.2051814109310020 10.2480407649764285 18.6198685334068621 O
atom 11.3372645828192109 10.1483229704313320 16.0046542009158017 O
atom 9.5730070368014530 7.8162536417591282 16.8177976293743257 O
atom 12.2108079941202377 7.7235797300642108 16.6105718597393377 O
atom 8.6994672479036161 10.2409969825222742 16.2118753450761304 O
atom 1.4326179409163549 10.1553659623344110 18.4126474586387303 O
