#===============================================================================
# Created using the Atomic Simulation Environment (ASE)

# Mon Mar 23 14:01:07 2026

#=======================================================
lattice_vector 13.9206623415420374 0.0000000000000000 0.0000000000000000 
lattice_vector -0.0000018384659456 9.8433818399999584 0.0000000000000000 
lattice_vector 0.0000000000000000 0.0000000000000000 41.8216831481082281 
atom 0.0002221729454863 0.0000052000334634 17.4306743733780323 Os
atom 6.9605189715041034 6.6404433052552720 15.0000007424866055 O
atom 6.2699290858992001 9.1012836530382621 15.6906002980763724 O
atom 6.9605230939256106 1.7187445752554926 15.0000000000000000 O
atom 6.2699315253933419 4.1795853230381041 15.6905979009732590 O
atom 3.4803865845288269 0.0000029150332707 17.4306737299205210 Os
atom 5.2204385191141007 7.3825442850292902 15.6905939709500934 Os
atom 1.7402735701163394 7.3825426400292065 15.6905929032140072 Os
atom 4.1709505473856421 5.6638020270201288 15.6905844406098112 O
atom 5.9110599456774864 6.6404355120239886 17.4306654444313018 O
atom 1.7402994037615751 5.6637995502593768 16.7400822335537853 O
atom 3.4803574020123191 8.1246460848027198 16.3811832679050724 O
atom 3.4803842510668836 4.9216898850328512 17.4306717500333335 Os
atom 5.2204409161467140 2.4608431250285334 15.6905871332171145 Os
atom 1.7402832786569153 2.4608395700295311 15.6905890352714934 Os
atom 4.1709531283129770 0.7421036070201825 15.6905835284298192 O
atom 5.9110602426301950 1.7187425020235061 17.4306621210346648 O
atom 1.7403026776683372 0.7421046202597478 16.7400832164139786 O
atom 3.4803628820705033 3.2029486148029278 16.3811814930315833 O
atom 12.1807743497466276 7.3825438650301907 15.6905974569494511 Os
atom 8.7006046206773799 7.3825459200291697 15.6905927122956896 Os
atom 11.1312791301403990 5.6638011570197966 15.6905837476659045 O
atom 12.8713927074774421 6.6404357620247856 17.4306703022421772 O
atom 8.7006332474149630 5.6638016602599430 16.7400846094109852 O
atom 10.4406918467154046 8.1246461348034877 16.3811867397732769 O
atom 12.1807752830775424 2.4608434450294565 15.6905918000963567 Os
atom 8.7006071450446072 2.4608453400293562 15.6905928324923494 Os
atom 11.1312825666713113 0.7421060470200082 15.6905834223772835 O
atom 12.8713944327850793 1.7187450020244281 17.4306669081231789 O
atom 8.7006349869012620 0.7421071702601926 16.7400857549179136 O
atom 10.4406935578951607 3.2029475248033554 16.3811850427117136 O
atom 6.9605526578028263 0.0000039300330602 17.4306718348703242 Os
atom 0.0001899927663155 6.6404353052555010 15.0000009263179663 O
atom 13.2302661963694295 9.1012824830388510 15.6906005667297705 O
atom 6.9605516820022872 4.9216903800330432 17.4306719055820523 Os
atom 0.0001953455681576 1.7187414352560881 15.0000020647249528 O
atom 13.2302663872838746 4.1795850030388211 15.6906006728024749 O
atom 0.0002738200324856 0.0000071250416175 20.9108409412301555 Os
atom 1.7403276213531094 7.3825456650373633 19.1707578164169625 Os
atom 12.1808227016717385 7.3825481500372980 19.1707584952524925 Os
atom 6.9606642746273488 0.0000070600502061 24.3910054301277697 Os
atom 11.4902627014693657 8.1246466480514332 20.9108518429933703 O
atom 1.7403584623018542 9.1012878598154394 21.6014322325335684 O
atom 0.6908370404060040 5.6638042470280530 19.1707489719909319 O
atom 0.0002987316439254 6.6404451652720144 21.9603317992363358 O
atom 2.4309488145854212 6.6404377220322797 20.9108310788800722 O
atom 12.1808501899757875 5.6638088702681131 20.2202515025338379 O
atom 13.2303711875810599 9.1012855130550054 22.6509313548261062 O
atom 0.0002462284876260 8.1246498348109011 19.8613481386786503 O
atom 0.0002717411505794 4.9217053850416024 20.9108418039086956 Os
atom 1.7403294173606811 2.4608432250368142 19.1707529373747221 Os
atom 12.1808331739369997 2.4608462600385232 19.1707608357012838 Os
atom 0.0002201860037399 4.9216891400337079 17.4306771098907163 Os
atom 11.4902633802606946 3.2029566880510068 20.9108486751567746 O
atom 1.7403563268058653 4.1795879598146968 21.6014286545987986 O
atom 0.6908379030737126 0.7421059670281097 19.1707492972614801 O
atom 0.0003028540654291 1.7187464352722353 21.9603310567497303 O
atom 2.4309470185209312 1.7187454320319189 20.9108301313788054 O
atom 12.1808531880843880 0.7421076002680052 20.2202490842134637 O
atom 13.2303736270752026 4.1795871830548474 22.6509289577229893 O
atom 0.0002530520937123 3.2029589948120027 19.8613520913584978 O
atom 10.4408286862106934 0.0000047750500128 24.3910047866702584 Os
atom 12.1808806207959659 7.3825461450460326 22.6509250276998344 Os
atom 8.7007156717982017 7.3825445000459489 22.6509239599637411 Os
atom 10.4407760774842000 0.0000037500421998 20.9108414573747261 Os
atom 1.0497118162707020 8.1246479880428772 17.4306840165105150 O
atom 5.2204703782483000 9.1012837898066454 18.1212622917985016 O
atom 11.1313926490675019 5.6638038870368739 22.6509154973595415 O
atom 3.4804072110622908 6.6404357052630756 18.4801631596058442 O
atom 12.8715020473593356 6.6404373720407319 24.3909965011810286 O
atom 8.7007415054434336 5.6638014102761209 23.7004132903035156 O
atom 2.7898205215981706 9.1012833130466788 19.1707650769058233 O
atom 10.4407995036941816 8.1246479448194613 23.3415143246548027 O
atom 10.4408263527487470 4.9216917450495936 24.3910028067830567 Os
atom 12.1808830178285792 2.4608449850452763 22.6509181899668519 Os
atom 8.7007253803387776 2.4608414300462740 22.6509200920212308 Os
atom 10.4407725702581349 4.9217003100422438 20.9108437484205680 Os
atom 1.0497137324838204 3.2029475880422988 17.4306788334111289 O
atom 5.2204699822635332 4.1795846598065456 18.1212623059522109 O
atom 11.1313952299948475 0.7421054670369254 22.6509145851795566 O
atom 3.4804143457675654 1.7187443552637376 18.4801636191757837 O
atom 12.8715023443120540 1.7187443620402487 24.3909931777843951 O
atom 8.7007447793501971 0.7421064802764906 23.7004142731637089 O
atom 2.7898222893581370 4.1795841130467473 19.1707648364838619 O
atom 10.4408049837523613 3.2029504748196702 23.3415125497813207 O
atom 10.4407211070039150 0.0000052850338849 17.4306760067773290 Os
atom 5.2205541098864581 7.3825457250469322 22.6509285136991778 Os
atom 1.7403843808172088 7.3825477800459121 22.6509237690454270 Os
atom 3.4804425237399812 0.0000069600415912 20.9108385653265501 Os
atom 8.0100429022093653 8.1246473780432105 17.4306865762378180 O
atom 12.1808030834736805 9.1012847798073384 18.1212664000765358 O
atom 4.1710588902802233 5.6638030170365399 22.6509148044156419 O
atom 10.4407400294326376 6.6404354752639092 18.4801682436905068 O
atom 5.9111724676172646 6.6404376220415289 24.3910013589919075 O
atom 1.7404130075547877 5.6638035202766872 23.7004156661607155 O
atom 9.7501557936056020 9.1012863230473524 19.1707672547616284 O
atom 3.4804716068552231 8.1246479948202293 23.3415177965230072 O
atom 10.4407170977273225 4.9216889950337821 17.4306775553667705 Os
atom 5.2205550432173702 2.4608453050461989 22.6509228568460870 Os
atom 1.7403869051844261 2.4608472000460990 22.6509238892420797 Os
atom 3.4804399286594130 4.9216926100413287 20.9108379360155752 Os
atom 8.0100445073158575 3.2029497780429494 17.4306839811513612 O
atom 12.1808021642574786 4.1795860598076517 18.1212698790575963 O
atom 4.1710623268111364 0.7421079070367510 22.6509144791270174 O
atom 10.4407500137768672 1.7187426352648105 18.4801685123191035 O
atom 5.9111741929249106 1.7187468620411708 24.3909979648729163 O
atom 1.7404147470410829 0.7421090302769353 23.7004168116676439 O
atom 9.7501573704836755 4.1795855630480192 19.1707716317486749 O
atom 3.4804733180349849 3.2029493848200983 23.3415160994614439 O
atom 6.9606136033549184 0.0000052650422646 20.9108397673645250 Os
atom 8.7006621297026658 7.3825499350382611 19.1707622004518399 Os
atom 5.2204902085692479 7.3825461000364712 19.1707532273177890 Os
atom 0.0003324179426419 0.0000057900498029 24.3910028916200545 Os
atom 4.5299369047045248 8.1246484580518477 20.9108511924120677 O
atom 8.7006943141295370 9.1012833998160332 21.6014334062941273 O
atom 7.6511725386507203 5.6638039170281234 19.1707464829406220 O
atom 6.9606320944481839 6.6404371652722443 21.9603319830677037 O
atom 9.3912825309563903 6.6404414420327837 20.9108330729004130 O
atom 5.2205227739292717 5.6638045902682483 20.2202498832299575 O
atom 6.2700459565092537 9.1012843430555943 22.6509316234795008 O
atom 6.9605766355697147 8.1246483048106040 19.8613464133443962 O
atom 6.9606103011683498 4.9216934150419540 20.9108392653380726 Os
atom 8.7006684228886417 2.4608426250377757 19.1707546626529144 Os
atom 5.2205009353985012 2.4608451200378130 19.1707562748712022 Os
atom 0.0003314421421154 4.9216922400497856 24.3910029623317897 Os
atom 4.5299362824257399 3.2029520180513971 20.9108487458356223 O
atom 8.7006950000054850 4.1795853998158243 21.6014318435909374 O
atom 7.6511740589224262 0.7421051670281530 19.1707461364545608 O
atom 6.9606374472500168 1.7187432952728305 21.9603331214746831 O
atom 9.3912884140401491 1.7187438120326057 20.9108281231142854 O
atom 5.2205270165627118 0.7421069702685440 20.2202496286459308 O
atom 6.2700461474236944 4.1795868630555635 22.6509317295522052 O
atom 6.9605869664071056 3.2029498048117087 19.8613479759763969 O
atom 8.7007697230349681 7.3825475250541057 26.1310888731666893 Os
atom 5.2206024618115592 7.3825500100540404 26.1310895520022299 Os
atom 7.6512791420878701 5.6638061070447954 26.1310800287406764 O
atom 6.9606883301694857 8.1246516948276444 26.8216791954283806 O
atom 8.7007715190425419 2.4608450850535566 26.1310839941244595 Os
atom 5.2206129340768221 2.4608481200552652 26.1310918924510105 Os
atom 6.9606622876856061 4.9216910000504512 24.3910081666404537 Os
atom 7.6512800047555718 0.7421078270448525 26.1310803540112246 O
atom 6.9606951537755650 3.2029608548287447 26.8216831481082281 O
atom 8.0101539179525645 8.1246498480596188 24.3910150732602418 O
atom 12.1809124799301571 9.1012856498233887 25.0815933485482319 O
atom 10.4408493127441506 6.6404375652798189 25.4404942163555816 O
atom 9.7502626232800331 9.1012851730634221 26.1310961336555536 O
atom 8.0101558341656798 3.2029494480590412 24.3910098901608521 O
atom 12.1809120839454028 4.1795865198232880 25.0815933627019447 O
atom 10.4408564474494288 1.7187462152804802 25.4404946759255139 O
atom 9.7502643910400018 4.1795859730634906 26.1310958932335993 O
atom 3.4805008671437405 0.0000071450506276 24.3910070635270628 Os
atom 1.0498226623491871 8.1246492380599538 24.3910176329875483 O
atom 5.2205828436135029 9.1012866398240799 25.0815974568262661 O
atom 3.4805197895724662 6.6404373352806525 25.4404993004402371 O
atom 2.7899355537454169 9.1012881830640957 26.1310983115113586 O
atom 3.4804968578671418 4.9216908550505245 24.3910086121165008 Os
atom 1.0498242674556848 3.2029516380596914 24.3910150379010915 O
atom 5.2205819243973028 4.1795879198243941 25.0816009358073231 O
atom 3.4805297739166976 1.7187444952815534 25.4404995690688338 O
atom 2.7899371306234908 4.1795874230647625 26.1311026884984017 O
atom 1.7404418898424976 7.3825517950550044 26.1310932572015631 Os
atom 12.1809323102511087 7.3825479600532127 26.1310842840675193 Os
atom 0.6909522987905461 5.6638057770448667 26.1310775396903594 O
atom 0.0003563957095336 8.1246501648273455 26.8216774700941230 O
atom 1.7404481830284608 2.4608444850545181 26.1310857194026411 Os
atom 12.1809430370803646 2.4608469800545554 26.1310873316209396 Os
atom 0.6909538190622513 0.7421070270448955 26.1310771932042911 O
atom 0.0003667265469304 3.2029516648284511 26.8216790327261307 O
