#===============================================================================
# Created using the Atomic Simulation Environment (ASE)

# Mon Mar 23 14:01:11 2026

#=======================================================
lattice_vector 11.0790232517419795 0.0000000000000000 0.0000000000000000 
lattice_vector -0.0000294709465473 9.0245852999700116 0.0000000000000000 
lattice_vector 0.0000000000000000 0.0000000000000000 36.8492242708636084 
atom 4.5289577632008129 2.2561101674186119 15.8071585216630268 Os
atom 5.6623614991557814 0.8646708995659866 16.6142723187628825 O
atom 3.3955326886028034 3.6475348152743776 15.0000120592267265 O
atom 6.1652969622009097 3.1208150477738617 15.0000234733546272 O
atom 1.7591698086880212 9.0245557948892383 15.8071503449229667 Os
atom 2.8926175919320931 1.3913892070621514 16.6142932458498649 O
atom 1.5315631086942254 3.6475288382415529 17.6174777723982885 O
atom 4.3013386941697638 3.1208077407634440 17.6174858003205514 O
atom 10.9742430315871964 4.5122618278877429 18.4246087700329468 Os
atom 4.5289241206669484 6.7684325773906151 15.8071431546347299 Os
atom 5.6623442703623175 5.3769908995235767 16.6142923954428667 O
atom 3.3955240857261062 8.1598564152542821 15.0000250568680329 O
atom 6.1652473506908496 7.6331683077292150 15.0000000000000000 O
atom 1.7591886422872522 4.5122619049082440 15.8071526494833599 Os
atom 2.6649582095316457 6.7684258903675651 18.4246056122699997 Os
atom 2.8925688974600563 5.9037264470210395 16.6142680193111190 O
atom 1.5315631216328172 8.1598503282481900 17.6174798780869288 O
atom 4.3012793504869107 7.6331557107132362 17.6174534444407342 O
atom 7.2986837562561586 9.0245527998909552 15.8071521271638673 Os
atom 8.4321491092012035 1.3913582720784092 16.6143071961522573 O
atom 7.0710799426597299 3.6475238032451802 17.6174819661362498 O
atom 9.8408672199935818 3.1207886357770098 17.6174978658898524 O
atom 5.4347190076197736 9.0245502728754516 18.4246097286346497 Os
atom 10.0684729302884808 2.2560917824194417 15.8071627805437416 Os
atom 0.1228468954261746 0.8646685045428416 16.6142880420417143 O
atom 8.9350468043799669 3.6475309702728769 15.0000168462305581 O
atom 0.6258111402090669 3.1207944727939929 15.0000423952651971 O
atom 7.2986975760699897 4.5122619299017863 15.8071544214628048 Os
atom 8.2044727442483154 6.7684087153758510 18.4246025705350647 Os
atom 8.4320974454913795 5.9037056920317097 16.6142826050981327 O
atom 7.0710774493284161 8.1598495332505294 17.6174816609490961 O
atom 9.8408102580566652 7.6331268657270606 17.6174686301689007 O
atom 10.0684339148274020 6.7684143123835794 15.8071466318792631 Os
atom 0.1228435020235700 5.3769901745517066 16.6142834497576146 O
atom 8.9350386651934475 8.1598564602564814 15.0000273136618603 O
atom 0.6257463989346180 7.6331395227398673 15.0000058273096144 O
atom 10.9742334755271607 9.0245435478774443 18.4246120041798562 Os
atom 0.8010289463416671 2.2560979933865379 21.0420755963743744 Os
atom 1.0286588171401210 1.3913848900517833 19.2317548190962277 O
atom 1.9344326822966358 0.8646587255339129 21.8491893934742372 O
atom 10.7466271234856308 3.6475226412423036 20.2349291339380812 O
atom 2.4373681453417642 3.1208028737417872 20.2349405480659783 O
atom 9.1102642435708585 9.0245436208571643 21.0420674196343214 Os
atom 2.6649944526426750 2.2561044804034940 18.4246178101528919 Os
atom 10.2437120268149311 1.3913770330300776 21.8492103205612160 O
atom 3.7983886662582140 0.8646649525196521 19.2317450823644620 O
atom 0.8009953038078025 6.7684204033585420 21.0420602293460846 Os
atom 1.0285971676242336 5.9037253099964504 19.2317236324711445 O
atom 1.9344154535031766 5.3769787254915027 21.8492094701542143 O
atom 10.7466185206089300 8.1598442412222081 20.2349421315793840 O
atom 2.4373185338316987 7.6331561336971419 20.2349170747113547 O
atom 9.1102830771700862 4.5122497308761709 21.0420697241947074 Os
atom 10.2436633323428961 5.9037142729889673 21.8491850940224701 O
atom 3.7983903541617345 5.3769833425395586 19.2317381299531540 O
atom 3.5707549393970157 9.0245406258588829 21.0420692018752185 Os
atom 8.2045108346769027 2.2560849854080716 18.4246205525860667 Os
atom 4.7042202923420531 1.3913460980463352 21.8492242708636084 O
atom 9.3379132532200213 0.8646617475507028 19.2317365788961219 O
atom 6.3405441134293383 2.2560796083873678 21.0420798552550927 Os
atom 6.5681835217970646 1.3913615150610881 19.2317651824471874 O
atom 7.4739413303090085 0.8646563305107678 21.8492051167530654 O
atom 5.2071179875208271 3.6475187962408033 20.2349339209419057 O
atom 7.9769055750919060 3.1207822987619194 20.2349594699765483 O
atom 3.5707687592108339 4.5122497558697132 21.0420714961741560 Os
atom 4.7041686286322344 5.9036935179996366 21.8491996798094874 O
atom 9.3378978331642930 5.3769846875207543 19.2317484784497950 O
atom 5.4347345351958571 4.5122545428899556 18.4246112625496181 Os
atom 6.3405050979682587 6.7684021383515063 21.0420637065906178 Os
atom 6.5681340645943189 5.9037012450197919 19.2317390444575196 O
atom 7.4739379369063990 5.3769780005196335 21.8492005244689658 O
atom 5.2071098483342961 8.1598442862244074 20.2349443883732114 O
atom 7.9768408338174517 7.6331273487077951 20.2349229020209691 O
