#===============================================================================
# Created using the Atomic Simulation Environment (ASE)

# Mon Mar 23 14:01:11 2026

#=======================================================
lattice_vector 9.0245853000181313 0.0000000000000000 0.0000000000000000 
lattice_vector 0.0000000000000000 6.4266484300000002 0.0000000000000000 
lattice_vector 0.0000000000000000 0.0000000000000000 33.9856144124241411 
atom 2.2560230175542504 1.6066622699999999 15.8647586982458364 Os
atom 1.3913091708694223 6.4266479600000004 15.0000563049042341 O
atom 0.8645800484330514 1.6066532899999999 17.2561703590674753 O
atom 3.1207225542283146 0.0000003000000000 16.7294664615587578 O
atom 2.2560234175515839 4.8199864600000000 15.8647600282466428 Os
atom 1.3913074008821509 3.2133245399999999 15.0000499549006889 O
atom 0.8645801884302650 4.8199939800000005 17.2561717490677466 O
atom 3.1207213342138815 3.2133240400000003 16.7294736615563124 O
atom 6.7683454276120578 1.6066607200000003 15.8647343833054961 Os
atom 5.9036495909913524 0.0000013400000000 15.0000000000000000 O
atom 5.3769000484228462 1.6066710900000003 17.2561799741222970 O
atom 7.6330758143216215 0.0000014100000000 16.7294244366802616 O
atom 6.7683448276099529 4.8199889999999996 15.8647354333042898 Os
atom 5.9036446409759966 3.2133236900000002 15.0000076599900751 O
atom 5.3768985784205992 4.8199787900000004 17.2561810941193556 O
atom 7.6330693043334090 3.2133235600000001 16.7294185566672056 O
atom 9.0244566050932615 6.4266478600000001 18.1208923457395770 Os
atom 3.6474283517457486 1.6066662599999999 18.9856046173578363 O
atom 9.0244601650949061 3.2133230799999999 18.1208915257467069 Os
atom 3.6474294317493969 4.8199836899999999 18.9856027973599950 O
atom 4.5121657350830215 0.0000018300000000 18.1208929307431390 Os
atom 8.1597540817351781 1.6066589100000002 18.9856144124241411 O
atom 4.5121644350827630 3.2133238700000000 18.1208930607405421 Os
atom 8.1597549217355212 4.8199883899999998 18.9856142424258252 O
