#===============================================================================
# Created using the Atomic Simulation Environment (ASE)

# Mon Mar 23 14:01:09 2026

#=======================================================
lattice_vector 22.0103944943716279 0.0000000000000000 0.0000000000000000 
lattice_vector -8.8041042034015895 10.7828962547440934 0.0000000000000000 
lattice_vector 0.0000000000000000 0.0000000000000000 41.8642086921925625 
atom 13.2062932828254826 1.7971693425697060 15.6059368784873556 Os
atom 13.3112047214849003 7.7305715906866794 15.0000000000000000 O
atom 10.6734062283009976 7.8232494678781164 15.2072220463868533 O
atom 6.6032125543270066 9.8843431320708017 15.6059367172406986 Os
atom 17.7132615860223339 2.3391161238324498 15.0000051194226671 O
atom 15.0754627976581901 2.4317894421440536 15.2072258145200365 O
atom 2.2010957941347145 1.7971694922771817 15.6059351801755355 Os
atom 2.3060081361789435 7.7305698398017988 15.0000013757969271 O
atom -0.3317866898563595 7.8232437368696477 15.2072246142565071 O
atom -4.4019872330727621 9.8843428563742162 15.6059299035923011 Os
atom -2.2009559900505016 7.1886111784351012 15.6059368703365990 Os
atom 6.7080651482751330 2.3391155523666654 15.0000022984235528 O
atom 4.0702683902905088 2.4317915052279395 15.2072269494287866 O
atom 12.1058117346950453 3.1450462349423365 18.6198591714304129 Os
atom 14.3068380136220945 0.4493244433883460 18.6198578221631799 Os
atom 11.0052629923859620 0.0000347336207614 17.6152159447041399 Os
atom 4.4021916553725715 3.5943374418122089 19.6245007467696126 Os
atom 9.7998720832560320 1.2622605306184955 18.6198685946616997 O
atom 0.3319238554162477 1.1625487555303013 16.0046485425964633 O
atom 4.5071030940319865 9.5277396899291844 19.0185638682822571 O
atom 11.7739550753554987 9.6133741990992370 16.8177901012902318 O
atom -7.5986406530188173 9.5206945637246481 16.6105710310359065 O
atom 1.8693046008480843 9.6204175671206187 19.2257859146691104 O
atom 19.7045205318759358 1.2552188952255319 16.2118703603783310 O
atom 12.4376677947565302 1.1695888992848356 18.4126413839357710 O
atom 12.1058090737768911 7.6379171975630724 16.6105746530696337 Os
atom 14.3068391003256945 4.9421762284150104 16.6105766188011685 Os
atom 11.0052700270915054 4.4928909369478172 15.6059432736861510 Os
atom 4.4021884891164493 8.0871960697396652 17.6152237238791542 Os
atom 9.7998715689414233 5.7551242267798530 16.6105834557678342 O
atom 13.5382136678402780 7.4525709548480030 18.0139301624200350 O
atom 13.3112058529372987 3.2377009128870715 17.0092852042262308 O
atom 11.7739596369363486 5.1205031178026204 18.8270755055389074 O
atom 14.4117528529989123 5.0278285178273494 18.6198519200793768 O
atom 10.6734102532134525 3.3303752736912440 17.2165067117165265 O
atom 10.9004198167290962 7.5452435757205265 18.2211536825681790 O
atom 12.4376708582063067 5.6624553431981370 16.4033645447022209 O
atom 16.5078655894695316 2.2464588807222672 16.6105778823114072 Os
atom 9.9047848296770287 10.3336369899287526 16.6105777537147326 Os
atom 6.6032151302756814 0.8986149765692093 19.6245005855229522 Os
atom 8.8042435737297282 2.6957520393200283 17.6152216172908993 Os
atom 14.2019248915436105 0.3636778356868491 16.6105841293662948 O
atom 17.9402706352289627 2.0611284616992602 18.0139284559004551 O
atom 8.9091568057155790 8.6291552861123240 17.0092843019650068 O
atom 7.3719036891746130 10.5119490451579374 18.8270723498073522 O
atom 10.0097040204421077 10.4192775343316750 18.6198536877731868 O
atom 6.2713579592012536 8.7218245950939792 17.2165045806587997 O
atom 15.3024714309763112 2.1538016960358402 18.2211526129459678 O
atom 16.8397194000575325 0.2710026660790722 16.4033614747065961 O
atom 7.7037619584862069 8.5364865024902166 18.6198593061569895 Os
atom 9.9047896819066548 5.8407611069191789 18.6198583733029182 Os
atom 6.6032234037239261 5.3914675996014845 17.6152227991549424 Os
atom 8.8042391060746326 7.1886218188680679 15.6059386176271389 Os
atom 5.3978245609828228 6.6536994799681715 18.6198657328356489 O
atom -4.0701263993165639 6.5539848804730267 16.0046495060795344 O
atom 8.9091599585694237 4.1362842230749521 19.0185689877049242 O
atom 16.1760123557840814 4.2219174560447392 16.8177927834711376 O
atom -3.1965870978933641 4.1292420819512019 16.6105695490962191 O
atom 6.2713611702052781 4.2289575413865554 19.2257896828022936 O
atom 15.3024710240140962 6.6466582316527880 16.2118740958554248 O
atom 8.0356213726741927 6.5610287651712937 18.4126458624053839 O
atom 1.1006199882522658 3.1450464083802396 18.6198617882692190 Os
atom 3.3016442905217822 0.4493263531204844 18.6198642234712111 Os
atom 0.0000686431488681 0.0000338316998006 17.6152171122793177 Os
atom 15.4073886610534281 3.5943375915196838 19.6244990484577926 Os
atom 20.8050704350633140 1.2622623088881095 18.6198685048364396 O
atom 11.3371243583221997 1.1625471050552429 16.0046501184195762 O
atom -6.4980934912739707 9.5277379390443020 19.0185652440791841 O
atom 0.7687572110280245 9.6133669673495881 16.8177953881260684 O
atom 3.4065575601825104 9.5206957997617998 16.6105763178427139 O
atom 12.8745061770623543 9.6204118361121509 19.2257884825387642 O
atom 8.6993281995873613 1.2552217671102914 16.2118725199762146 O
atom 1.4324733471619184 1.1695885286661591 18.4126473402627369 O
atom 1.1006152790980104 7.6379041051796452 16.6105832467063550 Os
atom 3.3016448047852656 4.9421795695261173 16.6105812728065487 Os
atom 0.0000688399288954 4.4928893449023581 15.6059396892930238 Os
atom -6.6030085121333144 8.0871963983598043 17.6152182370199171 Os
atom -1.2053238759633709 5.7551193721366074 16.6105872483951700 O
atom 2.5330185986348472 7.4525732717266138 18.0139377190776919 O
atom 2.3060119151366636 3.2377021361265022 17.0092854654828329 O
atom 0.7687670139693881 5.1205024112417270 18.8270809556280518 O
atom 3.4065606861857898 5.0278306575924763 18.6198554799696261 O
atom -0.3317849859643200 3.3303769497231555 17.2165092346752537 O
atom -0.1047754760738935 7.5452467415724787 18.2211624517225985 O
atom 1.4324733471550641 5.6624450314152055 16.4033673044862383 O
atom 5.5026738430258764 2.2464611446321912 16.6105794662771693 Os
atom -1.1004108432960329 10.3336426752876687 16.6105789049524120 Os
atom 17.6084098372475424 0.8986147008726261 19.6244937718745582 Os
atom -2.2009546260507493 2.6957511611296532 17.6152169346906504 Os
atom 3.1967309537565827 0.3636785751105531 16.6105869095159768 O
atom 6.9350743585364549 2.0611297926771286 18.0139346653481525 O
atom -2.0960384469169258 8.6291549337318756 17.0092811625247435 O
atom -3.6332909641447406 10.5119512999514075 18.8270760934236776 O
atom -0.9954924351604969 10.4192831101458570 18.6198539082096204 O
atom -4.7338377584970797 8.7218294679971304 17.2165054093824850 O
atom 4.2972780208981440 2.1538027476585184 18.2211547194821435 O
atom 5.8345211823999570 0.2710026861573889 16.4033583597777977 O
atom -3.3014311743127593 8.5364902908992466 18.6198614086026772 Os
atom -1.1004020734708828 5.8407614099884180 18.6198625537324283 Os
atom -4.4019776045253236 5.3914720416375461 17.6152214152049957 Os
atom 11.0053368768682116 8.9857792776776026 19.6245007386188561 Os
atom 16.4030218439748303 6.6537045664914247 18.6198685334068621 O
atom 6.9350733433534133 6.5539867719463283 16.0046542009158017 O
atom -2.0960364791777812 4.1362836516091681 19.0185661667058099 O
atom 5.1708157973356537 4.2219174432741235 16.8177976293743257 O
atom 7.8086167546544401 4.1292435315792062 16.6105718597393412 O
atom 17.2765612572092238 4.2289596044704405 19.2257908177110401 O
atom 4.2972760084378159 6.6466607840372705 16.2118753450761304 O
atom -2.9695732985494434 6.5610297638494073 18.4126474586387303 O
atom 3.3017101072421329 4.9422143341848397 22.6384230397126700 Os
atom 5.5027363861691763 2.2464925426308500 22.6384216904454334 Os
atom 2.2011613649330486 1.7972028328632630 21.6337798129863934 Os
atom -4.4019099720803441 5.3915055410547099 23.6430646150518697 Os
atom 0.9957704558031200 3.0594286298609972 22.6384324629439568 O
atom 13.5382167223349619 2.9597168547728052 20.0232124108787204 O
atom 4.5071056699806613 0.5420115344275906 23.0371277365645142 O
atom 11.7739576513041744 0.6276460435976468 20.8363539695724889 O
atom 14.4117564173014863 0.5349664082230569 20.6291348993181636 O
atom 1.8693071767967568 0.6346894116190263 23.2443497829513674 O
atom 10.9004189044230166 3.0523869944680335 20.2304342286605916 O
atom 3.6335661673036181 2.9667569985273397 22.4312052522180281 O
atom 3.3017074463239768 9.4350852968055747 20.6291385213518907 Os
atom 5.5027374728727789 6.7393443276575118 20.6291404870834256 Os
atom 2.2011683996385925 6.2900590361903186 19.6245071419684081 Os
atom -4.4019131383364627 9.8843641689821684 21.6337875921614113 Os
atom 0.9957699414885138 7.5522923260223545 20.6291473240500949 O
atom 4.7341120403873589 9.2497390540905045 22.0324940307022956 O
atom 4.5071042254843867 5.0348690121295734 21.0278490725084879 O
atom 2.9698580094834290 6.9176712170451236 22.8456393738211609 O
atom 5.6076512255460020 6.8249966170698517 22.6384157883616339 O
atom 1.8693086257605371 5.1275433729337472 21.2350705799987836 O
atom 2.0963181892761820 9.3424116749630279 22.2397175508504397 O
atom 3.6335692307533933 7.4596234424406394 20.4219284129844780 O
atom 7.7037639620166223 4.0436269799647686 20.6291417505936607 Os
atom 9.9047874056257044 1.3479088344271599 20.6291416219969896 Os
atom -2.2008864971772297 2.6957830758117107 23.6430644538052093 Os
atom 0.0001419462768136 4.4929201385625319 21.6337854855731564 Os
atom 5.3978232640906985 2.1608459349293532 20.6291479976485519 O
atom 9.1361690077760507 3.8582965609417665 22.0324923241827122 O
atom 0.1050551782626612 10.4263233853548289 21.0278481702472604 O
atom 7.3719062651232923 1.5262208896563458 22.8456362180896022 O
atom 10.0097065963907799 1.4335493788300850 22.6384175560554439 O
atom -2.5327436682516637 10.5189926943364807 21.2350684489410568 O
atom 6.4983698035234001 3.9509697952783420 22.2397164812282284 O
atom 8.0356177726046152 2.0681707653215762 20.4219253429888532 O
atom -1.1003396689667060 10.3336546017327215 22.6384231744392466 Os
atom 1.1006880544537443 7.6379292061616804 22.6384222415851752 Os
atom -2.2008782237289890 7.1886356988439877 21.6337866674372030 Os
atom 0.0001374786217192 8.9857899181105694 19.6245024859093959 Os
atom -3.4062770664700888 8.4508675792106729 22.6384296011179060 O
atom 9.1361664676021501 8.3511529797155291 20.0232133743617879 O
atom 0.1050583311165077 5.9334523223174536 23.0371328559871813 O
atom 7.3719107283311676 6.0190855552872415 20.8363566517533911 O
atom 10.0097057690253504 5.9264101811937042 20.6291334173784762 O
atom -2.5327404572476331 6.0261256406290578 23.2443535510845507 O
atom 6.4983693965611833 8.4438263308952894 20.2304379641376819 O
atom -0.7684802547787207 8.3581968644137952 22.4312097306876410 O
atom 14.3069128551709817 4.9422145076227411 22.6384256565514761 Os
atom 16.5079371574404981 2.2464944523629886 22.6384280917534682 Os
atom 13.2063615100675822 1.7972019309423022 21.6337809805615748 Os
atom 6.6032870336005178 5.3915056907621857 23.6430629167400497 Os
atom 12.0009688076104037 3.0594304081306110 22.6384323731186967 O
atom 2.5330227308692836 2.9597152042977446 20.0232139867018297 O
atom 15.5123035790463337 0.5420097835427118 23.0371291123614412 O
atom 0.7687597869767018 0.6276388118479943 20.8363592564083220 O
atom 3.4065601361311861 0.5349676442602095 20.6291401861249710 O
atom 12.8745087530110336 0.6346836806105571 23.2443523508210212 O
atom -0.1047734278655526 3.0523898663527955 20.2304363882584681 O
atom 14.6387662140806327 2.9667566279086608 22.4312112085449940 O
atom -7.7034863483549021 9.4350722044221467 20.6291471149886121 Os
atom -5.5024568226676482 6.7393476687686196 20.6291451410888058 Os
atom 13.2063617068476091 6.2900574441448596 19.6245035575752809 Os
atom 6.6032843547853979 9.8843644976023075 21.6337821053021742 Os
atom 12.0009689909553448 7.5522874713791106 20.6291511166774271 O
atom -6.2710830288180688 9.2497413709691134 22.0325015873599490 O
atom 15.5123047820553790 5.0348702353690040 21.0278493337650936 O
atom 13.9750598808881001 6.9176705104842293 22.8456448239103089 O
atom -5.3975409412671240 6.8249987568349768 22.6384193482518796 O
atom 12.8745078809543969 5.1275450489656587 21.2350731029575108 O
atom 13.1015173908448226 9.3424148408149801 22.2397263200048521 O
atom 14.6387662140737778 7.4596131306577087 20.4219311727684953 O
atom -3.3014277844270365 4.0436292438746939 20.6291433345594264 Os
atom -1.1004082673473565 1.3479145197860776 20.6291427732346691 Os
atom 8.8043082097946304 2.6957828001151278 23.6430576401568153 Os
atom 11.0053382408679639 4.4929192603721546 21.6337808029729075 Os
atom 16.4030238206752976 2.1608466743530572 20.6291507777982304 O
atom -1.8690272689164598 3.8582978919196327 22.0324985336304060 O
atom 11.1102544200017874 10.4263230329743806 21.0278450308070006 O
atom 18.3771061061755638 1.5262231444498171 22.8456399617059347 O
atom -0.9954898592118209 1.4335549546442656 22.6384177764918775 O
atom 8.4724551084216362 10.5189975672396319 21.2350692776647421 O
atom 17.5035708878168599 3.9509708469010225 22.2397185877644006 O
atom 19.0408140493186728 2.0681707853998930 20.4219222280600547 O
atom 9.9048616926059516 10.3336583901417480 22.6384252768849379 Os
atom 12.1058907934478288 7.6379295092309194 22.6384264220146889 Os
atom 8.8043152623933914 7.1886401408800484 21.6337852834872564 Os
atom 11.0053394528168909 0.0000511221760123 23.6430646069011132 Os
atom 7.5989202165219139 8.4508726657339270 22.6384324016891227 O
atom -1.8690282840995016 8.3511548711888306 20.0232180691980588 O
atom 11.1102563877409324 5.9334517508516695 23.0371300349880670 O
atom -3.6332858301172593 6.0190855425166268 20.8363614976565827 O
atom -0.9954848727984744 5.9264116308217067 20.6291357280215948 O
atom 8.4724596297563100 6.0261277037129446 23.2443546859933008 O
atom -4.5068256190151006 8.4438288832797728 20.2304392133583875 O
atom 10.2367195683692724 8.3581978630919078 22.4312113269209874 O
atom -5.5023915202107831 6.7393824334273411 26.6569869079949271 Os
atom -3.3013652412837344 4.0436606418733518 26.6569855587276905 Os
atom 15.4074542318517622 3.5943709321057646 25.6523436812686541 Os
atom 14.2020633227218358 4.8565967291035008 26.6569963312262139 O
atom 4.7341150948820490 4.7568849540153071 24.0417762791609775 O
atom 2.9698560238512601 2.4248141428401482 24.8549178378547495 O
atom 5.6076547898485716 2.3321345074655584 24.6476987676004242 O
atom 2.0963172769701059 4.8495550937105349 24.2489980969428451 O
atom 16.8398590342223322 4.7639250977698415 26.4497691205002852 O
atom 3.3017100222726561 0.4493571413039846 24.6477023896341514 Os
atom -3.3013641545801335 8.5365124269000159 24.6477043553656827 Os
atom -6.6029332278143205 8.0872271354328227 23.6430710102506652 Os
atom 17.6084839319838444 0.8986360134805755 25.6523514604436684 Os
atom 14.2020628084072307 9.3494604252648568 24.6477111923323520 O
atom 4.7341146163360364 0.2640108985889142 26.0510578989845492 O
atom -4.2969974019685315 6.8320371113720757 25.0464129407907450 O
atom -5.8342436179694861 8.7148393162876268 26.8642032421034216 O
atom -3.1964504019069149 8.6221647163123531 26.6569796566438910 O
atom 15.0756014926792510 6.9247114721762495 25.2536344482810406 O
atom 2.0963207652248621 0.3566835194614363 26.2582814191326932 O
atom -5.1705323966995191 9.2567915416831408 24.4404922812667351 O
atom -1.1003376654362964 5.8407950792072700 24.6477056188759178 Os
atom 1.1006857781727906 3.1450769336696616 24.6477054902792467 Os
atom 13.2064348131955303 6.2900882378050316 25.6523493538554135 Os
atom 18.6041161310094125 3.9580140341718524 24.6477118659308090 O
atom 0.3320673803231348 5.6554646601842684 26.0510561924649693 O
atom 0.1050577542113444 1.4405952298532338 25.0464120385295175 O
atom -1.4321953623296282 3.3233889888988473 26.8642000863718664 O
atom 1.2056049689378689 3.2307174780725840 26.6569814243377046 O
atom 19.4776534020686434 1.5332645388348896 25.2536323172233139 O
atom -2.3057318239295190 5.7481378945208439 26.2582803495104855 O
atom -0.7684838548482981 3.8653388645640780 24.4404892112711103 O
atom -1.1003370930180285 1.3479264462311280 26.6569870427215037 Os
atom -7.7034135729991702 9.4350973054041827 26.6569861098674323 Os
atom 11.0054146431897308 8.9858037980864900 25.6523505357194601 Os
atom 0.0001400545703940 0.0000617626089790 23.6430663541916530 Os
atom 9.8000158004486178 10.2480356784531779 26.6569934694001702 O
atom 0.3320648401492352 10.1483210789580305 24.0417772426440486 O
atom -1.4321908991217462 7.8162536545297447 24.8549205200356482 O
atom 1.2056041415724348 7.7235782804362074 24.6476972856607333 O
atom -2.3057322308917332 10.2409944301377909 24.2490018324199426 O
atom 12.4378126121399930 10.1553649636562984 26.4497735989698981 O
atom 5.5028112277180661 6.7393826068652443 26.6569895248337332 Os
atom 7.7038355299875807 4.0436625516054878 26.6569919600357252 Os
atom 4.4022598826146684 3.5943700301848041 25.6523448488438319 Os
atom 3.1968671801574868 4.8565985073731124 26.6569962414009538 O
atom 15.7393155977879982 4.7568833035402482 24.0417778549840904 O
atom 13.9750526538954141 2.4248069110904984 24.8549231246905862 O
atom 16.6128530030499029 2.3321357435027110 24.6477040544072281 O
atom 13.1015194390531580 4.8495579655952969 24.2490002565407252 O
atom 5.8346645866277180 4.7639247271511627 26.4497750768272510 O
atom 14.3069107219653979 0.4493440489205563 24.6477109832708727 Os
atom 7.7038360442510658 8.5365157680111245 24.6477090093710629 Os
atom 4.4022600793946989 8.0872255433873619 23.6430674258575380 Os
atom 6.6032869307340754 0.8986363421007174 25.6523459735844312 Os
atom 3.1968673635024283 9.3494555706216129 24.6477149849596842 O
atom 15.7393140415022330 0.2640132154675232 26.0510654556422097 O
atom 6.7082031546024652 6.8320383346115063 25.0464132020473471 O
atom 5.1709582534351872 8.7148386097267316 26.8642086921925660 O
atom 7.8087519256515883 8.6221668560774791 26.6569832165341403 O
atom 4.0704062535014804 6.9247131482081610 25.2536369712397679 O
atom 13.1015199667934965 0.3566866853133898 26.2582901882871127 O
atom 5.8346645866208622 9.2567812299002092 24.4404950410507524 O
atom 9.9048650824916766 5.8407973431171971 24.6477072028416835 Os
atom 12.1058845995713575 3.1450826190285790 24.6477066415169297 Os
atom 2.2012366134150514 6.2900873596146569 25.6523446712551682 Os
atom 7.5989221932223803 3.9580147735955586 24.6477146460804946 O
atom 11.3372655980022561 5.6554659911621341 26.0510624019126595 O
atom 11.1102569959504649 1.4405948774727881 25.0464088990892613 O
atom 9.5730044787226483 3.3233912436923188 26.8642038299881918 O
atom 12.2108030077068914 3.2307230538867695 26.6569816447741381 O
atom 8.4724576843703083 1.5332694117380408 25.2536331459469992 O
atom 8.6994692603639425 5.7481389461435217 26.2582824560466612 O
atom 10.2367124218657572 3.8653388846423944 24.4404860963423154 O
atom 9.9048642685546273 1.3479302346401583 26.6569891451671950 Os
atom 3.3017891659949141 9.4350976084734217 26.6569902902969460 Os
atom 0.0002136349404792 8.9858082401225516 25.6523491517695135 Os
atom -1.2051814109310020 10.2480407649764285 26.6569962699713763 O
atom 11.3372645828192109 10.1483229704313320 24.0417819374803159 O
atom 9.5730070368014530 7.8162536417591282 24.8549253659388398 O
atom 12.2108079941202377 7.7235797300642108 24.6476995963038519 O
atom 8.6994672479036161 10.2409969825222742 24.2490030816406446 O
atom 1.4326179409163549 10.1553659623344110 26.4497751952032445 O
