#===============================================================================
# Created using the Atomic Simulation Environment (ASE)

# Mon Mar 23 14:01:11 2026

#=======================================================
lattice_vector 11.0790232517419795 0.0000000000000000 0.0000000000000000 
lattice_vector -0.0000294709465473 9.0245852999700116 0.0000000000000000 
lattice_vector 0.0000000000000000 0.0000000000000000 42.0841413455749560 
atom 8.2568865800599625 2.2561223414506855 15.8071585216630197 Os
atom 9.3902903160149283 0.8646830735980605 16.6142723187628789 O
atom 7.1234615054619521 3.6475469893064507 15.0000120592267230 O
atom 9.8932257790600548 3.1208272218059352 15.0000234733546272 O
atom 5.4870986255471665 9.0245679689213123 15.8071503449229667 Os
atom 6.6205464087912436 1.3914013810942250 16.6142932458498649 O
atom 5.2594919255533785 3.6475410122736265 17.6174777723982885 O
atom 8.0292675110289125 3.1208199147955176 17.6174858003205479 O
atom 3.6231485967043651 4.5122740019198169 18.4246087700329433 Os
atom 8.2568529375260944 6.7684447514226882 15.8071431546347299 Os
atom 9.3902730872214715 5.3770030735556498 16.6142923954428632 O
atom 7.1234529025852495 8.1598685892863561 15.0000250568680293 O
atom 9.8931761675499992 7.6331804817612889 15.0000000000000000 O
atom 5.4871174591463951 4.5122740789403180 15.8071526494833563 Os
atom 6.3928870263907918 6.7684380643996391 18.4246056122699926 Os
atom 6.6204977143192050 5.9037386210531135 16.6142680193111190 O
atom 5.2594919384919709 8.1598625022802640 17.6174798780869288 O
atom 8.0292081673460576 7.6331678847453102 17.6174534444407271 O
atom 11.0266125731153064 9.0245649739230309 15.8071521271638638 Os
atom 1.0810546743183702 1.3913704461104830 16.6143071961522537 O
atom 10.7990087595188786 3.6475359772772538 17.6174819661362463 O
atom 2.4897727851107510 3.1208008098090834 17.6174978658898560 O
atom 9.1626478244789222 9.0245624469075256 18.4246097286346497 Os
atom 2.7173784954056499 2.2561039564515153 15.8071627805437416 Os
atom 3.8507757122853228 0.8646806785749154 16.6142880420417107 O
atom 1.5839523694971389 3.6475431443049504 15.0000168462305545 O
atom 4.3537399570682105 3.1208066468260660 15.0000423952651900 O
atom 11.0266263929291348 4.5122741039338603 15.8071544214628013 Os
atom 0.8533783093654924 6.7684208894079250 18.4246025705350647 Os
atom 1.0810030106085460 5.9037178660637837 16.6142826050981327 O
atom 10.7990062661875683 8.1598617072826034 17.6174816609490925 O
atom 2.4897158231738374 7.6331390397591345 17.6174686301689007 O
atom 2.7173394799445729 6.7684264864156525 15.8071466318792631 Os
atom 3.8507723188827159 5.3770023485837806 16.6142834497576146 O
atom 1.5839442303106128 8.1598686342885554 15.0000273136618567 O
atom 4.3536752157937668 7.6331516967719413 15.0000058273096144 O
atom 3.6231390406443249 9.0245557219095183 18.4246120041798491 Os
atom 4.5289577632008129 2.2561101674186119 21.0420755963743744 Os
atom 4.7565876339992741 1.3913970640838569 19.2317548190962313 O
atom 5.6623614991557814 0.8646708995659866 21.8491893934742301 O
atom 3.3955326886028034 3.6475348152743776 20.2349291339380741 O
atom 6.1652969622009097 3.1208150477738617 20.2349405480659748 O
atom 1.7591698086880212 9.0245557948892383 21.0420674196343143 Os
atom 6.3929232695018214 2.2561166544355675 18.4246178101528884 Os
atom 2.8926175919320931 1.3913892070621514 21.8492103205612125 O
atom 7.5263174831173654 0.8646771265517258 19.2317450823644620 O
atom 1.5315631086942254 3.6475288382415529 22.8523948471096361 O
atom 4.3013386941697638 3.1208077407634440 22.8524028750318990 O
atom 10.9742430315871964 4.5122618278877429 23.6595258447442944 Os
atom 4.5289241206669484 6.7684325773906151 21.0420602293460774 Os
atom 4.7565259844833845 5.9037374840285235 19.2317236324711445 O
atom 5.6623442703623175 5.3769908995235767 21.8492094701542143 O
atom 3.3955240857261062 8.1598564152542821 20.2349421315793805 O
atom 6.1652473506908496 7.6331683077292150 20.2349170747113476 O
atom 1.7591886422872522 4.5122619049082440 21.0420697241947074 Os
atom 2.6649582095316457 6.7684258903675651 23.6595226869813473 Os
atom 2.8925688974600563 5.9037264470210395 21.8491850940224666 O
atom 7.5263191710208828 5.3769955165716317 19.2317381299531505 O
atom 1.5315631216328172 8.1598503282481900 22.8523969527982764 O
atom 4.3012793504869107 7.6331557107132362 22.8523705191520818 O
atom 7.2986837562561586 9.0245527998909552 21.0420692018752149 Os
atom 0.8534163997940737 2.2560971594401455 18.4246205525860631 Os
atom 8.4321491092012035 1.3913582720784092 21.8492242708636049 O
atom 1.9868188183371878 0.8646739215827766 19.2317365788961112 O
atom 7.0710799426597299 3.6475238032451802 22.8523990408475974 O
atom 9.8408672199935818 3.1207886357770098 22.8524149406012000 O
atom 5.4347190076197736 9.0245502728754516 23.6595268033459973 Os
atom 10.0684729302884808 2.2560917824194417 21.0420798552550892 Os
atom 10.2961123386562079 1.3913736890931618 19.2317651824471838 O
atom 0.1228468954261746 0.8646685045428416 21.8492051167530619 O
atom 8.9350468043799669 3.6475309702728769 20.2349339209419057 O
atom 0.6258111402090669 3.1207944727939929 20.2349594699765447 O
atom 7.2986975760699897 4.5122619299017863 21.0420714961741524 Os
atom 8.2044727442483154 6.7684087153758510 23.6595196452464123 Os
atom 8.4320974454913795 5.9037056920317097 21.8491996798094803 O
atom 1.9868033982814581 5.3769968615528283 19.2317484784497950 O
atom 7.0710774493284161 8.1598495332505294 22.8523987356604437 O
atom 9.8408102580566652 7.6331268657270606 22.8523857048802483 O
atom 9.1626633520550040 4.5122667169220287 18.4246112625496146 Os
atom 10.0684339148274020 6.7684143123835794 21.0420637065906106 Os
atom 10.2960628814534623 5.9037134190518650 19.2317390444575196 O
atom 0.1228435020235700 5.3769901745517066 21.8492005244689622 O
atom 8.9350386651934475 8.1598564602564814 20.2349443883732079 O
atom 0.6257463989346180 7.6331395227398673 20.2349229020209620 O
atom 10.9742334755271607 9.0245435478774443 23.6595290788912038 Os
atom 0.8010289463416671 2.2560979933865379 26.2769926710857220 Os
atom 1.0286588171401210 1.3913848900517833 24.4666718938075753 O
atom 1.9344326822966358 0.8646587255339129 27.0841064681855848 O
atom 10.7466271234856308 3.6475226412423036 25.4698462086494288 O
atom 2.4373681453417642 3.1208028737417872 25.4698576227773259 O
atom 9.1102642435708585 9.0245436208571643 26.2769844943456690 Os
atom 2.6649944526426750 2.2561044804034940 23.6595348848642395 Os
atom 10.2437120268149311 1.3913770330300776 27.0841273952725636 O
atom 3.7983886662582140 0.8646649525196521 24.4666621570758096 O
atom 0.8009953038078025 6.7684204033585420 26.2769773040574321 Os
atom 1.0285971676242336 5.9037253099964504 24.4666407071824921 O
atom 1.9344154535031766 5.3769787254915027 27.0841265448655619 O
atom 10.7466185206089300 8.1598442412222081 25.4698592062907316 O
atom 2.4373185338316987 7.6331561336971419 25.4698341494227023 O
atom 9.1102830771700862 4.5122497308761709 26.2769867989060550 Os
atom 10.2436633323428961 5.9037142729889673 27.0841021687338177 O
atom 3.7983903541617345 5.3769833425395586 24.4666552046645016 O
atom 3.5707549393970157 9.0245406258588829 26.2769862765865660 Os
atom 8.2045108346769027 2.2560849854080716 23.6595376272974143 Os
atom 4.7042202923420531 1.3913460980463352 27.0841413455749560 O
atom 9.3379132532200213 0.8646617475507028 24.4666536536074695 O
atom 6.3405441134293383 2.2560796083873678 26.2769969299664403 Os
atom 6.5681835217970646 1.3913615150610881 24.4666822571585350 O
atom 7.4739413303090085 0.8646563305107678 27.0841221914644130 O
atom 5.2071179875208271 3.6475187962408033 25.4698509956532533 O
atom 7.9769055750919060 3.1207822987619194 25.4698765446878959 O
atom 3.5707687592108339 4.5122497558697132 26.2769885708855035 Os
atom 4.7041686286322344 5.9036935179996366 27.0841167545208350 O
atom 9.3378978331642930 5.3769846875207543 24.4666655531611426 O
atom 5.4347345351958571 4.5122545428899556 23.6595283372609657 Os
atom 6.3405050979682587 6.7684021383515063 26.2769807813019654 Os
atom 6.5681340645943189 5.9037012450197919 24.4666561191688672 O
atom 7.4739379369063990 5.3769780005196335 27.0841175991803134 O
atom 5.2071098483342961 8.1598442862244074 25.4698614630845590 O
atom 7.9768408338174517 7.6331273487077951 25.4698399767323167 O
