#===============================================================================
# Created using the Atomic Simulation Environment (ASE)

# Mon Mar 23 14:01:08 2026

#=======================================================
lattice_vector 13.9206623415420374 0.0000000000000000 0.0000000000000000 
lattice_vector -6.9602220783261259 12.0556381450883503 0.0000000000000000 
lattice_vector 0.0000000000000000 0.0000000000000000 43.3508179356085961 
atom 6.9604940598926621 6.0278326338095676 15.9923242859894046 Os
atom 8.7005496996792200 3.0139250326326499 15.9923224759942570 Os
atom 5.2203824384558200 3.0139274535520180 15.9923215955445031 Os
atom 0.0002221729454867 8.0371079656844699 18.8338656829257403 Os
atom 4.5298224382534382 4.6244922196315441 16.9846502577679033 O
atom 8.7005805406279766 5.8206232036239891 16.9846420949821351 O
atom 7.6510591187321220 1.6105739519930558 16.9846318060554822 O
atom 6.9605208099700491 4.0185652116752388 18.6984514950966343 O
atom 9.3911708929115392 3.4126291644310069 17.8415423582952144 O
atom 5.2204099267598645 2.2165087418305593 17.8415440489963402 O
atom 6.2699309243651395 6.4265503347262900 17.8415555792338552 O
atom 6.9604683068137492 4.0185631289516346 16.1277325473380806 O
atom 6.9604938194767030 2.0092967968475905 18.8338624238109560 Os
atom 1.7403294173606780 11.0510086266522300 18.8338668145565933 Os
atom 6.9604422643298554 0.0000080294925320 15.9923302759840240 Os
atom 6.9605230939256071 8.0371007342770309 15.8569137267660523 O
atom 9.3911672583810990 7.4311698269030098 15.0000007044327823 O
atom 5.2204110864025219 6.2350412229877339 15.0000063788246720 O
atom 6.2699315253933330 10.4450852286322942 15.0000162289749959 O
atom 3.4803865845288313 8.0371057284896725 18.8338664767915276 Os
atom 5.2204403575800464 5.0232023812691136 18.8338657810918590 Os
atom 1.7402754085822847 5.0232004216744901 18.8338658590312491 Os
atom 3.4803339758023357 6.0278301761315163 15.9923266559777772 Os
atom 10.4406292893884114 2.0092797062444654 15.8569122083679019 O
atom 12.8712820240035963 1.4033513136425477 15.0000013394932665 O
atom 8.7005214820876962 0.2072229873540202 15.0000041675768152 O
atom 9.7500425999242939 4.4172721205940428 15.0000140292663353 O
atom 10.4406063293930078 0.0000055432641749 15.9923254695546362 Os
atom 5.2204409161467105 9.0417324006894138 15.9923244389780344 Os
atom 1.7402832786569127 9.0417305961983701 15.9923280444795068 Os
atom 1.0497137324838151 10.6523010859566245 16.9846483120888720 O
atom 5.2204699822635323 11.8484304696273650 16.9846450567935889 O
atom 4.1709531283129788 7.6383858965026006 16.9846369502179328 O
atom 3.4804143457675671 10.0463754374602310 18.6984545030673104 O
atom 5.9110602426301906 9.4404435053751765 17.8415415038173606 O
atom 1.7403026776683364 8.2443160976348615 17.8415489564564353 O
atom 9.7500443676842590 0.3987228930843645 17.8415602846282582 O
atom 3.4803628820704975 10.0463739058680908 16.1277370448652739 O
atom 8.7006064591433283 5.0232029895554406 18.8338638094369060 Os
atom -3.4799995779418866 6.0278311273580591 15.9923224413358191 Os
atom 3.4802997662167230 2.0092824537508114 15.8569164922942925 O
atom 5.9109524442615253 1.4033543224277525 15.0000051615396401 O
atom 1.7401929841990464 0.2072260818644401 15.0000048892450870 O
atom 2.7897155303896772 4.4172758356349542 15.0000140696515132 O
atom 3.4802768345114030 0.0000081682965397 15.9923307234293688 Os
atom -1.7398870584644919 9.0417353563949501 15.9923280647148189 Os
atom -5.2200551964974355 9.0417374997098605 15.9923278135828042 Os
atom 10.4406620069855389 2.0092841329766062 18.8338666413458924 Os
atom -5.9106178342261897 10.6523058461354054 16.9846512508012211 O
atom -1.7398601772845661 11.8484359850607106 16.9846504319143534 O
atom -2.7893797748707336 7.6383878275238759 16.9846354548908351 O
atom -3.4799123277651711 10.0463768581471982 18.6984594913432076 O
atom -1.0492679087569623 9.4404483104455075 17.8415439690800532 O
atom 8.7006349869012567 8.2443196453077459 17.8415495568909250 O
atom 2.7897171072677631 0.3987280002558701 17.8415649957774605 O
atom -3.4799687836468833 10.0463750652977826 16.1277405724779044 O
atom 0.0001715016730497 6.0278304373948721 15.9923244014043924 Os
atom 1.7402218664867495 3.0139310501980776 15.9923235902544363 Os
atom -1.7399500546466689 3.0139227382882039 15.9923184778648100 Os
atom 6.9605526578028218 8.0371054631246750 18.8338643434792559 Os
atom -2.4305033585113902 4.6244933218765834 16.9846486815656945 O
atom 1.7402540509136173 5.8206202397225351 16.9846456283370131 O
atom 0.6907322754348029 1.6105722454944182 16.9846299642808560 O
atom 0.0001918312322664 4.0185587858403524 18.6984562639996845 O
atom 2.4308422677404731 3.4126333530466098 17.8415418386605253 O
atom 12.1807448522553887 2.2165043123203696 17.8415451979016382 O
atom -0.6903943067066621 6.4265495345333514 17.8415564740883319 O
atom 0.0001363723537941 4.0185608835891493 16.1277320219558149 O
atom 0.0001114187863653 0.0000060372361535 15.9923253107708803 Os
atom 0.0001953455681540 8.0370993625495792 15.8569172254871305 O
atom 2.4308463123582875 7.4311673447066786 15.0000000000000000 O
atom -1.7399150851191556 6.2350410229239825 15.0000071870823781 O
atom -0.6903959542581680 10.4450865676715896 15.0000186769150474 O
atom 0.0002738200324765 10.0463861226724589 21.6754076283930885 Os
atom 1.7403294598190466 7.0324785214955403 21.6754058183979375 Os
atom -1.7398378014043598 7.0324809424149075 21.6754049379481870 Os
atom 0.0002240114114335 0.0000233094590080 24.5169490253294242 Os
atom -2.4303978016067376 8.6430457084944337 22.6677336001715872 O
atom 1.7403603007677977 9.8391766924868787 22.6677254373858155 O
atom 0.6908388788719464 5.6291274408559486 22.6677151484591732 O
atom 0.0003005701098695 8.0371187005381284 24.3815348375003147 O
atom 2.4309506530513629 7.4311826532938969 23.5246257006988913 O
atom -1.7398103131003144 6.2350622306934440 23.5246273914000170 O
atom -0.6902893154950412 10.4451038235891822 23.5246389216375427 O
atom 0.0002480669535693 8.0371166178145241 21.8108158897417610 O
atom 0.0002735796165257 6.0278502857104810 24.5169457662146399 Os
atom 1.7403312558266237 3.0139239704267693 24.5169501569602701 Os
atom -1.7398291676050448 11.0510156648241580 18.8338715112505000 Os
atom 0.0002220244696807 4.0185615183554244 21.6754136183877080 Os
atom 4.5298231170447760 0.6059488464022195 19.8261887881865455 O
atom 8.7005784051319814 1.8020714776509097 19.8261860294232264 O
atom 0.6908379030737043 9.6476639473512655 19.8261779921406145 O
atom 6.9605249323915599 0.0000160780515701 21.5399970691697362 O
atom 2.4309470185209219 11.4497233157658993 20.6830840468364627 O
atom -1.7398091534576596 10.2535947118506243 20.6830897212283560 O
atom 6.2699333638592876 2.4080005724068330 20.6830995713786763 O
atom 6.9604751304198338 0.0000231482419407 18.9692773996996316 O
atom 3.4803884229947832 0.0000210722642130 24.5169498191952115 Os
atom -1.7397798822801291 9.0417558701320058 24.5169491234955430 Os
atom -5.2199448312778900 9.0417539105373823 24.5169492014349366 Os
atom -3.4798862640578427 10.0463836649944085 21.6754099983814612 Os
atom 1.0497136547366464 6.6337694906951494 19.8261887419871456 O
atom 5.2204722167142430 7.8298948367775374 19.8261819763897051 O
atom 4.1709523858515789 3.6198502187596988 19.8261750360811462 O
atom 3.4804090495282285 6.0278331951073554 21.5399955507715859 O
atom 5.9110617841434197 5.4219048025054404 20.6830846818969505 O
atom 1.7403012422275237 4.2257764762169074 20.6830875099804956 O
atom 2.7898223600641185 8.4358256094569271 20.6830973716700122 O
atom 3.4803592404782608 6.0278379505302846 18.9692763835977800 O
atom 3.4803860895328325 4.0185590321270626 21.6754088119583130 Os
atom 5.2204427546126642 1.0046477444639541 21.6754077813817148 Os
atom 1.7402851171228668 1.0046459399729080 21.6754113868831872 Os
atom 3.4803323070422172 2.0092937757947693 18.8338669415520670 Os
atom 1.0497155709497639 2.6152164297311655 22.6677316544925525 O
atom 5.2204718207294825 3.8113458134019047 22.6677283991972729 O
atom -2.7892671115471979 11.6569393853654919 22.6677202926216168 O
atom 3.4804161842335155 2.0092907812347716 24.3815378454709979 O
atom 5.9110620810961425 1.4033588491497166 23.5246248462210445 O
atom 1.7403045161342776 0.2072314414093984 23.5246322988601086 O
atom 2.7898241278240796 4.4172763819472545 23.5246436270319386 O
atom 3.4803647205364512 2.0092892496426291 21.8108203872689543 O
atom -3.4799412345381247 8.0371089781312168 18.8338669675151422 Os
atom -1.7398861533294676 5.0232040509855560 18.8338688698841352 Os
atom 1.7403862192831538 9.0417564784183302 24.5169471518405864 Os
atom 3.4804425237399745 10.0463846162209478 21.6754057837395031 Os
atom 8.0100447406753066 6.6337704704930349 19.8261911841787004 O
atom -1.7398574196024148 7.8298980170266024 19.8261847592058515 O
atom 11.1312809686063456 3.6198491083360187 19.8261749725903229 O
atom -3.4799204736434515 6.0278359426136987 21.5399998346979729 O
atom -1.0492677955986511 5.4219078112906427 20.6830885039433241 O
atom 8.7006350858809078 4.2257795707273305 20.6830882316487674 O
atom -4.1705047094705039 8.4358293244978473 20.6830974120551971 O
atom -3.4799686563606955 6.0278399958412381 18.9692791894972679 O
atom 10.4407189361932602 4.0185616571594300 21.6754140658330527 Os
atom 12.1807771215434908 1.0046507001694855 21.6754114071185029 Os
atom 8.7006089835105467 1.0046528434843984 21.6754111559864810 Os
atom 3.4804417671253578 6.0278376218394936 24.5169499837495763 Os
atom 8.0100463457817952 2.6152211899099473 22.6677345932049086 O
atom -1.7398583388186186 3.8113513288352499 22.6677337743180303 O
atom 4.1710623268111275 11.6569413163867655 22.6677187972945191 O
atom 10.4407518522428209 2.0092922019217396 24.3815428337468951 O
atom 12.8713962712510224 1.4033636542200461 23.5246273114837372 O
atom 8.7006368253672033 0.2072349890822858 23.5246328992946054 O
atom 9.7501592089496203 4.4172814891187571 23.5246483381811409 O
atom 10.4406953963611056 2.0092904090723218 21.8108239148815883 O
atom 6.9606136033549131 10.0463839262577626 21.6754077438080763 Os
atom 8.7006639681686071 7.0324845390609676 21.6754069326581202 Os
atom 5.2204920470351892 7.0324762271510943 21.6754018202684904 Os
atom 6.9605544962687613 0.0000208068992137 24.5169476858829327 Os
atom 4.5299387431704625 8.6430468107394685 22.6677320239693714 O
atom -5.2199661889465601 9.8391737285854219 22.6677289707406935 O
atom 7.6511743771166643 5.6291257343573085 22.6677133066845329 O
atom 6.9606339329141260 8.0371122747032455 24.3815396064033614 O
atom 9.3912843694223369 7.4311868419094971 23.5246251810642093 O
atom 5.2205246123952129 6.2350578011832596 23.5246285403053221 O
atom 6.2700477949751932 10.4451030233962410 23.5246398164920159 O
atom 6.9605784740356560 8.0371143724520397 21.8108153643594989 O
atom 0.0001700379524314 2.0092855577418876 18.8338672619650964 Os
atom -5.2199939186534010 11.0510091328458078 18.8338685696496739 Os
atom 5.2205009353984950 11.0510121008194044 18.8338684455299052 Os
atom 6.9605535204682276 4.0185595260990405 21.6754086531745642 Os
atom 11.4901583607518578 0.6059450741713889 19.8261915421230768 O
atom 1.7402547367895613 1.8020712285881857 19.8261901112405710 O
atom 7.6511740589224182 9.6476614692601999 19.8261758732340496 O
atom 0.0001971840341012 0.0000147063241171 21.5400005678908144 O
atom -4.5293739275018927 11.4497208335695699 20.6830833424036840 O
atom 5.2205270165627047 10.2535945117868721 20.6830905294860621 O
atom -0.6903941157922251 2.4080019114461306 20.6831020193187278 O
atom 0.0001467031911898 0.0000132686221736 18.9692793453585082 O
atom 0.0002756584984350 2.0093014664469933 27.3584909707967725 Os
atom -5.2198907800411343 11.0510320103584281 27.3584891608016179 Os
atom 5.2206043002775031 11.0510344312777953 27.3584882803518710 Os
atom 11.4902663784012500 0.6059610522689712 28.3508169425752641 O
atom 1.7403621392337467 1.8020920362614192 28.3508087797894959 O
atom 7.6512809805538096 9.6476809297188364 28.3507984908628501 O
atom 0.0002499054195189 0.0000319615890646 27.4938992321454450 O
atom -1.7398273291391002 3.0139310085986941 24.5169548536541804 Os
atom 6.9606641261515376 8.0371150072183113 27.3584969607913848 Os
atom -2.4303971228154051 4.6245023352651069 25.5092721305902259 O
atom 1.7403581652718056 5.8206249665138028 25.5092693718269032 O
atom 0.6908397415396560 1.6105792911258008 25.5092613345442984 O
atom 0.0003046925313835 4.0185695669144605 27.2230804115734202 O
atom 2.4309488569868658 3.4126386595404385 26.3661673892401538 O
atom 12.1808550265503364 2.2165100556251600 26.3661730636320328 O
atom -0.6902868760008908 6.4265540612697256 26.3661829137823602 O
atom 0.0002548905596530 4.0185766371048279 24.6523607421033155 O
atom 10.4407779159501466 2.0092990087689464 27.3584933407851381 Os
atom -5.9105065851235290 10.6523229795580363 25.5092720843908332 O
atom -1.7397480231459375 11.8484483256404278 25.5092653187933820 O
atom -2.7892678540086036 7.6384037076225892 25.5092583784848266 O
atom -3.4798111903319411 10.0463866839702458 27.2230788931752627 O
atom -1.0491584557167646 9.4404582913683281 26.3661680243006273 O
atom 8.7007433439093731 8.2443299650797979 26.3661708523841796 O
atom 2.7898241985300647 0.3987409532314726 26.3661807140736997 O
atom -3.4798609993819123 10.0463914393931741 24.6523597260014569 O
atom -3.4798341503273469 8.0371125209899574 27.3584921543619970 Os
atom -1.7397774852475163 5.0232012333268417 27.3584911237854058 Os
atom 8.7007272188047260 5.0231994288358006 27.3584947292868677 Os
atom -3.4798879328179591 6.0278472646576589 24.5169502839557474 Os
atom 8.0101576726316335 6.6337699185940533 28.3508149968962400 O
atom -1.7397484191306882 7.8298993022647947 28.3508117416009569 O
atom 11.1313970684607906 3.6198547291400294 28.3508036350252937 O
atom -3.4798555193237299 6.0278427385055169 27.4939037296726383 O
atom 10.4407229454698562 0.0000243219057547 24.5169503099188191 Os
atom 5.2205559483523976 9.0417575398484491 24.5169522122878192 Os
atom 3.4804443622059256 2.0092999599954866 27.3584891261431764 Os
atom 1.0498245008151270 10.6523239593559200 25.5092745265823808 O
atom 5.2205846820794424 11.8484515058894893 25.5092681016095355 O
atom 4.1710607287461610 7.6384025971989056 25.5092583149940069 O
atom 3.4805216280384035 10.0463894314765891 27.2230831771016568 O
atom 5.9111743060832058 9.4404613001535296 26.3661718463470081 O
atom 1.7404148460207280 8.2443330595902200 26.3661715740524514 O
atom 9.7501594705374917 0.3987446682723839 26.3661807544588740 O
atom 3.4804734453211639 10.0463934847041312 24.6523625319009518 O
atom 3.4804986963330879 8.0371151460223142 27.3584974082367367 Os
atom 5.2205568816833132 5.0232041890323780 27.3584947495221869 Os
atom 1.7403887436503696 5.0232063323472884 27.3584944983901650 Os
atom 1.0498261059216212 6.6337746787728342 28.3508179356085961 O
atom 5.2205837628632388 7.8299048176981456 28.3508171167217213 O
atom 4.1710641652770732 3.6198566601613016 28.3508021396981960 O
atom 3.4804751565009240 6.0278438979352122 27.4939072572852652 O
atom 6.9606154418208623 2.0092992700323036 27.3584910862117567 Os
atom 1.7404437283084293 11.0510380279238607 27.3584902750618042 Os
atom -1.7397281928249904 11.0510297160139839 27.3584851626721743 Os
atom 4.5299405816364109 0.6059621545140075 28.3508153663730624 O
atom 8.7006979910614319 1.8020890723599645 28.3508123131443739 O
atom 0.6909541372564764 9.6476792232201962 28.3507966490882168 O
atom 6.9605803125016017 0.0000297162265795 27.4938987067631757 O
atom 6.9606121396342928 6.0278390466047780 24.5169506043687804 Os
atom 8.7006702613545759 3.0139244766203435 24.5169519120533579 Os
atom 5.2205027738644487 3.0139274445939441 24.5169517879335856 Os
atom 0.0003332806080440 8.0371130149619336 27.3584919955782411 Os
atom 4.5299381208916740 4.6244985630342761 25.5092748845267536 O
atom 8.7006968384714174 5.8206247174510732 25.5092734536442549 O
atom 7.6511758973883746 1.6105768130347378 25.5092592156377265 O
atom 6.9606392857159678 4.0185681951870098 27.2230839102944984 O
atom 9.3912902525060957 3.4126361773441087 26.3661666848073608 O
atom 5.2205288550286530 2.2165098555614109 26.3661738718897425 O
atom 6.2700479858896445 6.4265554003090184 26.3661853617224082 O
atom 6.9605888048730513 4.0185667574850639 24.6523626877621851 O
