#===============================================================================
# Created using the Atomic Simulation Environment (ASE)

# Mon Mar 23 14:01:11 2026

#=======================================================
lattice_vector 9.0245853000181313 0.0000000000000000 0.0000000000000000 
lattice_vector 0.0000000000000000 6.4266484300000002 0.0000000000000000 
lattice_vector 0.0000000000000000 0.0000000000000000 58.8031677631934855 
atom 0.8646885883685256 1.6066532899999999 15.0000000000000000 O
atom 9.0245500500453524 3.2133235400000006 20.3770063466509086 Os
atom 0.8646887283657392 4.8199939800000005 15.0000013900002820 O
atom 4.5122621700369994 6.4266478700000009 20.3770059916604680 Os
atom 5.3770085883583194 1.6066710900000003 15.0000096150548234 O
atom 5.3770071183560733 4.8199787900000004 15.0000107350518768 O
atom 9.0245651450287365 6.4266478600000001 15.8647219866721017 Os
atom 2.2560943724868592 1.6066617200000000 18.1208824191128919 Os
atom 1.3913669157796793 0.0000001500000000 17.2561911757440036 O
atom 0.8646674333652180 1.6066553200000000 19.5122942999666584 O
atom 3.6475368916812227 1.6066662599999999 16.7294342582903575 O
atom 3.1207926791184870 6.4266482800000002 18.9856113524233479 O
atom 9.0245687050303793 3.2133230799999999 15.8647211666792352 Os
atom 2.2560950824897446 4.8199879000000001 18.1208809791143182 Os
atom 1.3913762457822452 3.2133246000000000 17.2561898957627093 O
atom 0.8646681033658595 4.8199920399999998 19.5122939799680033 O
atom 3.6475379716848710 4.8199836899999999 16.7294324382925232 O
atom 3.1207924291104088 3.2133249599999996 18.9856153824228464 O
atom 4.5122742750184957 0.0000018300000000 15.8647225716756672 Os
atom 6.7684181025549668 1.6066606200000000 18.1208529641751923 Os
atom 5.9037143358776349 0.0000015400000000 17.2561468308537940 O
atom 5.3769903733615649 1.6066654100000000 19.5123006450273770 O
atom 8.1598626216706514 1.6066589100000002 16.7294440533566657 O
atom 7.6331309092304940 0.0000005300000000 18.9855599975147129 O
atom 4.5122729750182371 3.2133238700000000 15.8647227016730632 Os
atom 6.7684176125572328 4.8199888299999998 18.1208518341742106 Os
atom 5.9037159758783968 3.2133234499999999 17.2561464508570808 O
atom 5.3769897733617444 4.8199817200000012 19.5123005550261723 O
atom 8.1598634616709944 4.8199883899999998 16.7294438833583499 O
atom 7.6331374792436462 3.2133241799999999 18.9855534375278836 O
atom 9.0245438900338453 6.4266474999999996 20.3770120866385582 Os
atom 2.2560953775112331 1.6066622699999999 22.6331629091239748 Os
atom 1.3913815308264048 6.4266479600000004 21.7684605157823654 O
atom 0.8646524083900342 1.6066532899999999 24.0245745699456066 O
atom 3.6475237267052574 1.6066570200000003 21.2417149182730327 O
atom 3.1207949141852969 0.0000003000000000 23.4978706724368891 O
atom 9.0245138700668619 3.2133235400000006 29.4015809165965152 Os
atom 2.2560957775085666 4.8199864600000000 22.6331642391247740 Os
atom 1.3913797608391336 3.2133245399999999 21.7684541657788202 O
atom 0.8646525483872478 4.8199939800000005 24.0245759599458850 O
atom 3.6475238367053562 4.8199900800000002 21.2417148682732559 O
atom 3.1207936941708647 3.2133240400000003 23.4978778724344473 O
atom 4.5122259900585080 6.4266478700000009 29.4015805616060746 Os
atom 6.7684177875690406 1.6066607200000003 22.6331385941836274 Os
atom 5.9037219509483343 0.0000013400000000 21.7684042108781242 O
atom 5.3769724083798280 1.6066710900000003 24.0245841850004282 O
atom 8.1598453266891973 1.6066640500000000 21.2417274533310660 O
atom 7.6331481742786043 0.0000014100000000 23.4978286475583857 O
atom 4.5122561600269151 3.2133230400000006 20.3770110216484213 Os
atom 6.7684171875669339 4.8199889999999996 22.6331396441824246 Os
atom 5.9037170009329785 3.2133236900000002 21.7684118708681993 O
atom 5.3769709383775810 4.8199787900000004 24.0245853049974833 O
atom 8.1598453266878916 4.8199832400000000 21.2417281033310630 O
atom 7.6331416642903909 3.2133235600000001 23.4978227675453368 O
atom 9.0245289650502443 6.4266478600000001 24.8892965566177082 Os
atom 2.2560581925083674 1.6066617200000000 27.1454569890584949 Os
atom 1.3913307358011879 0.0000001500000000 26.2807657456896102 O
atom 0.8646312533867266 1.6066553200000000 28.5368688699122650 O
atom 3.6475007117027309 1.6066662599999999 25.7540088282359640 O
atom 3.1207564991399956 6.4266482800000002 28.0101859223689544 O
atom 9.0245325250518871 3.2133230799999999 24.8892957366248417 Os
atom 2.2560589025112532 4.8199879000000001 27.1454555490599247 Os
atom 1.3913400658037538 3.2133246000000000 26.2807644657083124 O
atom 0.8646319233873682 4.8199920399999998 28.5368685499136099 O
atom 3.6475017917063792 4.8199836899999999 25.7540070082381263 O
atom 3.1207562491319165 3.2133249599999996 28.0101899523684530 O
atom 4.5122380950400043 0.0000018300000000 24.8892971416212738 Os
atom 6.7683819225764754 1.6066606200000000 27.1454275341207989 Os
atom 5.9036781558991427 0.0000015400000000 26.2807214007994006 O
atom 5.3769541933830736 1.6066654100000000 28.5368752149729836 O
atom 8.1598264416921609 1.6066589100000002 25.7540186233022723 O
atom 7.6330947292520026 0.0000005300000000 28.0101345674603195 O
atom 4.5122367950397457 3.2133238700000000 24.8892972716186662 Os
atom 6.7683814325787424 4.8199888299999998 27.1454264041198172 Os
atom 5.9036797958999063 3.2133234499999999 26.2807210208026873 O
atom 5.3769535933832522 4.8199817200000012 28.5368751249717789 O
atom 8.1598272816925039 4.8199883899999998 25.7540184533039564 O
atom 7.6331012992651539 3.2133241799999999 28.0101280074734902 O
atom 9.0245077100553530 6.4266474999999996 29.4015866565841648 Os
atom 2.2560591975327422 1.6066622699999999 31.6577374790695778 Os
atom 1.3913453508479134 6.4266479600000004 30.7930350857279755 O
atom 0.8646162284115427 1.6066532899999999 33.0491491398912132 O
atom 3.6474875467267660 1.6066570200000003 30.2662894882186393 O
atom 3.1207587342068059 0.0000003000000000 32.5224452423825028 O
atom 9.0244776900883696 3.2133235400000006 38.4261554865421147 Os
atom 2.2560595975300757 4.8199864600000000 31.6577388090703842 Os
atom 1.3913435808606425 3.2133245399999999 30.7930287357244268 O
atom 0.8646163684087563 4.8199939800000005 33.0491505298914916 O
atom 3.6474876567268653 4.8199900800000002 30.2662894382188590 O
atom 3.1207575141923729 3.2133240400000003 32.5224524423800503 O
atom 4.5121898100800157 6.4266478700000009 38.4261551315516812 Os
atom 6.7683816075905501 1.6066607200000003 31.6577131641292340 Os
atom 5.9036857709698438 0.0000013400000000 30.7929787808237343 O
atom 5.3769362284013358 1.6066710900000003 33.0491587549460348 O
atom 8.1598091467107050 1.6066640500000000 30.2663020232766691 O
atom 7.6331119943001111 0.0000014100000000 32.5224032175039923 O
atom 4.5122199800484237 3.2133230400000006 29.4015855915940278 Os
atom 6.7683810075884425 4.8199889999999996 31.6577142141280312 Os
atom 5.9036808209544871 3.2133236900000002 30.7929864408138094 O
atom 5.3769347583990887 4.8199787900000004 33.0491598749430864 O
atom 8.1598091467093994 4.8199832400000000 30.2663026732766731 O
atom 7.6331054843118986 3.2133235600000001 32.5223973374909434 O
atom 9.0244927850717520 6.4266478600000001 33.9138711265633148 Os
atom 2.2560220125298764 1.6066617200000000 36.1700315590041015 Os
atom 1.3912945558226968 0.0000001500000000 35.3053403156352203 O
atom 0.8645950734082352 1.6066553200000000 37.5614434398578680 O
atom 3.6474645317242396 1.6066662599999999 34.7785833981815671 O
atom 3.1207203191615043 6.4266482800000002 37.0347604923145610 O
atom 9.0244963450733966 3.2133230799999999 33.9138703065704519 Os
atom 2.2560227225327618 4.8199879000000001 36.1700301190055242 Os
atom 1.3913038858252624 3.2133246000000000 35.3053390356539154 O
atom 0.8645957434088768 4.8199920399999998 37.5614431198592200 O
atom 3.6474656117278879 4.8199836899999999 34.7785815781837329 O
atom 3.1207200691534256 3.2133249599999996 37.0347645223140560 O
atom 4.5122019150615129 0.0000018300000000 33.9138717115668840 Os
atom 6.7683457425979840 1.6066606200000000 36.1700021040664055 Os
atom 5.9036419759206504 0.0000015400000000 35.3052959707450071 O
atom 5.3769180134045831 1.6066654100000000 37.5614497849185938 O
atom 8.1597902617136686 1.6066589100000002 34.7785931932478789 O
atom 7.6330585492735104 0.0000005300000000 37.0347091374059261 O
atom 4.5122006150612535 3.2133238700000000 33.9138718415642728 Os
atom 6.7683452526002501 4.8199888299999998 36.1700009740654238 Os
atom 5.9036436159214141 3.2133234499999999 35.3052955907482939 O
atom 5.3769174134047608 4.8199817200000012 37.5614496949173855 O
atom 8.1597911017140117 4.8199883899999998 34.7785930232495701 O
atom 7.6330651192866616 3.2133241799999999 37.0347025774190968 O
atom 9.0244715300768625 6.4266474999999996 38.4261612265297714 Os
atom 2.2560230175542504 1.6066622699999999 40.6823120490151808 Os
atom 1.3913091708694223 6.4266479600000004 39.8176096556735786 O
atom 0.8645800484330514 1.6066532899999999 42.0737237098368198 O
atom 3.6474513667482742 1.6066570200000003 39.2908640581642459 O
atom 3.1207225542283146 0.0000003000000000 41.5470198123281023 O
atom 2.2560234175515839 4.8199864600000000 40.6823133790159872 Os
atom 1.3913074008821509 3.2133245399999999 39.8176033056700334 O
atom 0.8645801884302650 4.8199939800000005 42.0737250998370911 O
atom 3.6474514767483739 4.8199900800000002 39.2908640081644620 O
atom 3.1207213342138815 3.2133240400000003 41.5470270123256569 O
atom 6.7683454276120578 1.6066607200000003 40.6822877340748406 Os
atom 5.9036495909913524 0.0000013400000000 39.8175533507693444 O
atom 5.3769000484228462 1.6066710900000003 42.0737333248916414 O
atom 8.1597729667322128 1.6066640500000000 39.2908765932222792 O
atom 7.6330758143216215 0.0000014100000000 41.5469777874496060 O
atom 4.5121838000699324 3.2133230400000006 38.4261601615396344 Os
atom 6.7683448276099529 4.8199889999999996 40.6822887840736342 Os
atom 5.9036446409759966 3.2133236900000002 39.8175610107594196 O
atom 5.3768985784205992 4.8199787900000004 42.0737344448887001 O
atom 8.1597729667309089 4.8199832400000000 39.2908772432222761 O
atom 7.6330693043334090 3.2133235600000001 41.5469719074365500 O
atom 9.0244566050932615 6.4266478600000001 42.9384456965089214 Os
atom 3.6474283517457486 1.6066662599999999 43.8031579681271808 O
atom 9.0244601650949061 3.2133230799999999 42.9384448765160514 Os
atom 3.6474294317493969 4.8199836899999999 43.8031561481293394 O
atom 4.5121657350830215 0.0000018300000000 42.9384462815124834 Os
atom 8.1597540817351781 1.6066589100000002 43.8031677631934855 O
atom 4.5121644350827630 3.2133238700000000 42.9384464115098865 Os
atom 8.1597549217355212 4.8199883899999998 43.8031675931951696 O
