#===============================================================================
# Created using the Atomic Simulation Environment (ASE)

# Mon Mar 23 14:01:10 2026

#=======================================================
lattice_vector 11.0790232517419795 0.0000000000000000 0.0000000000000000 
lattice_vector 3.7278993459126002 10.4330108955597858 0.0000000000000000 
lattice_vector 0.0000000000000000 0.0000000000000000 41.0562684752986726 
atom 7.3510678575034731 5.1795911639853713 18.1318710205844553 Os
atom 11.9847859259725613 8.4445177688423190 16.9998204554811423 Os
atom 12.2124157967710207 8.6048925136150682 15.0000029615675530 O
atom 13.1181896619275271 6.8359358103296790 16.9998020478356509 O
atom 10.8513608513745474 10.0531034713116298 16.9998032716767966 O
atom 13.6211251249726590 9.5974829718325942 16.7355237339510126 O
atom 9.2150274424063152 6.4929517455054615 15.8677620301118232 Os
atom 10.3484457547038442 7.2915388192174140 17.2641088282670481 O
atom 7.3510774135635115 1.2764504801157939 15.8677643264364541 Os
atom 8.4844548013425314 2.0750903487580747 17.2641093351738171 O
atom 9.2150168050589958 10.3961012776981736 18.1318727822637129 Os
atom 10.1208158432499413 3.2280432881404026 16.9998251854462659 Os
atom 10.3484265311783528 3.3884382863751292 15.0000000000000000 O
atom 11.2542479878800314 1.6194490991067765 16.9998213254065575 O
atom 8.9874207553511134 4.8366184082736083 16.9998258263083777 O
atom 11.7571369842052018 4.3810386542973649 16.7355261694679349 O
atom 3.6755181382324720 6.4929482605539324 15.8677620689730006 Os
atom 4.8089540202309680 7.2915050605588787 17.2641053732518799 O
atom 12.8905766413380665 5.1795981229247579 18.1318724265953932 Os
atom 6.4452778413182505 8.4444997287859671 16.9998149144860768 Os
atom 6.6729172496859785 8.6048670941874938 15.0000001971625920 O
atom 7.5786750581979216 6.8359258492377482 16.9998144467985384 O
atom 5.3118517154097367 10.0530977434196984 16.9998054831686574 O
atom 8.0816393029808111 9.5974556800424367 16.7355297776821601 O
atom 4.5813071262246430 3.2280299579370606 16.9998139365276231 Os
atom 4.8089318274676938 3.3884130145899864 15.0000022026439730 O
atom 5.7147322151406073 1.6194450700102605 16.9998309517630055 O
atom 3.4479118313047388 4.8366168260199691 16.9998269695897051 O
atom 6.2176446400329830 4.3810060836022409 16.7355248317882683 O
atom 1.8115689171721714 1.2764429279056499 15.8677628271185824 Os
atom 2.9449684465706358 2.0750617992625200 17.2641105916486950 O
atom 3.6231390406443258 2.5528837907086235 22.6600897823522907 Os
atom 8.2568571091134118 5.8178103955655729 21.5280392172489741 Os
atom 8.4844869799118712 5.9781851403383239 19.5282217233353848 O
atom 9.3902608450683829 4.2092284370529329 21.5280208096034826 O
atom 7.1234320345153970 7.4263960980348855 21.5280220334446284 O
atom 9.8931963081135113 6.9707755985558482 21.2637424957188443 O
atom 5.4870986255471692 3.8662443722287159 20.3959807918796550 Os
atom 10.1208226154144203 7.1311640513137329 19.2639306868055940 Os
atom 6.6205169378446920 4.6648314459406679 21.7923275900348798 O
atom 11.2542168290299642 5.5225751065369968 19.2639238047128387 O
atom 8.9873912714659721 8.7397462792377425 19.2639189148567667 O
atom 11.7571668569415113 8.2841263284012197 18.9996357807132554 O
atom 7.3510479426169599 9.0827540023988327 20.3959830882042823 Os
atom 8.2568529375260962 1.9146920875686690 19.2639314763345268 Os
atom 8.4844253303959807 9.8813938710411140 21.7923280969416489 O
atom 9.3902730872214715 0.3060902599802945 19.2639425183826773 O
atom 7.1234529025852495 3.5232628570002009 19.2639384216609493 O
atom 9.8931761675499921 3.0676880433906213 18.9996432222327698 O
atom 5.4870879881998489 7.7693939044214275 22.6600915440315447 Os
atom 6.3928870263907944 0.6013359148636562 21.5280439472141012 Os
atom 6.6204977143192085 0.7617309130983819 19.5282187617678353 O
atom 11.2542185169334843 9.4257526213898153 21.5280400871743893 O
atom 5.2594919384919621 2.2099110349968623 21.5280445880762059 O
atom 8.0292081673460540 1.7543312810206177 21.2637449312357703 O
atom 11.0266125731153100 3.8662408872771854 20.3959808307408359 Os
atom 4.5813157457066715 7.1311458120059630 19.2639232771201527 Os
atom 12.1600484551138042 4.6647976872821317 21.7923241350197117 O
atom 5.7147181642497893 5.5225766009662740 19.2639148410371988 O
atom 3.4478848536894984 8.7397398196752381 19.2639200160737190 O
atom 6.2176721310233507 8.2841037484317894 18.9996366312718052 O
atom 9.1626478244789222 2.5528907496480127 22.6600911883632214 Os
atom 2.7173490244591059 5.8177923555092219 21.5280336762539086 Os
atom 2.9449884328268299 5.9781597209107495 19.5282189589304238 O
atom 3.8507462413387752 4.2092184759610021 21.5280332085663701 O
atom 12.6629461502925693 7.4263903701429514 21.5280242449364891 O
atom 4.3537104861216669 6.9707483067656923 21.2637485394499919 O
atom 14.7545257388417301 10.3961004102008712 18.1318743275741241 Os
atom 0.8533783093654915 0.6013225846603152 21.5280326982954584 Os
atom 1.0810030106085446 0.7617056413132404 19.5282209644118083 O
atom 5.7147027441940601 9.4257485922932993 21.5280497135308373 O
atom 10.7990062661875665 2.2099094527432217 21.5280457313575369 O
atom 2.4897158231738366 1.7542987103254950 21.2637435935561037 O
atom 12.8905626979675976 9.0827464501886901 20.3959815888864142 Os
atom 2.7173394799445725 1.9146745435034924 19.2639253194287647 Os
atom 14.0239622273660682 9.8813653215455588 21.7923293534165268 O
atom 3.8507723188827141 0.3060941215061326 19.2639344165626980 O
atom 1.5839442303106142 3.5232617635477017 19.2639403963774392 O
atom 4.3536752157937624 3.0676602203175278 18.9996338195867267 O
atom 4.5289282922542631 3.1911030222888259 26.0562579790168058 Os
atom 4.7565581630527145 3.3514777670615787 24.0564404851032165 O
atom 5.6623320282092360 1.5825210637761866 26.0562395713713144 O
atom 3.3955032176562474 4.7996887247581341 26.0562407952124673 O
atom 6.1652674912543644 4.3440682252791003 25.7919612574866832 O
atom 1.7591698086880263 1.2395369989519684 24.9241995536474903 Os
atom 6.3928937985552734 4.5044566780369841 23.7921494485734257 Os
atom 7.5262880121708173 2.8958677332602498 23.7921425664806705 O
atom 5.2594624546068305 6.1130389059609973 23.7921376766245949 O
atom 8.0292380400823617 5.6574189551244736 23.5278545424810943 O
atom 3.6231191257578175 6.4560466291220866 24.9242018499721141 Os
atom 8.2568234665795490 9.7209956098517072 23.7921502381023657 Os
atom 9.3902436162749225 8.1123937822633359 23.7921612801505091 O
atom 3.3955240857261031 0.8965554837234557 23.7921571834287775 O
atom 6.1652473506908461 0.4409806701138758 23.5278619840006016 O
atom 6.3928575554442428 8.4076394371466971 26.0562627089819330 Os
atom 6.6204682433726614 8.5680344353814224 24.0564375235356671 O
atom 7.5262897000743285 6.7990452481130701 26.0562588489422282 O
atom 5.2594624675454256 10.0162145572799020 26.0562633498440448 O
atom 8.0291786963995087 9.5606348033036586 25.7919636930036020 O
atom 7.2986837562561568 1.2395335140004391 24.9241995925086712 Os
atom 11.9324101805895051 4.5044384387292160 23.7921420388879881 Os
atom 1.9867893473906468 2.8958692276895257 23.7921336028050305 O
atom 10.7989792885723350 6.1130324463984920 23.7921387778415507 O
atom 2.4897433141642087 5.6573963751550416 23.5278553930396406 O
atom 10.0684434593419372 3.1910849822324754 26.0562524380217440 Os
atom 10.2960828677096661 3.3514523476339999 24.0564377206982591 O
atom 11.2018406762216127 1.5825111026842547 26.0562519703342019 O
atom 8.9350173334334180 4.7996829968662089 26.0562430067043209 O
atom 11.7048049210044987 4.3440409334889445 25.7919673012178237 O
atom 11.0265969219825859 7.7693930369241260 22.6600930893419559 Os
atom 11.9323720901609196 8.4076261069433542 26.0562514600632937 Os
atom 12.1599967914039819 8.5680091635962796 24.0564397261796437 O
atom 13.0657971790768883 6.7990412190165532 26.0562684752986726 O
atom 10.7989767952410194 10.0162129750262601 26.0562644931253757 O
atom 13.5687096039692747 9.5606022326085363 25.7919623553239319 O
atom 9.1626338811084516 6.4560390769119431 24.9242003506542495 Os
atom 13.7963332607400098 9.7209780657865306 23.7921440811965965 Os
atom 3.8507428479361718 8.1123976437891709 23.7921531783305369 O
atom 8.9350386651934421 0.8965543902709572 23.7921591581452745 O
atom 0.6257463989346256 0.4409528470407817 23.5278525813545656 O
