#===============================================================================
# Created using the Atomic Simulation Environment (ASE)

# Mon Mar 23 14:01:11 2026

#=======================================================
lattice_vector 9.0245853000181313 0.0000000000000000 0.0000000000000000 
lattice_vector 0.0000000000000000 6.4266484300000002 0.0000000000000000 
lattice_vector 0.0000000000000000 0.0000000000000000 40.7540186233022723 
atom 0.8646162284115427 1.6066532899999999 15.0000000000000000 O
atom 9.0244776900883696 3.2133235400000006 20.3770063466509015 Os
atom 0.8646163684087563 4.8199939800000005 15.0000013900002784 O
atom 4.5121898100800157 6.4266478700000009 20.3770059916604680 Os
atom 5.3769362284013358 1.6066710900000003 15.0000096150548217 O
atom 5.3769347583990887 4.8199787900000004 15.0000107350518732 O
atom 9.0244927850717520 6.4266478600000001 15.8647219866721017 Os
atom 2.2560220125298764 1.6066617200000000 18.1208824191128883 Os
atom 1.3912945558226968 0.0000001500000000 17.2561911757440072 O
atom 0.8645950734082352 1.6066553200000000 19.5122942999666549 O
atom 3.6474645317242396 1.6066662599999999 16.7294342582903539 O
atom 3.1207203191615043 6.4266482800000002 18.9856113524233479 O
atom 9.0244963450733966 3.2133230799999999 15.8647211666792387 Os
atom 2.2560227225327618 4.8199879000000001 18.1208809791143111 Os
atom 1.3913038858252624 3.2133246000000000 17.2561898957627022 O
atom 0.8645957434088768 4.8199920399999998 19.5122939799680069 O
atom 3.6474656117278879 4.8199836899999999 16.7294324382925197 O
atom 3.1207200691534256 3.2133249599999996 18.9856153824228429 O
atom 4.5122019150615129 0.0000018300000000 15.8647225716756708 Os
atom 6.7683457425979840 1.6066606200000000 18.1208529641751923 Os
atom 5.9036419759206504 0.0000015400000000 17.2561468308537940 O
atom 5.3769180134045831 1.6066654100000000 19.5123006450273806 O
atom 8.1597902617136686 1.6066589100000002 16.7294440533566657 O
atom 7.6330585492735104 0.0000005300000000 18.9855599975147129 O
atom 4.5122006150612535 3.2133238700000000 15.8647227016730596 Os
atom 6.7683452526002501 4.8199888299999998 18.1208518341742106 Os
atom 5.9036436159214141 3.2133234499999999 17.2561464508570808 O
atom 5.3769174134047608 4.8199817200000012 19.5123005550261723 O
atom 8.1597911017140117 4.8199883899999998 16.7294438833583570 O
atom 7.6330651192866616 3.2133241799999999 18.9855534375278836 O
atom 9.0244715300768625 6.4266474999999996 20.3770120866385582 Os
atom 2.2560230175542504 1.6066622699999999 22.6331629091239677 Os
atom 1.3913091708694223 6.4266479600000004 21.7684605157823654 O
atom 0.8645800484330514 1.6066532899999999 24.0245745699456066 O
atom 3.6474513667482742 1.6066570200000003 21.2417149182730327 O
atom 3.1207225542283146 0.0000003000000000 23.4978706724368891 O
atom 2.2560234175515839 4.8199864600000000 22.6331642391247740 Os
atom 1.3913074008821509 3.2133245399999999 21.7684541657788202 O
atom 0.8645801884302650 4.8199939800000005 24.0245759599458779 O
atom 3.6474514767483739 4.8199900800000002 21.2417148682732488 O
atom 3.1207213342138815 3.2133240400000003 23.4978778724344437 O
atom 6.7683454276120578 1.6066607200000003 22.6331385941836274 Os
atom 5.9036495909913524 0.0000013400000000 21.7684042108781313 O
atom 5.3769000484228462 1.6066710900000003 24.0245841850004282 O
atom 8.1597729667322128 1.6066640500000000 21.2417274533310660 O
atom 7.6330758143216215 0.0000014100000000 23.4978286475583928 O
atom 4.5121838000699324 3.2133230400000006 20.3770110216484213 Os
atom 6.7683448276099529 4.8199889999999996 22.6331396441824211 Os
atom 5.9036446409759966 3.2133236900000002 21.7684118708682064 O
atom 5.3768985784205992 4.8199787900000004 24.0245853049974869 O
atom 8.1597729667309089 4.8199832400000000 21.2417281033310630 O
atom 7.6330693043334090 3.2133235600000001 23.4978227675453368 O
atom 9.0244566050932615 6.4266478600000001 24.8892965566177082 Os
atom 3.6474283517457486 1.6066662599999999 25.7540088282359676 O
atom 9.0244601650949061 3.2133230799999999 24.8892957366248382 Os
atom 3.6474294317493969 4.8199836899999999 25.7540070082381263 O
atom 4.5121657350830215 0.0000018300000000 24.8892971416212703 Os
atom 8.1597540817351781 1.6066589100000002 25.7540186233022723 O
atom 4.5121644350827630 3.2133238700000000 24.8892972716186733 Os
atom 8.1597549217355212 4.8199883899999998 25.7540184533039564 O
