#===============================================================================
# Created using the Atomic Simulation Environment (ASE)

# Mon Mar 23 14:01:08 2026

#=======================================================
lattice_vector 22.0103944943716279 0.0000000000000000 0.0000000000000000 
lattice_vector -0.0000025759486765 9.8433818399997932 0.0000000000000000 
lattice_vector 0.0000000000000000 0.0000000000000000 41.2150831490441760 
atom 13.2062932828254773 0.0000023360136543 15.1048891890698300 Os
atom 20.5780567028084107 6.6404410703908487 15.0000009246993322 O
atom 20.5780612643892553 1.7187423403914095 15.0000012332565866 O
atom 15.0754595866541692 5.6637968503909439 15.0000000000000000 O
atom 18.7088913093595686 2.4608407260131506 15.1048844866192589 Os
atom 15.0754627976581954 0.7421019203914607 15.0000016770391049 O
atom 2.2010957941347180 0.0000031660134783 15.1048876998500141 Os
atom 9.5728588384809328 6.6404323103909526 15.0000027985290849 O
atom 2.2010931153195950 4.9216888160130825 15.1048865728811386 Os
atom 9.5728686414223016 1.7187394703924701 15.0000059200258420 O
atom 4.0702638689558306 5.6638009603914119 15.0000027458813143 O
atom 7.7036995539820330 2.4608392960142527 15.1048884265361352 Os
atom 4.0702683902905070 0.7421033403920144 15.0000035553179494 O
atom 12.1058117346950471 0.0000039730233354 18.4064796701695919 Os
atom 14.3068354376734153 7.3825427640197745 17.3059491319141756 Os
atom 11.0052604164372756 7.3825450350161441 16.2054190118164527 Os
atom 4.4021916553725644 0.0000031920272799 19.5070101256636725 Os
atom 9.7998695073073563 8.1246433465644863 17.6378403903466712 O
atom 0.3319212794675692 9.1012839016353251 15.2097770499442255 O
atom 13.3112047214849003 5.6638012814756102 16.9740609960620681 O
atom 11.7739550753554987 6.6404419264044741 19.4021218612931712 O
atom 14.4117538413528123 6.6404347194825890 19.1751212933681252 O
atom 10.6734062283009994 5.6638056683977238 17.2010635630304201 O
atom 19.7045179559272512 9.1012813185572021 15.4367762493905758 O
atom 12.4376652188078598 8.1246467696417977 17.4108356588815028 O
atom 12.1058090737768911 4.9217022330230957 18.4064801218633676 Os
atom 14.3068391003256927 2.4608403240197649 17.3059447805118580 Os
atom 11.0052700270915089 2.4608431450178445 16.2054242531077612 Os
atom 13.2062901165693649 4.9216862760135252 15.1048914475111467 Os
atom 9.7998715689414286 3.2029533865643933 17.6378373090399698 O
atom 0.3319208009215613 4.1795840016347743 15.2097726896238150 O
atom 13.3112058529372970 0.7421030014757179 16.9740612867526188 O
atom 11.7739596369363451 1.7187431964050350 19.4021221698504256 O
atom 14.4117528529989158 1.7187424294822220 19.1751195358333497 O
atom 10.6734102532134543 0.7421043983980260 17.2010619262122049 O
atom 19.7045214441820100 4.1795829885574198 15.4367744560507418 O
atom 12.4376708582063085 3.2029559296430170 17.4108412758564945 O
atom 16.5078655894695281 0.0000002650168472 16.2054184415904743 Os
atom 18.7088864571299389 7.3825418860131666 15.1048905061359982 Os
atom 6.6032125543270030 7.3825408830234309 18.4064803968828592 Os
atom 8.8042435737297282 0.0000003840208059 17.3059516653489744 Os
atom 14.2019223155949366 8.1246451885577677 15.4367781644873752 O
atom 17.9402680592802852 9.1012811896421937 17.4108339002636932 O
atom 8.9091568057155790 5.6638004194829961 19.1751234812739391 O
atom 16.1760053166275277 6.6404329683972518 17.2010579226232316 O
atom 18.8138056478950162 6.6404330114759276 16.9740610441996580 O
atom 6.2713579592012554 5.6637977064045701 19.4021209365938390 O
atom 15.3024688550276355 9.1012804765642183 17.6378364985420326 O
atom 16.8397168241088551 8.1246435216351802 15.2097761476168998 O
atom 16.5078635859391198 4.9216872350164236 16.2054161160847272 Os
atom 9.9047896819066565 2.4608415820267764 19.5070054232130978 Os
atom 6.6032234037239279 2.4608378130246988 18.4064795068679814 Os
atom 8.8042391060746361 4.9216969440204199 17.3059530204259069 Os
atom 14.2019261884357366 3.2029447885577600 15.4367735626439071 O
atom 17.9402680950550604 4.1795820596420921 17.4108334977802457 O
atom 8.9091599585694237 0.7421019994833086 19.1751231413804355 O
atom 16.1760123557840814 1.7187416183983379 17.2010603241235884 O
atom 18.8138073964782606 1.7187400014757641 16.9740576945670902 O
atom 6.2713611702052781 0.7421027764050862 19.4021226136329439 O
atom 15.3024710240140962 4.1795812765644413 17.6378365387864378 O
atom 16.8397230001271048 3.2029460516359016 15.2097759060910107 O
atom 1.1006199882522667 0.0000030630242938 18.4064821298093584 Os
atom 3.3016417145731016 7.3825418940208785 17.3059557551251260 Os
atom 0.0000660672001872 7.3825437350165890 16.2054197094512986 Os
atom 15.4073886610534299 0.0000040220271039 19.5070086364438531 Os
atom 20.8050678591146365 8.1246450065646947 17.6378410343270389 O
atom 11.3371217823735169 9.1012817516358258 15.2097778146589100 O
atom 2.3060081361789440 5.6637991214757486 16.9740615371865040 O
atom 0.7687572110280211 6.6404331664045770 19.4021237351229239 O
atom 3.4065575601825091 6.6404336894832321 19.1751266241481204 O
atom 21.6786078045152664 5.6637993883982913 17.2010635674755470 O
atom 8.6993256236386802 9.1012830585581490 15.4367793932706299 O
atom 1.4324707712132372 8.1246439996426769 17.4108409449286121 O
atom 1.1006152790980070 4.9216867730237901 18.4064826217668411 Os
atom 3.3016448047852616 2.4608414740206968 17.3059503930235401 Os
atom 0.0000688399288945 2.4608431550169478 16.2054203310696643 Os
atom 15.4073859822383099 4.9216896720267078 19.5070075094749775 Os
atom 20.8050706184082586 3.2029474065647729 17.6378387893060520 O
atom 11.3371202260877570 4.1795830316358220 15.2097805337364811 O
atom 2.3060119151366654 0.7421040114762236 16.9740620246338381 O
atom 0.7687670139693886 1.7187403264060956 19.4021268566196845 O
atom 3.4065606861857827 1.7187429294832881 19.1751236591102376 O
atom 21.6786095084073054 0.7421048983985783 17.2010649135861620 O
atom 8.6993261513790134 4.1795822985585787 15.4367837536089922 O
atom 1.4324733471550635 3.2029453896428177 17.4108395853918090 O
atom 5.5026738430258755 0.0000016850177965 16.2054208117872989 Os
atom 7.7036907841568745 7.3825466060137019 15.1048938781160054 Os
atom 17.6084072612988649 7.3825434130224838 18.4064740643543061 Os
atom 19.8094398683208759 0.0000014940202318 17.3059470322220967 Os
atom 3.1967283778079039 8.1246447285584740 15.4367810042726354 O
atom 6.9350717825877792 9.1012798696429211 17.4108401120544727 O
atom 19.9143560474546994 5.6638013794829662 19.1751204715136225 O
atom 5.1708106633081750 6.6404334983980107 17.2010622605785102 O
atom 7.8086091922924208 6.6404380114762729 16.9740635217574400 O
atom 17.2765567358745500 5.6638018164050372 19.4021236824751533 O
atom 4.2972754449494621 9.1012805765649478 17.6378388508610549 O
atom 5.8345186064512786 8.1246448116347771 15.2097733122887711 O
atom 5.5026704531401531 4.9216898350172986 16.2054195819635893 Os
atom 20.9099924209007497 2.4608401520278784 19.5070093631299741 Os
atom 17.6084168898463069 2.4608424330242582 18.4064800569642486 Os
atom 19.8094385043211254 4.9216879440201229 17.3059470814165124 Os
atom 3.1967289770561131 3.2029482885582161 15.4367781957761849 O
atom 6.9350733433534053 4.1795818696429112 17.4108385557501073 O
atom 19.9143580151938444 0.7421026294831419 19.1751203328738313 O
atom 5.1708157973356519 1.7187396283988572 17.2010647425897112 O
atom 7.8086167546544338 1.7187403814768909 16.9740603956950267 O
atom 17.2765612572092202 0.7421041964056401 19.4021244919117883 O
atom 4.2972760084378043 4.1795830965649454 17.6378387211743721 O
atom 5.8345283289034651 3.2029463116364192 15.2097777709552417 O
atom 3.3017101072421373 0.0000048290369610 22.8086006067634308 Os
atom 5.5027338102205068 7.3825436200333998 21.7080700685080146 Os
atom 2.2011587889843613 7.3825458910297685 20.6075399484102952 Os
atom 17.6084845222912811 0.0000040480409055 23.9091310622575079 Os
atom 0.9957678798544392 8.1246442025781125 22.0399613269405101 O
atom 13.5382141463862844 9.1012847576489513 19.6118979865380680 O
atom 4.5071030940319892 5.6638021374892356 21.3761819326559070 O
atom 2.9698534479025840 6.6404427824181003 23.8042427978870101 O
atom 5.6076522138998977 6.6404355754962143 23.5772422299619642 O
atom 1.8693046008480889 5.6638065244113500 21.6031844996242590 O
atom 10.9004163284743409 9.1012821745708283 19.8388971859844148 O
atom 3.6335635913549433 8.1246476256554256 21.8129565954753453 O
atom 3.3017074463239751 4.9217030890367210 22.8086010584572065 Os
atom 5.5027374728727816 2.4608411800333903 21.7080657171057005 Os
atom 2.2011683996385947 2.4608440010314698 20.6075451897016002 Os
atom 4.4021884891164547 4.9216871320271514 19.5070123841049856 Os
atom 0.9957699414885147 3.2029542425780186 22.0399582456338088 O
atom 13.5382136678402762 4.1795848576484005 19.6118936262176540 O
atom 4.5071042254843867 0.7421038574893435 21.3761822233464578 O
atom 2.9698580094834286 1.7187440524186608 23.8042431064442646 O
atom 5.6076512255460038 1.7187432854958478 23.5772404724271887 O
atom 1.8693086257605434 0.7421052544116516 21.6031828628060438 O
atom 10.9004198167290962 4.1795838445710451 19.8388953926445808 O
atom 3.6335692307533924 3.2029567856566423 21.8129622124503335 O
atom 7.7037639620166178 0.0000011210304720 20.6075393781843168 Os
atom 9.9047848296770287 7.3825427420267937 19.5070114427298371 Os
atom 19.8095054212457171 7.3825417390370580 22.8086013334766982 Os
atom 0.0001419462768180 0.0000012400344329 21.7080726019428134 Os
atom 5.3978206881420228 8.1246460445713939 19.8388991010812141 O
atom 9.1361664318273714 9.1012820456558199 21.8129548368575321 O
atom 0.1050551782626636 5.6638012754966223 23.5772444178677780 O
atom 7.3719036891746175 6.6404338244108763 21.6031788592170706 O
atom 10.0097040204421077 6.6404338674895529 21.3761819807934970 O
atom 19.4776508261199695 5.6637985624181955 23.8042418731876815 O
atom 6.4983672275747209 9.1012813325778446 22.0399574351358716 O
atom 8.0356151966559395 8.1246443776488064 19.6118970842107423 O
atom 7.7037619584862060 4.9216880910300498 20.6075370526785662 Os
atom 1.1006880544537463 2.4608424380404017 23.9091263598069403 Os
atom 19.8095162706426429 2.4608386690383242 22.8086004434618204 Os
atom 0.0001374786217239 4.9216978000340452 21.7080739570197530 Os
atom 5.3978245609828273 3.2029456445713853 19.8388944992377461 O
atom 9.1361664676021466 4.1795829156557174 21.8129544343740847 O
atom 0.1050583311165125 0.7421028554969342 23.5772440779742745 O
atom 7.3719107283311676 1.7187424744119635 21.6031812607174309 O
atom 10.0097057690253468 1.7187408574893894 21.3761786311609292 O
atom 19.4776540371239975 0.7421036324187118 23.8042435502267828 O
atom 6.4983693965611851 4.1795821325780667 22.0399574753802803 O
atom 8.0356213726741927 3.2029469076495269 19.6118968426848532 O
atom 14.3069128551709834 0.0000039190379194 22.8086030664032009 Os
atom 16.5079345814918170 7.3825427500345047 21.7080766917189614 Os
atom 13.2063589341189029 7.3825445910302152 20.6075406460451376 Os
atom 6.6032870336005232 0.0000048780407295 23.9091295730376920 Os
atom 12.0009662316617263 8.1246458625783209 22.0399619709208778 O
atom 2.5330201549206031 9.1012826076494520 19.6118987512527525 O
atom 15.5123010030976616 5.6637999774893757 21.3761824737803430 O
atom 13.9750500779467348 6.6404340224182032 23.8042446717167628 O
atom 16.6128504271012254 6.6404345454968592 23.5772475607419594 O
atom 12.8745061770623526 5.6638002444119184 21.6031845040693860 O
atom 21.9056184905573943 9.1012839145717752 19.8389003298644688 O
atom 14.6387636381319517 8.1246448556563031 21.8129618815224511 O
atom 14.3069081460167222 4.9216876290374154 22.8086035583606836 Os
atom 16.5079376717039779 2.4608423300343221 21.7080713296173791 Os
atom 13.2063617068476091 2.4608440110305732 20.6075412676635032 Os
atom 6.6032843547853979 4.9216905280403340 23.9091284460688165 Os
atom 12.0009689909553430 3.2029482625783983 22.0399597258998945 O
atom 2.5330185986348432 4.1795838876494473 19.6119014703303201 O
atom 15.5123047820553825 0.7421048674898493 21.3761829612276806 O
atom 13.9750598808881019 1.7187411824197214 23.8042477932135235 O
atom 16.6128535531045003 1.7187437854969139 23.5772445957040766 O
atom 12.8745078809543916 0.7421057544122039 21.6031858501800009 O
atom 21.9056190182977275 4.1795831545722049 19.8389046902028277 O
atom 14.6387662140737760 3.2029462456564435 21.8129605219856515 O
atom 18.7089667099445940 0.0000025410314221 20.6075417483811343 Os
atom 20.9099836510755885 7.3825474620273281 19.5070148147098443 Os
atom 8.8043056338459529 7.3825442690361092 22.8085950009481451 Os
atom 11.0053382408679656 0.0000023500338574 21.7080679688159357 Os
atom 16.4030212447266202 8.1246455845721002 19.8389019408664744 O
atom 20.1413646495064960 9.1012807256565473 21.8129610486483116 O
atom 11.1102544200017874 5.6638022354965907 23.5772414081074650 O
atom 18.3771035302268899 6.6404343544116369 21.6031831971723456 O
atom 21.0149020592111349 6.6404388674898982 21.3761844583512790 O
atom 8.4724551084216362 5.6638026724186643 23.8042446190689994 O
atom 17.5035683118681789 9.1012814325785758 22.0399597874548938 O
atom 19.0408114733699918 8.1246456676484051 19.6118942488826100 O
atom 18.7089633200588672 4.9216906910309248 20.6075405185574319 Os
atom 12.1058907934478341 2.4608410080415037 23.9091302997238166 Os
atom 8.8043152623933914 2.4608432890378835 22.8086009935580911 Os
atom 11.0053368768682116 4.9216888000337482 21.7080680180103514 Os
atom 16.4030218439748268 3.2029491445718414 19.8388991323700274 O
atom 20.1413662102721176 4.1795827256565374 21.8129594923439463 O
atom 11.1102563877409288 0.7421034854967675 23.5772412694676738 O
atom 18.3771086642543686 1.7187404844124829 21.6031856791835501 O
atom 21.0149096215731461 1.7187412374905167 21.3761813322888692 O
atom 8.4724596297563117 0.7421050524192657 23.8042454285056273 O
atom 17.5035688753565175 4.1795839525785716 22.0399596577682146 O
atom 19.0408211958221791 3.2029471676500445 19.6118987075490843 O
atom 18.7090266771392137 7.3825444760470260 26.1101910051018535 Os
atom 15.4074516559030741 7.3825467470433939 25.0096608850041342 Os
atom 4.7341125189333706 9.1012856136625775 24.0140189231319106 O
atom 17.7133959609507023 5.6638029935028609 25.7783028692497460 O
atom 15.0755974677668014 5.6638073804249744 26.0053054362180980 O
atom 2.0963147010214271 9.1012830305844528 24.2410181225782573 O
atom 16.8398564582736618 8.1246484816690501 26.2150775320691842 O
atom 18.7090303397914930 2.4608420360470160 26.1101866536995395 Os
atom 15.4074612665573092 2.4608448570450956 25.0096661262954392 Os
atom 17.6084813560351634 4.9216879880407758 23.9091333206988317 Os
atom 4.7341120403873616 4.1795857136620249 24.0140145628114929 O
atom 17.7133970924030990 0.7421047135029690 25.7783031599403003 O
atom 15.0756014926792563 0.7421061104252773 26.0053037993998863 O
atom 2.0963181892761846 4.1795847005846705 24.2410163292384233 O
atom 16.8398620976721105 3.2029576416702676 26.2150831490441725 O
atom 20.9100568289353248 0.0000019770440968 25.0096603147781558 Os
atom 1.1006832022241149 7.3825435980404173 23.9091323793236761 Os
atom 13.2064348131955285 0.0000020960480577 26.1101935385366559 Os
atom 18.6041135550607386 8.1246469005850184 24.2410200376750566 O
atom 0.3320648043744543 9.1012829016694443 26.2150757734513782 O
atom 20.5781965560933280 6.6404346804245025 26.0052997958109131 O
atom 1.2056023929891957 6.6404347235031782 25.7783029173873395 O
atom 21.2419080635746553 8.1246452336624326 24.0140180208045813 O
atom 20.9100548254049201 4.9216889470436742 25.0096579892724087 Os
atom 13.2064303455404382 4.9216986560476705 26.1101948936135919 Os
atom 18.6041174279015387 3.2029465005850111 24.2410154358315886 O
atom 0.3320648401492375 4.1795837716693427 26.2150753709679272 O
atom 20.5782035952498816 1.7187433304255892 26.0053021973112735 O
atom 1.2056041415724350 1.7187417135030154 25.7782995677547682 O
atom 21.2419142395929086 3.2029477636631527 24.0140177792786922 O
atom 7.7038329540389014 7.3825436060481291 26.1101976283128074 Os
atom 4.4022573066659891 7.3825454470438396 25.0096615826389801 Os
atom 15.7393130218393171 9.1012834636630764 24.0140196878465950 O
atom 6.7081993756447460 5.6638008335029992 25.7783034103741819 O
atom 4.0704045496094361 5.6638011004255420 26.0053054406632320 O
atom 13.1015168631044823 9.1012847705853996 24.2410212664583078 O
atom 5.8346620106790379 8.1246457116699276 26.2150828181162900 O
atom 7.7038360442510632 2.4608431860479478 26.1101922662112216 Os
atom 4.4022600793946935 2.4608448670441989 25.0096622042573422 Os
atom 15.7393114655535573 4.1795847436630726 24.0140224069241661 O
atom 6.7082031546024687 0.7421057235034748 25.7783038978215195 O
atom 4.0704062535014778 0.7421066104258295 26.0053067867738434 O
atom 13.1015173908448137 4.1795840105858293 24.2410256267966737 O
atom 5.8346645866208657 3.2029471016700688 26.2150814585794905 O
atom 9.9048650824916784 0.0000033970450477 25.0096626849749804 Os
atom 12.1058820236226765 7.3825483180409526 23.9091357513036868 Os
atom 2.2012366134150536 0.0000032060474830 26.1101889054097747 Os
atom 7.5989196172737028 8.1246464405857246 24.2410228774603169 O
atom 11.3372630220535786 9.1012815816701735 26.2150819852421542 O
atom 9.5730019027739761 6.6404352104252613 26.0053041337661845 O
atom 12.2108004317582193 6.6404397235035235 25.7783053949451180 O
atom 10.2367098459170798 8.1246465236620296 24.0140151854764561 O
atom 9.9048616926059516 4.9216915470445501 25.0096614551512708 Os
atom 2.2012352494152974 4.9216896560473735 26.1101889546041939 Os
atom 7.5989202165219112 3.2029500005854676 24.2410200689638664 O
atom 11.3372645828192091 4.1795835816701619 26.2150804289377888 O
atom 9.5730070368014548 1.7187413404261085 26.0053066157773891 O
atom 12.2108079941202359 1.7187420935041422 25.7783022688827081 O
atom 10.2367195683692636 3.2029480236636703 24.0140196441429268 O
