#===============================================================================
# Created using the Atomic Simulation Environment (ASE)

# Mon Mar 23 14:01:08 2026

#=======================================================
lattice_vector 22.0103944943716279 0.0000000000000000 0.0000000000000000 
lattice_vector -0.0000025759486765 9.8433818399997932 0.0000000000000000 
lattice_vector 0.0000000000000000 0.0000000000000000 40.7783095864002689 
atom 12.1058117346950471 0.0000039730233354 17.9697061075256848 Os
atom 14.3068354376734153 7.3825427640197745 16.8691755692702685 Os
atom 11.0052604164372756 7.3825450350161441 15.7686454491725456 Os
atom 4.4021916553725644 0.0000031920272799 19.0702365630197654 Os
atom 9.7998695073073563 8.1246433465644863 17.2010668277027641 O
atom 13.3112047214849003 5.6638012814756102 16.5372874334181610 O
atom 11.7739550753554987 6.6404419264044741 18.9653482986492641 O
atom 14.4117538413528123 6.6404347194825890 18.7383477307242181 O
atom 10.6734062283009994 5.6638056683977238 16.7642900003865130 O
atom 19.7045179559272512 9.1012813185572021 15.0000026867466687 O
atom 12.4376652188078598 8.1246467696417977 16.9740620962375957 O
atom 12.1058090737768911 4.9217022330230957 17.9697065592194605 Os
atom 14.3068391003256927 2.4608403240197649 16.8691712178679509 Os
atom 11.0052700270915089 2.4608431450178445 15.7686506904638541 Os
atom 9.7998715689414286 3.2029533865643933 17.2010637463960627 O
atom 13.3112058529372970 0.7421030014757179 16.5372877241087117 O
atom 11.7739596369363451 1.7187431964050350 18.9653486072065185 O
atom 14.4117528529989158 1.7187424294822220 18.7383459731894426 O
atom 10.6734102532134543 0.7421043983980260 16.7642883635682978 O
atom 19.7045214441820100 4.1795829885574198 15.0000008934068347 O
atom 12.4376708582063085 3.2029559296430170 16.9740677132125874 O
atom 16.5078655894695281 0.0000002650168472 15.7686448789465672 Os
atom 6.6032125543270030 7.3825408830234309 17.9697068342389521 Os
atom 8.8042435737297282 0.0000003840208059 16.8691781027050673 Os
atom 14.2019223155949366 8.1246451885577677 15.0000046018434681 O
atom 17.9402680592802852 9.1012811896421937 16.9740603376197861 O
atom 8.9091568057155790 5.6638004194829961 18.7383499186300320 O
atom 16.1760053166275277 6.6404329683972518 16.7642843599793245 O
atom 18.8138056478950162 6.6404330114759276 16.5372874815557509 O
atom 6.2713579592012554 5.6637977064045701 18.9653473739499319 O
atom 15.3024688550276355 9.1012804765642183 17.2010629358981255 O
atom 16.5078635859391198 4.9216872350164236 15.7686425534408201 Os
atom 9.9047896819066565 2.4608415820267764 19.0702318605691907 Os
atom 6.6032234037239279 2.4608378130246988 17.9697059442240743 Os
atom 8.8042391060746361 4.9216969440204199 16.8691794577819998 Os
atom 14.2019261884357366 3.2029447885577600 15.0000000000000000 O
atom 17.9402680950550604 4.1795820596420921 16.9740599351363386 O
atom 8.9091599585694237 0.7421019994833086 18.7383495787365284 O
atom 16.1760123557840814 1.7187416183983379 16.7642867614796813 O
atom 18.8138073964782606 1.7187400014757641 16.5372841319231831 O
atom 6.2713611702052781 0.7421027764050862 18.9653490509890368 O
atom 15.3024710240140962 4.1795812765644413 17.2010629761425307 O
atom 1.1006199882522667 0.0000030630242938 17.9697085671654513 Os
atom 3.3016417145731016 7.3825418940208785 16.8691821924812189 Os
atom 0.0000660672001872 7.3825437350165890 15.7686461468073915 Os
atom 15.4073886610534299 0.0000040220271039 19.0702350737999460 Os
atom 20.8050678591146365 8.1246450065646947 17.2010674716831318 O
atom 2.3060081361789440 5.6637991214757486 16.5372879745425969 O
atom 0.7687572110280211 6.6404331664045770 18.9653501724790168 O
atom 3.4065575601825091 6.6404336894832321 18.7383530615042133 O
atom 21.6786078045152664 5.6637993883982913 16.7642900048316399 O
atom 8.6993256236386802 9.1012830585581490 15.0000058306267228 O
atom 1.4324707712132372 8.1246439996426769 16.9740673822847050 O
atom 1.1006152790980070 4.9216867730237901 17.9697090591229340 Os
atom 3.3016448047852616 2.4608414740206968 16.8691768303796330 Os
atom 0.0000688399288945 2.4608431550169478 15.7686467684257572 Os
atom 15.4073859822383099 4.9216896720267078 19.0702339468310704 Os
atom 20.8050706184082586 3.2029474065647729 17.2010652266621449 O
atom 2.3060119151366654 0.7421040114762236 16.5372884619899310 O
atom 0.7687670139693886 1.7187403264060956 18.9653532939757774 O
atom 3.4065606861857827 1.7187429294832881 18.7383500964663305 O
atom 21.6786095084073054 0.7421048983985783 16.7642913509422549 O
atom 8.6993261513790134 4.1795822985585787 15.0000101909650851 O
atom 1.4324733471550635 3.2029453896428177 16.9740660227479019 O
atom 5.5026738430258755 0.0000016850177965 15.7686472491433918 Os
atom 17.6084072612988649 7.3825434130224838 17.9697005017103990 Os
atom 19.8094398683208759 0.0000014940202318 16.8691734695781896 Os
atom 3.1967283778079039 8.1246447285584740 15.0000074416287283 O
atom 6.9350717825877792 9.1012798696429211 16.9740665494105656 O
atom 19.9143560474546994 5.6638013794829662 18.7383469088697154 O
atom 5.1708106633081750 6.6404334983980107 16.7642886979346031 O
atom 7.8086091922924208 6.6404380114762729 16.5372899591135329 O
atom 17.2765567358745500 5.6638018164050372 18.9653501198312462 O
atom 4.2972754449494621 9.1012805765649478 17.2010652882171478 O
atom 5.5026704531401531 4.9216898350172986 15.7686460193196822 Os
atom 20.9099924209007497 2.4608401520278784 19.0702358004860670 Os
atom 17.6084168898463069 2.4608424330242582 17.9697064943203415 Os
atom 19.8094385043211254 4.9216879440201229 16.8691735187726053 Os
atom 3.1967289770561131 3.2029482885582161 15.0000046331322778 O
atom 6.9350733433534053 4.1795818696429112 16.9740649931062002 O
atom 19.9143580151938444 0.7421026294831419 18.7383467702299242 O
atom 5.1708157973356519 1.7187396283988572 16.7642911799458041 O
atom 7.8086167546544338 1.7187403814768909 16.5372868330511196 O
atom 17.2765612572092202 0.7421041964056401 18.9653509292678812 O
atom 4.2972760084378043 4.1795830965649454 17.2010651585304650 O
atom 3.3017101072421373 0.0000048290369610 22.3718270441195237 Os
atom 5.5027338102205068 7.3825436200333998 21.2712965058641075 Os
atom 2.2011587889843613 7.3825458910297685 20.1707663857663881 Os
atom 17.6084845222912811 0.0000040480409055 23.4723574996136009 Os
atom 0.9957678798544392 8.1246442025781125 21.6031877642966030 O
atom 13.5382141463862844 9.1012847576489513 19.1751244238941609 O
atom 4.5071030940319892 5.6638021374892356 20.9394083700119999 O
atom 2.9698534479025840 6.6404427824181003 23.3674692352431030 O
atom 5.6076522138998977 6.6404355754962143 23.1404686673180571 O
atom 1.8693046008480889 5.6638065244113500 21.1664109369803519 O
atom 10.9004163284743409 9.1012821745708283 19.4021236233405077 O
atom 3.6335635913549433 8.1246476256554256 21.3761830328314382 O
atom 3.3017074463239751 4.9217030890367210 22.3718274958132994 Os
atom 5.5027374728727816 2.4608411800333903 21.2712921544617934 Os
atom 2.2011683996385947 2.4608440010314698 20.1707716270576931 Os
atom 4.4021884891164547 4.9216871320271514 19.0702388214610785 Os
atom 0.9957699414885147 3.2029542425780186 21.6031846829899017 O
atom 13.5382136678402762 4.1795848576484005 19.1751200635737469 O
atom 4.5071042254843867 0.7421038574893435 20.9394086607025507 O
atom 2.9698580094834286 1.7187440524186608 23.3674695438003575 O
atom 5.6076512255460038 1.7187432854958478 23.1404669097832816 O
atom 1.8693086257605434 0.7421052544116516 21.1664093001621367 O
atom 10.9004198167290962 4.1795838445710451 19.4021218300006737 O
atom 3.6335692307533924 3.2029567856566423 21.3761886498064264 O
atom 7.7037639620166178 0.0000011210304720 20.1707658155404097 Os
atom 9.9047848296770287 7.3825427420267937 19.0702378800859300 Os
atom 19.8095054212457171 7.3825417390370580 22.3718277708327911 Os
atom 0.0001419462768180 0.0000012400344329 21.2712990392989063 Os
atom 5.3978206881420228 8.1246460445713939 19.4021255384373070 O
atom 9.1361664318273714 9.1012820456558199 21.3761812742136250 O
atom 0.1050551782626636 5.6638012754966223 23.1404708552238709 O
atom 7.3719036891746175 6.6404338244108763 21.1664052965731635 O
atom 10.0097040204421077 6.6404338674895529 20.9394084181495899 O
atom 19.4776508261199695 5.6637985624181955 23.3674683105437744 O
atom 6.4983672275747209 9.1012813325778446 21.6031838724919645 O
atom 8.0356151966559395 8.1246443776488064 19.1751235215668352 O
atom 7.7037619584862060 4.9216880910300498 20.1707634900346591 Os
atom 1.1006880544537463 2.4608424380404017 23.4723527971630332 Os
atom 19.8095162706426429 2.4608386690383242 22.3718268808179133 Os
atom 0.0001374786217239 4.9216978000340452 21.2713003943758459 Os
atom 5.3978245609828273 3.2029456445713853 19.4021209365938390 O
atom 9.1361664676021466 4.1795829156557174 21.3761808717301776 O
atom 0.1050583311165125 0.7421028554969342 23.1404705153303674 O
atom 7.3719107283311676 1.7187424744119635 21.1664076980735238 O
atom 10.0097057690253468 1.7187408574893894 20.9394050685170221 O
atom 19.4776540371239975 0.7421036324187118 23.3674699875828757 O
atom 6.4983693965611851 4.1795821325780667 21.6031839127363732 O
atom 8.0356213726741927 3.2029469076495269 19.1751232800409461 O
atom 14.3069128551709834 0.0000039190379194 22.3718295037592938 Os
atom 16.5079345814918170 7.3825427500345047 21.2713031290750543 Os
atom 13.2063589341189029 7.3825445910302152 20.1707670834012305 Os
atom 6.6032870336005232 0.0000048780407295 23.4723560103937849 Os
atom 12.0009662316617263 8.1246458625783209 21.6031884082769707 O
atom 2.5330201549206031 9.1012826076494520 19.1751251886088454 O
atom 15.5123010030976616 5.6637999774893757 20.9394089111364359 O
atom 13.9750500779467348 6.6404340224182032 23.3674711090728557 O
atom 16.6128504271012254 6.6404345454968592 23.1404739980980523 O
atom 12.8745061770623526 5.6638002444119184 21.1664109414254789 O
atom 21.9056184905573943 9.1012839145717752 19.4021267672205617 O
atom 14.6387636381319517 8.1246448556563031 21.3761883188785440 O
atom 14.3069081460167222 4.9216876290374154 22.3718299957167766 Os
atom 16.5079376717039779 2.4608423300343221 21.2712977669734720 Os
atom 13.2063617068476091 2.4608440110305732 20.1707677050195961 Os
atom 6.6032843547853979 4.9216905280403340 23.4723548834249094 Os
atom 12.0009689909553430 3.2029482625783983 21.6031861632559874 O
atom 2.5330185986348432 4.1795838876494473 19.1751279076864130 O
atom 15.5123047820553825 0.7421048674898493 20.9394093985837735 O
atom 13.9750598808881019 1.7187411824197214 23.3674742305696164 O
atom 16.6128535531045003 1.7187437854969139 23.1404710330601695 O
atom 12.8745078809543916 0.7421057544122039 21.1664122875360938 O
atom 21.9056190182977275 4.1795831545722049 19.4021311275589206 O
atom 14.6387662140737760 3.2029462456564435 21.3761869593417444 O
atom 18.7089667099445940 0.0000025410314221 20.1707681857372272 Os
atom 20.9099836510755885 7.3825474620273281 19.0702412520659372 Os
atom 8.8043056338459529 7.3825442690361092 22.3718214383042380 Os
atom 11.0053382408679656 0.0000023500338574 21.2712944061720286 Os
atom 16.4030212447266202 8.1246455845721002 19.4021283782225673 O
atom 20.1413646495064960 9.1012807256565473 21.3761874860044045 O
atom 11.1102544200017874 5.6638022354965907 23.1404678454635579 O
atom 18.3771035302268899 6.6404343544116369 21.1664096345284385 O
atom 21.0149020592111349 6.6404388674898982 20.9394108957073719 O
atom 8.4724551084216362 5.6638026724186643 23.3674710564250923 O
atom 17.5035683118681789 9.1012814325785758 21.6031862248109867 O
atom 19.0408114733699918 8.1246456676484051 19.1751206862387029 O
atom 18.7089633200588672 4.9216906910309248 20.1707669559135248 Os
atom 12.1058907934478341 2.4608410080415037 23.4723567370799095 Os
atom 8.8043152623933914 2.4608432890378835 22.3718274309141840 Os
atom 11.0053368768682116 4.9216888000337482 21.2712944553664443 Os
atom 16.4030218439748268 3.2029491445718414 19.4021255697261203 O
atom 20.1413662102721176 4.1795827256565374 21.3761859297000392 O
atom 11.1102563877409288 0.7421034854967675 23.1404677068237667 O
atom 18.3771086642543686 1.7187404844124829 21.1664121165396431 O
atom 21.0149096215731461 1.7187412374905167 20.9394077696449621 O
atom 8.4724596297563117 0.7421050524192657 23.3674718658617202 O
atom 17.5035688753565175 4.1795839525785716 21.6031860951243075 O
atom 19.0408211958221791 3.2029471676500445 19.1751251449051772 O
atom 18.7090266771392137 7.3825444760470260 25.6734174424579464 Os
atom 15.4074516559030741 7.3825467470433939 24.5728873223602271 Os
atom 4.7341125189333706 9.1012856136625775 23.5772453604880035 O
atom 17.7133959609507023 5.6638029935028609 25.3415293066058389 O
atom 15.0755974677668014 5.6638073804249744 25.5685318735741909 O
atom 2.0963147010214271 9.1012830305844528 23.8042445599343502 O
atom 16.8398564582736618 8.1246484816690501 25.7783039694252771 O
atom 18.7090303397914930 2.4608420360470160 25.6734130910556324 Os
atom 15.4074612665573092 2.4608448570450956 24.5728925636515321 Os
atom 17.6084813560351634 4.9216879880407758 23.4723597580549246 Os
atom 4.7341120403873616 4.1795857136620249 23.5772410001675858 O
atom 17.7133970924030990 0.7421047135029690 25.3415295972963932 O
atom 15.0756014926792563 0.7421061104252773 25.5685302367559792 O
atom 2.0963181892761846 4.1795847005846705 23.8042427665945162 O
atom 16.8398620976721105 3.2029576416702676 25.7783095864002654 O
atom 20.9100568289353248 0.0000019770440968 24.5728867521342487 Os
atom 1.1006832022241149 7.3825435980404173 23.4723588166797690 Os
atom 13.2064348131955285 0.0000020960480577 25.6734199758927488 Os
atom 18.6041135550607386 8.1246469005850184 23.8042464750311495 O
atom 0.3320648043744543 9.1012829016694443 25.7783022108074711 O
atom 20.5781965560933280 6.6404346804245025 25.5685262331670060 O
atom 1.2056023929891957 6.6404347235031782 25.3415293547434324 O
atom 21.2419080635746553 8.1246452336624326 23.5772444581606742 O
atom 20.9100548254049201 4.9216889470436742 24.5728844266285016 Os
atom 13.2064303455404382 4.9216986560476705 25.6734213309696848 Os
atom 18.6041174279015387 3.2029465005850111 23.8042418731876815 O
atom 0.3320648401492375 4.1795837716693427 25.7783018083240201 O
atom 20.5782035952498816 1.7187433304255892 25.5685286346673664 O
atom 1.2056041415724350 1.7187417135030154 25.3415260051108611 O
atom 21.2419142395929086 3.2029477636631527 23.5772442166347851 O
atom 7.7038329540389014 7.3825436060481291 25.6734240656689003 Os
atom 4.4022573066659891 7.3825454470438396 24.5728880199950730 Os
atom 15.7393130218393171 9.1012834636630764 23.5772461252026879 O
atom 6.7081993756447460 5.6638008335029992 25.3415298477302748 O
atom 4.0704045496094361 5.6638011004255420 25.5685318780193249 O
atom 13.1015168631044823 9.1012847705853996 23.8042477038144007 O
atom 5.8346620106790379 8.1246457116699276 25.7783092554723829 O
atom 7.7038360442510632 2.4608431860479478 25.6734187035673145 Os
atom 4.4022600793946935 2.4608448670441989 24.5728886416134351 Os
atom 15.7393114655535573 4.1795847436630726 23.5772488442802590 O
atom 6.7082031546024687 0.7421057235034748 25.3415303351776124 O
atom 4.0704062535014778 0.7421066104258295 25.5685332241299363 O
atom 13.1015173908448137 4.1795840105858293 23.8042520641527666 O
atom 5.8346645866208657 3.2029471016700688 25.7783078959355834 O
atom 9.9048650824916784 0.0000033970450477 24.5728891223310733 Os
atom 12.1058820236226765 7.3825483180409526 23.4723621886597797 Os
atom 2.2012366134150536 0.0000032060474830 25.6734153427658676 Os
atom 7.5989196172737028 8.1246464405857246 23.8042493148164098 O
atom 11.3372630220535786 9.1012815816701735 25.7783084225982471 O
atom 9.5730019027739761 6.6404352104252613 25.5685305711222775 O
atom 12.2108004317582193 6.6404397235035235 25.3415318323012109 O
atom 10.2367098459170798 8.1246465236620296 23.5772416228325490 O
atom 9.9048616926059516 4.9216915470445501 24.5728878925073637 Os
atom 2.2012352494152974 4.9216896560473735 25.6734153919602868 Os
atom 7.5989202165219112 3.2029500005854676 23.8042465063199593 O
atom 11.3372645828192091 4.1795835816701619 25.7783068662938817 O
atom 9.5730070368014548 1.7187413404261085 25.5685330531334820 O
atom 12.2108079941202359 1.7187420935041422 25.3415287062388010 O
atom 10.2367195683692636 3.2029480236636703 23.5772460814990197 O
