#===============================================================================
# Created using the Atomic Simulation Environment (ASE)

# Mon Mar 23 14:01:12 2026

#=======================================================
lattice_vector 12.7627089219227017 0.0000000000000000 0.0000000000000000 
lattice_vector 0.0000000000000000 6.4266484300000002 0.0000000000000000 
lattice_vector 0.0000000000000000 0.0000000000000000 45.2084253059350303 
atom 12.7626994891496448 0.0000009300000002 19.4135474026375618 Os
atom 6.3813542470825357 4.8199861600000009 16.2228876925006418 Os
atom 6.3813655241022955 0.0000004699999996 15.0000057417089891 O
atom 8.3491296270223891 4.8199951400000005 16.2228706684586932 O
atom 4.4135635158758841 4.8199914100000001 16.2228686894429615 O
atom 6.3813568859279934 6.4266481300000002 17.4457633217659449 O
atom 12.7626910745787754 3.2133248900000004 19.4135476996174106 Os
atom 6.3813549046911175 1.6066619700000002 16.2228889157957639 Os
atom 6.3813622855566496 3.2133238900000007 15.0000000000000000 O
atom 8.3491305109052192 1.6066544500000004 16.2228717503325903 O
atom 4.4135634027387791 1.6066583500000000 16.2228687318693012 O
atom 6.3813628397645781 3.2133243900000004 17.4457675502680374 O
atom 3.1906595528329111 0.0000005599999998 16.2228863825749485 Os
atom 3.1906109078666782 6.4266470900000003 18.1906641454256075 O
atom 3.1906673592921888 3.2133253899999996 16.2228856896149409 Os
atom 3.1906198244820505 3.2133247400000005 18.1906660616902869 O
atom 9.5720218237905446 0.0000005700000003 16.2228832112056764 Os
atom 9.5720459909426729 4.8199867100000002 19.4135434340148656 Os
atom 9.5720747759273692 6.4266482800000002 18.1906597437509348 O
atom 11.5398101915174820 4.8199931099999995 19.4135379004514625 O
atom 7.6042451198188958 4.8199821700000003 19.4135343304460974 O
atom 9.5720187266616925 3.2133253500000003 16.2228851486764150 Os
atom 9.5720444706634016 1.6066605299999999 19.4135429178260139 Os
atom 9.5720672735210339 3.2133238300000007 18.1906654359560633 O
atom 11.5398094914816269 1.6066563900000004 19.4135381479384250 O
atom 7.6042430692095406 1.6066647400000000 19.4135338071858570 O
atom 12.7626842103339389 4.8199878099999998 16.2228801441211878 Os
atom 12.7626857151353192 6.4266468900000007 15.0000026763807170 O
atom 1.9677653620084550 4.8199830199999996 16.2228993663815757 O
atom 10.7949096789204209 4.8199895200000000 16.2229002087228054 O
atom 12.7626769496791876 6.4266479000000016 17.4457646404996396 O
atom 6.3813409658591915 3.2133245600000002 19.4135484951151298 Os
atom 12.7626837577862826 1.6066596000000004 16.2228789986079320 Os
atom 12.7626842867790877 3.2133249800000008 15.0000035673344101 O
atom 1.9677657226332019 1.6066667099999996 16.2228988784781123 O
atom 10.7949089647422927 1.6066600400000002 16.2229006824839210 O
atom 12.7626676653671467 3.2133242500000003 17.4457646475651913 O
atom 6.3813374409477408 0.0000009300000002 25.7948762804710654 Os
atom 12.7627011208033352 4.8199861600000009 22.6042165703341418 Os
atom 0.0000034759003882 0.0000004699999996 21.3813346195424856 O
atom 1.9677675788204840 4.8199951400000005 22.6041995462921861 O
atom 10.7949103895966836 4.8199914100000001 22.6041975672764615 O
atom 12.7627037596487956 6.4266481300000002 23.8270921995994414 O
atom 6.3813290263768749 3.2133248900000004 25.7948765774509141 Os
atom 12.7627017784119143 1.6066619700000002 22.6042177936292603 Os
atom 0.0000002373547510 3.2133238900000007 21.3813288778335000 O
atom 1.9677684627033181 1.6066544500000004 22.6042006281660903 O
atom 10.7949102764595768 1.6066583500000000 22.6041976097028012 O
atom 0.0000007915626736 3.2133243900000004 23.8270964281015338 O
atom 9.5720064265537133 0.0000005599999998 22.6042152604084485 Os
atom 3.1906349861801035 4.8199877100000004 19.4135559815910810 Os
atom 9.5719577815874786 6.4266470900000003 24.5719930232591039 O
atom 5.1584360623671328 4.8199773400000003 19.4135612455701505 O
atom 1.2228708845996841 4.8199843800000002 19.4135624626776320 O
atom 3.1906032879147399 6.4266470200000008 20.6364409022190785 O
atom 9.5720142330129878 3.2133253899999996 22.6042145674484374 Os
atom 3.1906361529061025 1.6066594300000006 19.4135562997898248 Os
atom 9.5719666982028482 3.2133247400000005 24.5719949395237833 O
atom 5.1584378937738435 1.6066696400000005 19.4135609980838666 O
atom 1.2228713442188146 1.6066651900000002 19.4135629222973094 O
atom 3.1906037333972193 3.2133248699999997 20.6364321411663241 O
atom 3.1906597755886423 0.0000005700000003 22.6042120890391764 Os
atom 3.1906839427407676 4.8199867100000002 25.7948723118483585 Os
atom 3.1907127277254639 6.4266482800000002 24.5719886215844312 O
atom 5.1584481433155798 4.8199931099999995 25.7948667782849554 O
atom 1.2228830716169912 4.8199821700000003 25.7948632082795939 O
atom 9.5720644689716430 0.0000001500000003 20.6364331629987987 O
atom 3.1906566784597912 3.2133253500000003 22.6042140265099150 Os
atom 3.1906824224615029 1.6066605299999999 25.7948717956595104 Os
atom 3.1907052253191273 3.2133238300000007 24.5719943137895669 O
atom 5.1584474432797185 1.6066563900000004 25.7948670257719215 O
atom 1.2228810210076335 1.6066647400000000 25.7948626850193605 O
atom 9.5720674953870795 3.2133234700000002 20.6364358358642335 O
atom 6.3813399546959984 6.4266466000000007 19.4135493224294606 Os
atom 6.3813221621320375 4.8199878099999998 22.6042090219546843 Os
atom 6.3813236669334135 6.4266468900000007 21.3813315542142135 O
atom 8.3491122357292529 4.8199830199999996 22.6042282442150722 O
atom 4.4135476307185213 4.8199895200000000 22.6042290865562983 O
atom 6.3813149014772872 6.4266479000000016 23.8270935183331360 O
atom 12.7626878395799892 3.2133245600000002 25.7948773729486263 Os
atom 6.3813217095843795 1.6066596000000004 22.6042078764414320 Os
atom 6.3813222385771846 3.2133249800000008 21.3813324451679101 O
atom 8.3491125963539989 1.6066667099999996 22.6042277563116123 O
atom 4.4135469165403896 1.6066600400000002 22.6042295603174210 O
atom 6.3813056171652454 3.2133242500000003 23.8270935253986877 O
atom 6.3813390726014312 4.8199861600000009 28.9855454481676418 Os
atom 6.3813503496211910 0.0000004699999996 27.7626634973759892 O
atom 8.3491144525412810 4.8199951400000005 28.9855284241256896 O
atom 4.4135483413947849 4.8199914100000001 28.9855264451099615 O
atom 6.3813417114468916 6.4266481300000002 30.2084210774329378 O
atom 6.3813397302100157 1.6066619700000002 28.9855466714627568 Os
atom 6.3813471110755478 3.2133238900000007 27.7626577556670000 O
atom 8.3491153364241146 1.6066544500000004 28.9855295059995868 O
atom 4.4135482282576746 1.6066583500000000 28.9855264875363048 O
atom 6.3813476652834709 3.2133243900000004 30.2084253059350303 O
atom 3.1906443783518124 0.0000005599999998 28.9855441382419485 Os
atom 9.5719818599009034 4.8199877100000004 25.7948848594245774 Os
atom 11.5397829360879332 4.8199773400000003 25.7948901234036470 O
atom 7.6042177583204813 4.8199843800000002 25.7948913405111284 O
atom 9.5719501616355362 6.4266470200000008 27.0177697800525749 O
atom 3.1906521848110896 3.2133253899999996 28.9855434452819480 Os
atom 9.5719830266268993 1.6066594300000006 25.7948851776233283 Os
atom 11.5397847674946430 1.6066696400000005 25.7948898759173701 O
atom 7.6042182179396178 1.6066651900000002 25.7948918001308130 O
atom 9.5719506071180174 3.2133248699999997 27.0177610189998276 O
atom 9.5720066493094418 0.0000005700000003 28.9855409668726764 Os
atom 3.1907024207697434 0.0000001500000003 27.0177620408323023 O
atom 9.5720035521805933 3.2133253500000003 28.9855429043434114 Os
atom 3.1907054471851808 3.2133234700000002 27.0177647136977299 O
atom 12.7626868284167951 6.4266466000000007 25.7948782002629642 Os
atom 12.7626690358528414 4.8199878099999998 28.9855378997881843 Os
atom 12.7626705406542111 6.4266468900000007 27.7626604320477171 O
atom 1.9677501875273533 4.8199830199999996 28.9855571220485757 O
atom 10.7948945044393216 4.8199895200000000 28.9855579643898054 O
atom 12.7626617751980849 6.4266479000000016 30.2084223961666396 O
atom 12.7626685833051798 1.6066596000000004 28.9855367542749320 Os
atom 12.7626691122979814 3.2133249800000008 27.7626613230014101 O
atom 1.9677505481520972 1.6066667099999996 28.9855566341451123 O
atom 10.7948937902611899 1.6066600400000002 28.9855584381509246 O
atom 12.7626524908860457 3.2133242500000003 30.2084224032321842 O
