#===============================================================================
# Created using the Atomic Simulation Environment (ASE)

# Mon Mar 23 14:01:10 2026

#=======================================================
lattice_vector 11.0790232517419795 0.0000000000000000 0.0000000000000000 
lattice_vector 3.7278993459126002 10.4330108955597858 0.0000000000000000 
lattice_vector 0.0000000000000000 0.0000000000000000 32.2641348724936421 
atom 4.5289282922542631 3.1911030222888259 17.2641243762117753 Os
atom 4.7565581630527145 3.3514777670615787 15.2643068822981860 O
atom 5.6623320282092360 1.5825210637761866 17.2641059685662839 O
atom 3.3955032176562474 4.7996887247581341 17.2641071924074367 O
atom 6.1652674912543644 4.3440682252791003 16.9998276546816527 O
atom 1.7591698086880263 1.2395369989519684 16.1320659508424598 Os
atom 6.3928937985552734 4.5044566780369841 15.0000158457683952 Os
atom 7.5262880121708173 2.8958677332602498 15.0000089636756400 O
atom 5.2594624546068305 6.1130389059609973 15.0000040738195644 O
atom 3.6231191257578175 6.4560466291220866 16.1320682471670835 Os
atom 8.2568234665795490 9.7209956098517072 15.0000166352973352 Os
atom 9.3902436162749225 8.1123937822633359 15.0000276773454786 O
atom 3.3955240857261031 0.8965554837234557 15.0000235806237470 O
atom 6.3928575554442428 8.4076394371466971 17.2641291061769024 Os
atom 6.6204682433726614 8.5680344353814224 15.2643039207306366 O
atom 7.5262897000743285 6.7990452481130701 17.2641252461371977 O
atom 5.2594624675454256 10.0162145572799020 17.2641297470390143 O
atom 8.0291786963995087 9.5606348033036586 16.9998300901985715 O
atom 7.2986837562561568 1.2395335140004391 16.1320659897036407 Os
atom 11.9324101805895051 4.5044384387292160 15.0000084360829575 Os
atom 1.9867893473906468 2.8958692276895257 15.0000000000000000 O
atom 10.7989792885723350 6.1130324463984920 15.0000051750365202 O
atom 10.0684434593419372 3.1910849822324754 17.2641188352167134 Os
atom 10.2960828677096661 3.3514523476339999 15.2643041178932286 O
atom 11.2018406762216127 1.5825111026842547 17.2641183675291714 O
atom 8.9350173334334180 4.7996829968662089 17.2641094038992904 O
atom 11.7048049210044987 4.3440409334889445 16.9998336984127931 O
atom 11.9323720901609196 8.4076261069433542 17.2641178572582632 Os
atom 12.1599967914039819 8.5680091635962796 15.2643061233746131 O
atom 13.0657971790768883 6.7990412190165532 17.2641348724936421 O
atom 10.7989767952410194 10.0162129750262601 17.2641308903203452 O
atom 13.5687096039692747 9.5606022326085363 16.9998287525189014 O
atom 9.1626338811084516 6.4560390769119431 16.1320667478492190 Os
atom 13.7963332607400098 9.7209780657865306 15.0000104783915660 Os
atom 3.8507428479361718 8.1123976437891709 15.0000195755255064 O
atom 8.9350386651934421 0.8965543902709572 15.0000255553402440 O
