#===============================================================================
# Created using the Atomic Simulation Environment (ASE)

# Mon Mar 23 14:01:09 2026

#=======================================================
lattice_vector 22.0103944943716279 0.0000000000000000 0.0000000000000000 
lattice_vector -8.8041042034015895 10.7828962547440934 0.0000000000000000 
lattice_vector 0.0000000000000000 0.0000000000000000 30.4144395716922773 
atom -5.5023915202107831 6.7393824334273411 15.2072177874946419 Os
atom -3.3013652412837344 4.0436606418733518 15.2072164382274053 Os
atom 14.2020633227218358 4.8565967291035008 15.2072272107259288 O
atom 16.8398590342223322 4.7639250977698415 15.0000000000000000 O
atom -5.8342436179694861 8.7148393162876268 15.4144341216031364 O
atom -3.1964504019069149 8.6221647163123531 15.2072105361436059 O
atom -1.4321953623296282 3.3233889888988473 15.4144309658715812 O
atom 1.2056049689378689 3.2307174780725840 15.2072123038374194 O
atom -1.1003370930180285 1.3479264462311280 15.2072179222212185 Os
atom -7.7034135729991702 9.4350973054041827 15.2072169893671472 Os
atom 9.8000158004486178 10.2480356784531779 15.2072243488998851 O
atom 12.4378126121399930 10.1553649636562984 15.0000044784696129 O
atom 5.5028112277180661 6.7393826068652443 15.2072204043334480 Os
atom 7.7038355299875807 4.0436625516054878 15.2072228395354401 Os
atom 3.1968671801574868 4.8565985073731124 15.2072271209006686 O
atom 5.8346645866277180 4.7639247271511627 15.0000059563269659 O
atom 5.1709582534351872 8.7148386097267316 15.4144395716922809 O
atom 7.8087519256515883 8.6221668560774791 15.2072140960338551 O
atom 9.5730044787226483 3.3233912436923188 15.4144347094879066 O
atom 12.2108030077068914 3.2307230538867695 15.2072125242738529 O
atom 9.9048642685546273 1.3479302346401583 15.2072200246669098 Os
atom 3.3017891659949141 9.4350976084734217 15.2072211697966608 Os
atom -1.2051814109310020 10.2480407649764285 15.2072271494710911 O
atom 1.4326179409163549 10.1553659623344110 15.0000060747029593 O
