#===============================================================================
# Created using the Atomic Simulation Environment (ASE)

# Mon Mar 23 14:01:08 2026

#=======================================================
lattice_vector 13.9206623415420374 0.0000000000000000 0.0000000000000000 
lattice_vector -6.9602220783261259 12.0556381450883503 0.0000000000000000 
lattice_vector 0.0000000000000000 0.0000000000000000 49.0339012780122800 
atom 0.0000519582107976 2.0092791449466785 15.9923242859894081 Os
atom -5.2201144803287640 11.0510096888581106 15.9923224759942570 Os
atom 5.2203805999898698 11.0510121097774778 15.9923215955445066 Os
atom 6.9604424128056603 4.0185544768215804 18.8338656829257438 Os
atom 11.4900426781136176 0.6059387307686540 16.9846502577679068 O
atom 1.7401384389461174 1.8020697147611020 16.9846420949821351 O
atom 7.6510572802661736 9.6476586082185189 16.9846318060554893 O
atom 0.0000787082881898 0.0000117228123515 18.6984514950966343 O
atom -4.5294932870964466 11.4497138206564699 17.8415423582952144 O
atom 5.2204080882939152 10.2535933980560188 17.8415440489963402 O
atom -0.6905111773167197 2.4079968458634027 17.8415555792338623 O
atom 0.0000262051318846 0.0000096400887448 16.1277325473380806 O
atom 6.9604919810107511 10.0463814530730513 18.8338624238109595 Os
atom 8.7005496572208507 7.0324551377893378 18.8338668145565933 Os
atom 6.9604404258639070 8.0370926857179956 15.9923302759840258 Os
atom 0.0000809922437483 4.0185472454141422 15.8569137267660576 O
atom 2.4307251566992387 3.4126163380401207 15.0000007044327823 O
atom 12.1806313262626986 2.2164877341248466 15.0000063788246738 O
atom -0.6905105762885249 6.4265317397694055 15.0000162289749959 O
atom 10.4406068243890076 4.0185522396267830 18.8338664767915276 Os
atom 12.1806605974402249 1.0046488924062258 18.8338657810918626 Os
atom 8.7004956484424625 1.0046469328116030 18.8338658590312562 Os
atom 10.4405542156625106 2.0092766872686321 15.9923266559777790 Os
atom -3.4800348906195708 10.0463643624699284 15.8569122083679037 O
atom -1.0493821560043888 9.4404359698680089 15.0000013394932665 O
atom 8.7005196436217478 8.2443076435794822 15.0000041675768152 O
atom 2.7896004982424336 0.3987186317311527 15.0000140292663353 O
atom -3.4800578506149806 8.0370901994896364 15.9923254695546362 Os
atom -1.7400011855351498 5.0231789118265260 15.9923244389780379 Os
atom 8.7005035185170918 5.0231771073354814 15.9923280444795068 Os
atom 8.0099339723439922 6.6337475970937341 16.9846483120888720 O
atom -1.7399721194183262 7.8298769807644764 16.9846450567935925 O
atom 11.1311733681731546 3.6198324076397128 16.9846369502179364 O
atom -3.4800277559142954 6.0278219485973414 18.6984545030673175 O
atom -1.0493818590516706 5.4218900165122861 17.8415415038173641 O
atom 8.7005229175285095 4.2257626087719720 17.8415489564564353 O
atom -4.1706198123237250 8.4358075493098266 17.8415602846282617 O
atom -3.4800792196113606 6.0278204170052003 16.1277370448652775 O
atom 1.7401643574614627 1.0046495006925502 18.8338638094369095 Os
atom 3.4802206619182927 2.0092776384951705 15.9923224413358227 Os
atom 3.4802979277507751 10.0463671099762717 15.8569164922942942 O
atom 5.9109506057955787 9.4404389786532139 15.0000051615396419 O
atom 1.7401911457330961 8.2443107380899026 15.0000048892450888 O
atom 9.7499357702498575 0.3987223467720667 15.0000140696515167 O
atom 3.4802749960454542 8.0370928245220004 15.9923307234293723 Os
atom 5.2203331813956817 5.0231818675320605 15.9923280647148225 Os
atom 1.7401650433627371 5.0231840108469710 15.9923278135828024 Os
atom -3.4800021730224509 10.0463687892020666 18.8338666413458924 Os
atom 1.0496024056339881 6.6337523572725177 16.9846512508012282 O
atom 5.2203600625756081 7.8298824961978228 16.9846504319143570 O
atom 4.1708404649894453 3.6198343386609881 16.9846354548908387 O
atom 3.4803079120950073 6.0278233692843095 18.6984594913432112 O
atom 5.9109523311032133 5.4218948215826179 17.8415439690800568 O
atom 1.7401928852193995 4.2257661564448572 17.8415495568909250 O
atom 2.7897152688018103 8.4358126564813318 17.8415649957774640 O
atom 3.4802514562132969 6.0278215764348939 16.1277405724779079 O
atom 6.9603917415332290 2.0092769485319830 15.9923244014043959 Os
atom 1.7402200280208013 11.0510157064235397 15.9923235902544416 Os
atom -1.7399518931126181 11.0510073945136664 15.9923184778648135 Os
atom 0.0001105561209560 4.0185519742617863 18.8338643434792594 Os
atom 4.5297168813487829 0.6059398330136930 16.9846486815656945 O
atom 8.7004742907737960 1.8020667508596446 16.9846456283370131 O
atom 0.6907304369688533 9.6476569017198788 16.9846299642808560 O
atom 6.9604120710924446 0.0000052969774654 18.6984562639996881 O
atom 2.4308404292745238 11.4497180092720718 17.8415418386605253 O
atom -1.7399193277525919 10.2535889685458308 17.8415451979016417 O
atom 6.2698259331535153 2.4079960456704645 17.8415564740883354 O
atom 6.9603566122139719 0.0000073947262596 16.1277320219558149 O
atom 0.0001095803204215 8.0370906934616144 15.9923253107708820 Os
atom 6.9604155854283318 4.0185458736866897 15.8569172254871322 O
atom 9.3910665522184633 3.4126138558437913 15.0000000000000000 O
atom 5.2203051547410233 2.2164875340610934 15.0000071870823799 O
atom 6.2698242856020077 6.4265330788086992 15.0000186769150474 O
atom 6.9604940598926621 6.0278326338095676 21.6754076283930885 Os
atom 8.7005496996792200 3.0139250326326499 21.6754058183979410 Os
atom 5.2203824384558200 3.0139274535520180 21.6754049379481870 Os
atom 0.0002221729454867 8.0371079656844699 24.5169490253294242 Os
atom 4.5298224382534382 4.6244922196315441 22.6677336001715872 O
atom 8.7005805406279766 5.8206232036239891 22.6677254373858190 O
atom 7.6510591187321220 1.6105739519930558 22.6677151484591661 O
atom 6.9605208099700491 4.0185652116752388 24.3815348375003182 O
atom 9.3911708929115392 3.4126291644310069 23.5246257006988984 O
atom 5.2204099267598645 2.2165087418305593 23.5246273914000241 O
atom 6.2699309243651395 6.4265503347262900 23.5246389216375391 O
atom 6.9604683068137492 4.0185631289516346 21.8108158897417646 O
atom 6.9604938194767030 2.0092967968475905 24.5169457662146399 Os
atom 1.7403294173606780 11.0510086266522300 24.5169501569602772 Os
atom 5.2203910722551345 7.0324621759612675 18.8338715112505000 Os
atom 6.9604422643298554 0.0000080294925320 21.6754136183877080 Os
atom 4.5298212785788250 8.6430335026276808 19.8261887881865455 O
atom -5.2200857748760052 9.8391561338763740 19.8261860294232264 O
atom 7.6510581429338851 5.6291104584883742 19.8261779921406180 O
atom 6.9605230939256071 8.0371007342770309 21.5399970691697362 O
atom 9.3911672583810990 7.4311698269030098 20.6830840468364663 O
atom 5.2204110864025219 6.2350412229877339 20.6830897212283560 O
atom 6.2699315253933330 10.4450852286322942 20.6830995713786798 O
atom 6.9604732919538836 8.0371078044674018 18.9692773996996351 O
atom 3.4803865845288313 8.0371057284896725 24.5169498191952115 Os
atom 5.2204403575800464 5.0232023812691136 24.5169491234955430 Os
atom 1.7402754085822847 5.0232004216744901 24.5169492014349331 Os
atom 3.4803339758023357 6.0278301761315163 21.6754099983814612 Os
atom 8.0099338945968235 2.6152160018322621 19.8261887419871528 O
atom -1.7399698849676162 3.8113413479146474 19.8261819763897051 O
atom 4.1709505473856296 11.6569348749851578 19.8261750360811533 O
atom 10.4406292893884114 2.0092797062444654 21.5399955507715859 O
atom 12.8712820240035963 1.4033513136425477 20.6830846818969505 O
atom 8.7005214820876962 0.2072229873540202 20.6830875099804992 O
atom 9.7500425999242939 4.4172721205940428 20.6830973716700193 O
atom 10.4405794803384389 2.0092844616673946 18.9692763835977800 O
atom 10.4406063293930078 0.0000055432641749 21.6754088119583201 Os
atom 5.2204409161467105 9.0417324006894138 21.6754077813817183 Os
atom 1.7402832786569127 9.0417305961983701 21.6754113868831908 Os
atom 3.4803304685762693 10.0463784320202301 18.8338669415520741 Os
atom 1.0497137324838151 10.6523010859566245 22.6677316544925560 O
atom 5.2204699822635323 11.8484304696273650 22.6677283991972729 O
atom 4.1709531283129788 7.6383858965026006 22.6677202926216168 O
atom 3.4804143457675671 10.0463754374602310 24.3815378454709943 O
atom 5.9110602426301906 9.4404435053751765 23.5246248462210445 O
atom 1.7403026776683364 8.2443160976348615 23.5246322988601193 O
atom 9.7500443676842590 0.3987228930843645 23.5246436270319421 O
atom 3.4803628820704975 10.0463739058680908 21.8108203872689579 O
atom 3.4802790053220516 4.0185554892683273 18.8338669675151422 Os
atom 5.2203340865307144 1.0046505621226709 18.8338688698841388 Os
atom 8.7006064591433283 5.0232029895554406 24.5169471518405899 Os
atom -3.4799995779418866 6.0278311273580591 21.6754057837395031 Os
atom 1.0496026389934434 2.6152169816301423 19.8261911841787040 O
atom 5.2203628202577619 3.8113445281637124 19.8261847592058551 O
atom -2.7893832114016472 11.6569337645614777 19.8261749725903265 O
atom 3.4802997662167230 2.0092824537508114 21.5399998346979764 O
atom 5.9109524442615253 1.4033543224277525 20.6830885039433241 O
atom 1.7401929841990464 0.2072260818644401 20.6830882316487710 O
atom 2.7897155303896772 4.4172758356349542 20.6830974120551971 O
atom 3.4802515834994789 2.0092865069783503 18.9692791894972714 O
atom 3.4802768345114030 0.0000081682965397 21.6754140658330527 Os
atom -1.7398870584644919 9.0417353563949501 21.6754114071185029 Os
atom -5.2200551964974355 9.0417374997098605 21.6754111559864882 Os
atom 10.4406620069855389 2.0092841329766062 24.5169499837495763 Os
atom -5.9106178342261897 10.6523058461354054 22.6677345932049050 O
atom -1.7398601772845661 11.8484359850607106 22.6677337743180374 O
atom -2.7893797748707336 7.6383878275238759 22.6677187972945191 O
atom -3.4799123277651711 10.0463768581471982 24.3815428337468916 O
atom -1.0492679087569623 9.4404483104455075 23.5246273114837372 O
atom 8.7006349869012567 8.2443196453077459 23.5246328992946090 O
atom 2.7897171072677631 0.3987280002558701 23.5246483381811444 O
atom -3.4799687836468833 10.0463750652977826 21.8108239148815883 O
atom 0.0001715016730497 6.0278304373948721 21.6754077438080763 Os
atom 1.7402218664867495 3.0139310501980776 21.6754069326581202 Os
atom -1.7399500546466689 3.0139227382882039 21.6754018202684939 Os
atom 6.9605526578028218 8.0371054631246750 24.5169476858829398 Os
atom -2.4305033585113902 4.6244933218765834 22.6677320239693785 O
atom 1.7402540509136173 5.8206202397225351 22.6677289707406970 O
atom 0.6907322754348029 1.6105722454944182 22.6677133066845400 O
atom 0.0001918312322664 4.0185587858403524 24.3815396064033685 O
atom 2.4308422677404731 3.4126333530466098 23.5246251810642093 O
atom 12.1807448522553887 2.2165043123203696 23.5246285403053221 O
atom -0.6903943067066621 6.4265495345333514 23.5246398164920159 O
atom 0.0001363723537941 4.0185608835891493 21.8108153643594989 O
atom 0.0001681994864844 10.0463702139673483 18.8338672619650964 Os
atom 1.7402263212067721 7.0324556439829173 18.8338685696496775 Os
atom -1.7399411662833606 7.0324586119565158 18.8338684455299088 Os
atom 0.0001114187863653 0.0000060372361535 21.6754086531745642 Os
atom -2.4305058192561297 8.6430297303968509 19.8261915421230768 O
atom 1.7402528983236094 9.8391558848136444 19.8261901112405710 O
atom 0.6907319572405609 5.6291079803973094 19.8261758732340496 O
atom 0.0001953455681540 8.0370993625495792 21.5400005678908144 O
atom 2.4308463123582875 7.4311673447066786 20.6830833424036840 O
atom -1.7399150851191556 6.2350410229239825 20.6830905294860621 O
atom -0.6903959542581680 10.4450865676715896 20.6831020193187314 O
atom 0.0001448647252403 8.0370979248476342 18.9692793453585082 O
atom 0.0002738200324765 10.0463861226724589 27.3584909707967725 Os
atom 1.7403294598190466 7.0324785214955403 27.3584891608016214 Os
atom -1.7398378014043598 7.0324809424149075 27.3584882803518710 Os
atom 0.0002240114114335 0.0000233094590080 30.2000323677331082 Os
atom -2.4303978016067376 8.6430457084944337 28.3508169425752712 O
atom 1.7403603007677977 9.8391766924868787 28.3508087797894994 O
atom 0.6908388788719464 5.6291274408559486 28.3507984908628572 O
atom 0.0003005701098695 8.0371187005381284 30.0646181799039987 O
atom 2.4309506530513629 7.4311826532938969 29.2077090431025752 O
atom -1.7398103131003144 6.2350622306934440 29.2077107338037010 O
atom -0.6902893154950412 10.4451038235891822 29.2077222640412266 O
atom 0.0002480669535693 8.0371166178145241 27.4938992321454450 O
atom 0.0002735796165257 6.0278502857104810 30.2000291086183239 Os
atom 1.7403312558266237 3.0139239704267693 30.2000334993639541 Os
atom -1.7398291676050448 11.0510156648241580 24.5169548536541839 Os
atom 0.0002220244696807 4.0185615183554244 27.3584969607913919 Os
atom 4.5298231170447760 0.6059488464022195 25.5092721305902295 O
atom 8.7005784051319814 1.8020714776509097 25.5092693718269103 O
atom 0.6908379030737043 9.6476639473512655 25.5092613345442984 O
atom 6.9605249323915599 0.0000160780515701 27.2230804115734202 O
atom 2.4309470185209219 11.4497233157658993 26.3661673892401467 O
atom -1.7398091534576596 10.2535947118506243 26.3661730636320399 O
atom 6.2699333638592876 2.4080005724068330 26.3661829137823602 O
atom 6.9604751304198338 0.0000231482419407 24.6523607421033155 O
atom 3.4803884229947832 0.0000210722642130 30.2000331615988955 Os
atom -1.7397798822801291 9.0417558701320058 30.2000324658992270 Os
atom -5.2199448312778900 9.0417539105373823 30.2000325438386206 Os
atom -3.4798862640578427 10.0463836649944085 27.3584933407851452 Os
atom 1.0497136547366464 6.6337694906951494 25.5092720843908296 O
atom 5.2204722167142430 7.8298948367775374 25.5092653187933891 O
atom 4.1709523858515789 3.6198502187596988 25.5092583784848301 O
atom 3.4804090495282285 6.0278331951073554 27.2230788931752699 O
atom 5.9110617841434197 5.4219048025054404 26.3661680243006344 O
atom 1.7403012422275237 4.2257764762169074 26.3661708523841796 O
atom 2.7898223600641185 8.4358256094569271 26.3661807140736961 O
atom 3.4803592404782608 6.0278379505302846 24.6523597260014640 O
atom 3.4803860895328325 4.0185590321270626 27.3584921543619970 Os
atom 5.2204427546126642 1.0046477444639541 27.3584911237853987 Os
atom 1.7402851171228668 1.0046459399729080 27.3584947292868712 Os
atom 3.4803323070422172 2.0092937757947693 24.5169502839557509 Os
atom 1.0497155709497639 2.6152164297311655 28.3508149968962364 O
atom 5.2204718207294825 3.8113458134019047 28.3508117416009569 O
atom -2.7892671115471979 11.6569393853654919 28.3508036350253008 O
atom 3.4804161842335155 2.0092907812347716 30.0646211878746819 O
atom 5.9110620810961425 1.4033588491497166 29.2077081886247285 O
atom 1.7403045161342776 0.2072314414093984 29.2077156412637926 O
atom 2.7898241278240796 4.4172763819472545 29.2077269694356225 O
atom 3.4803647205364512 2.0092892496426291 27.4939037296726383 O
atom -3.4799412345381247 8.0371089781312168 24.5169503099188262 Os
atom -1.7398861533294676 5.0232040509855560 24.5169522122878192 Os
atom 1.7403862192831538 9.0417564784183302 30.2000304942442703 Os
atom 3.4804425237399745 10.0463846162209478 27.3584891261431871 Os
atom 8.0100447406753066 6.6337704704930349 25.5092745265823844 O
atom -1.7398574196024148 7.8298980170266024 25.5092681016095355 O
atom 11.1312809686063456 3.6198491083360187 25.5092583149940069 O
atom -3.4799204736434515 6.0278359426136987 27.2230831771016568 O
atom -1.0492677955986511 5.4219078112906427 26.3661718463470081 O
atom 8.7006350858809078 4.2257795707273305 26.3661715740524514 O
atom -4.1705047094705039 8.4358293244978473 26.3661807544588811 O
atom -3.4799686563606955 6.0278399958412381 24.6523625319009518 O
atom 10.4407189361932602 4.0185616571594300 27.3584974082367367 Os
atom 12.1807771215434908 1.0046507001694855 27.3584947495221869 Os
atom 8.7006089835105467 1.0046528434843984 27.3584944983901650 Os
atom 3.4804417671253578 6.0278376218394936 30.2000333261532603 Os
atom 8.0100463457817952 2.6152211899099473 28.3508179356085925 O
atom -1.7398583388186186 3.8113513288352499 28.3508171167217142 O
atom 4.1710623268111275 11.6569413163867655 28.3508021396982031 O
atom 10.4407518522428209 2.0092922019217396 30.0646261761505791 O
atom 12.8713962712510224 1.4033636542200461 29.2077106538874212 O
atom 8.7006368253672033 0.2072349890822858 29.2077162416982894 O
atom 9.7501592089496203 4.4172814891187571 29.2077316805848248 O
atom 10.4406953963611056 2.0092904090723218 27.4939072572852723 O
atom 6.9606136033549131 10.0463839262577626 27.3584910862117603 Os
atom 8.7006639681686071 7.0324845390609676 27.3584902750618042 Os
atom 5.2204920470351892 7.0324762271510943 27.3584851626721743 Os
atom 6.9605544962687613 0.0000208068992137 30.2000310282866167 Os
atom 4.5299387431704625 8.6430468107394685 28.3508153663730553 O
atom -5.2199661889465601 9.8391737285854219 28.3508123131443774 O
atom 7.6511743771166643 5.6291257343573085 28.3507966490882168 O
atom 6.9606339329141260 8.0371122747032455 30.0646229488070453 O
atom 9.3912843694223369 7.4311868419094971 29.2077085234678933 O
atom 5.2205246123952129 6.2350578011832596 29.2077118827090061 O
atom 6.2700477949751932 10.4451030233962410 29.2077231588956998 O
atom 6.9605784740356560 8.0371143724520397 27.4938987067631828 O
atom 0.0001700379524314 2.0092855577418876 24.5169506043687804 Os
atom -5.2199939186534010 11.0510091328458078 24.5169519120533579 Os
atom 5.2205009353984950 11.0510121008194044 24.5169517879335892 Os
atom 6.9605535204682276 4.0185595260990405 27.3584919955782482 Os
atom 11.4901583607518578 0.6059450741713889 25.5092748845267607 O
atom 1.7402547367895613 1.8020712285881857 25.5092734536442549 O
atom 7.6511740589224182 9.6476614692601999 25.5092592156377336 O
atom 0.0001971840341012 0.0000147063241171 27.2230839102944984 O
atom -4.5293739275018927 11.4497208335695699 26.3661666848073679 O
atom 5.2205270165627047 10.2535945117868721 26.3661738718897460 O
atom -0.6903941157922251 2.4080019114461306 26.3661853617224118 O
atom 0.0001467031911898 0.0000132686221736 24.6523626877621922 O
atom 0.0002756584984350 2.0093014664469933 33.0415743132004565 Os
atom -5.2198907800411343 11.0510320103584281 33.0415725032053018 Os
atom 5.2206043002775031 11.0510344312777953 33.0415716227555549 Os
atom 11.4902663784012500 0.6059610522689712 34.0339002849789480 O
atom 1.7403621392337467 1.8020920362614192 34.0338921221931798 O
atom 7.6512809805538096 9.6476809297188364 34.0338818332665340 O
atom 0.0002499054195189 0.0000319615890646 33.1769825745491289 O
atom -1.7398273291391002 3.0139310085986941 30.2000381960578643 Os
atom 6.9606641261515376 8.0371150072183113 33.0415803031950688 Os
atom -2.4303971228154051 4.6245023352651069 31.1923554729939099 O
atom 1.7403581652718056 5.8206249665138028 31.1923527142305872 O
atom 0.6908397415396560 1.6105792911258008 31.1923446769479824 O
atom 0.0003046925313835 4.0185695669144605 32.9061637539771041 O
atom 2.4309488569868658 3.4126386595404385 32.0492507316438378 O
atom 12.1808550265503364 2.2165100556251600 32.0492564060357168 O
atom -0.6902868760008908 6.4265540612697256 32.0492662561860442 O
atom 0.0002548905596530 4.0185766371048279 30.3354440845069995 O
atom 10.4407779159501466 2.0092990087689464 33.0415766831888220 Os
atom -5.9105065851235290 10.6523229795580363 31.1923554267945171 O
atom -1.7397480231459375 11.8484483256404278 31.1923486611970660 O
atom -2.7892678540086036 7.6384037076225892 31.1923417208885105 O
atom -3.4798111903319411 10.0463866839702458 32.9061622355789467 O
atom -1.0491584557167646 9.4404582913683281 32.0492513667043113 O
atom 8.7007433439093731 8.2443299650797979 32.0492541947878635 O
atom 2.7898241985300647 0.3987409532314726 32.0492640564773836 O
atom -3.4798609993819123 10.0463914393931741 30.3354430684051408 O
atom -3.4798341503273469 8.0371125209899574 33.0415754967656810 Os
atom -1.7397774852475163 5.0232012333268417 33.0415744661890898 Os
atom 8.7007272188047260 5.0231994288358006 33.0415780716905516 Os
atom -3.4798879328179591 6.0278472646576589 30.2000336263594313 Os
atom 8.0101576726316335 6.6337699185940533 34.0338983392999239 O
atom -1.7397484191306882 7.8298993022647947 34.0338950840046408 O
atom 11.1313970684607906 3.6198547291400294 34.0338869774289776 O
atom -3.4798555193237299 6.0278427385055169 33.1769870720763222 O
atom 10.4407229454698562 0.0000243219057547 30.2000336523225030 Os
atom 5.2205559483523976 9.0417575398484491 30.2000355546915031 Os
atom 3.4804443622059256 2.0092999599954866 33.0415724685468604 Os
atom 1.0498245008151270 10.6523239593559200 31.1923578689860648 O
atom 5.2205846820794424 11.8484515058894893 31.1923514440132195 O
atom 4.1710607287461610 7.6384025971989056 31.1923416573976908 O
atom 3.4805216280384035 10.0463894314765891 32.9061665195053408 O
atom 5.9111743060832058 9.4404613001535296 32.0492551887506920 O
atom 1.7404148460207280 8.2443330595902200 32.0492549164561353 O
atom 9.7501594705374917 0.3987446682723839 32.0492640968625579 O
atom 3.4804734453211639 10.0463934847041312 30.3354458743046358 O
atom 3.4804986963330879 8.0371151460223142 33.0415807506404207 Os
atom 5.2205568816833132 5.0232041890323780 33.0415780919258708 Os
atom 1.7403887436503696 5.0232063323472884 33.0415778407938490 Os
atom 1.0498261059216212 6.6337746787728342 34.0339012780122800 O
atom 5.2205837628632388 7.8299048176981456 34.0339004591254053 O
atom 4.1710641652770732 3.6198566601613016 34.0338854821018799 O
atom 3.4804751565009240 6.0278438979352122 33.1769905996889491 O
atom 6.9606154418208623 2.0092992700323036 33.0415744286154407 Os
atom 1.7404437283084293 11.0510380279238607 33.0415736174654882 Os
atom -1.7397281928249904 11.0510297160139839 33.0415685050758583 Os
atom 4.5299405816364109 0.6059621545140075 34.0338987087767464 O
atom 8.7006979910614319 1.8020890723599645 34.0338956555480578 O
atom 0.6909541372564764 9.6476792232201962 34.0338799914919008 O
atom 6.9605803125016017 0.0000297162265795 33.1769820491668597 O
atom 6.9606121396342928 6.0278390466047780 30.2000339467724643 Os
atom 8.7006702613545759 3.0139244766203435 30.2000352544570418 Os
atom 5.2205027738644487 3.0139274445939441 30.2000351303372696 Os
atom 0.0003332806080440 8.0371130149619336 33.0415753379819250 Os
atom 4.5299381208916740 4.6244985630342761 31.1923582269304376 O
atom 8.7006968384714174 5.8206247174510732 31.1923567960479389 O
atom 7.6511758973883746 1.6105768130347378 31.1923425580414104 O
atom 6.9606392857159678 4.0185681951870098 32.9061672526981823 O
atom 9.3912902525060957 3.4126361773441087 32.0492500272110448 O
atom 5.2205288550286530 2.2165098555614109 32.0492572142934264 O
atom 6.2700479858896445 6.4265554003090184 32.0492687041260922 O
atom 6.9605888048730513 4.0185667574850639 30.3354460301658690 O
