#===============================================================================
# Created using the Atomic Simulation Environment (ASE)

# Mon Mar 23 14:01:08 2026

#=======================================================
lattice_vector 13.9206623415420374 0.0000000000000000 0.0000000000000000 
lattice_vector -6.9602220783261259 12.0556381450883503 0.0000000000000000 
lattice_vector 0.0000000000000000 0.0000000000000000 46.1923597741949123 
atom 6.9604424128056603 4.0185544768215804 15.9923241791083797 Os
atom 0.0000787082881898 0.0000117228123515 15.8569099912792701 O
atom -4.5294932870964466 11.4497138206564699 15.0000008544778503 O
atom 5.2204080882939152 10.2535933980560188 15.0000025451789760 O
atom -0.6905111773167197 2.4079968458634027 15.0000140754164981 O
atom 6.9604919810107511 10.0463814530730513 15.9923209199935954 Os
atom 8.7005496572208507 7.0324551377893378 15.9923253107392291 Os
atom 10.4406068243890076 4.0185522396267830 15.9923249729741634 Os
atom 12.1806605974402249 1.0046488924062258 15.9923242772744985 Os
atom 8.7004956484424625 1.0046469328116030 15.9923243552138921 Os
atom -3.4800277559142954 6.0278219485973414 15.8569129992499533 O
atom -1.0493818590516706 5.4218900165122861 15.0000000000000000 O
atom 8.7005229175285095 4.2257626087719720 15.0000074526390712 O
atom -4.1706198123237250 8.4358075493098266 15.0000187808108976 O
atom 1.7401643574614627 1.0046495006925502 15.9923223056195454 Os
atom -3.4800021730224509 10.0463687892020666 15.9923251375285282 Os
atom 3.4803079120950073 6.0278233692843095 15.8569179875258470 O
atom 5.9109523311032133 5.4218948215826179 15.0000024652626927 O
atom 1.7401928852193995 4.2257661564448572 15.0000080530735609 O
atom 2.7897152688018103 8.4358126564813318 15.0000234919600999 O
atom 0.0001105561209560 4.0185519742617863 15.9923228396618953 Os
atom 6.9604120710924446 0.0000052969774654 15.8569147601823239 O
atom 2.4308404292745238 11.4497180092720718 15.0000003348431612 O
atom -1.7399193277525919 10.2535889685458308 15.0000036940842776 O
atom 6.2698259331535153 2.4079960456704645 15.0000149702709713 O
atom 6.9604940598926621 6.0278326338095676 18.8338661245757244 Os
atom 8.7005496996792200 3.0139250326326499 18.8338643145805769 Os
atom 5.2203824384558200 3.0139274535520180 18.8338634341308229 Os
atom 0.0002221729454867 8.0371079656844699 21.6754075215120601 Os
atom 4.5298224382534382 4.6244922196315441 19.8261920963542231 O
atom 8.7005805406279766 5.8206232036239891 19.8261839335684549 O
atom 7.6510591187321220 1.6105739519930558 19.8261736446418020 O
atom 6.9605208099700491 4.0185652116752388 21.5399933336829541 O
atom 9.3911708929115392 3.4126291644310069 20.6830841968815342 O
atom 5.2204099267598645 2.2165087418305593 20.6830858875826600 O
atom 6.2699309243651395 6.4265503347262900 20.6830974178201750 O
atom 6.9604683068137492 4.0185631289516346 18.9692743859244004 O
atom 6.9604938194767030 2.0092967968475905 21.6754042623972758 Os
atom 1.7403294173606780 11.0510086266522300 21.6754086531429131 Os
atom 5.2203910722551345 7.0324621759612675 15.9923300074331358 Os
atom 6.9604422643298554 0.0000080294925320 18.8338721145703438 Os
atom 4.5298212785788250 8.6430335026276808 16.9846472843691814 O
atom -5.2200857748760052 9.8391561338763740 16.9846445256058622 O
atom 7.6510581429338851 5.6291104584883742 16.9846364883232539 O
atom 6.9605230939256071 8.0371007342770309 18.6984555653523721 O
atom 9.3911672583810990 7.4311698269030098 17.8415425430191021 O
atom 5.2204110864025219 6.2350412229877339 17.8415482174109918 O
atom 6.2699315253933330 10.4450852286322942 17.8415580675613157 O
atom 6.9604732919538836 8.0371078044674018 16.1277358958822710 O
atom 3.4803865845288313 8.0371057284896725 21.6754083153778474 Os
atom 5.2204403575800464 5.0232023812691136 21.6754076196781789 Os
atom 1.7402754085822847 5.0232004216744901 21.6754076976175689 Os
atom 3.4803339758023357 6.0278301761315163 18.8338684945640971 Os
atom 8.0099338945968235 2.6152160018322621 16.9846472381697886 O
atom -1.7399698849676162 3.8113413479146474 16.9846404725723410 O
atom 4.1709505473856296 11.6569348749851578 16.9846335322637891 O
atom 10.4406292893884114 2.0092797062444654 18.6984540469542218 O
atom 12.8712820240035963 1.4033513136425477 17.8415431780795863 O
atom 8.7005214820876962 0.2072229873540202 17.8415460061631350 O
atom 9.7500425999242939 4.4172721205940428 17.8415558678526551 O
atom 10.4405794803384389 2.0092844616673946 16.1277348797804159 O
atom 10.4406063293930078 0.0000055432641749 18.8338673081409560 Os
atom 5.2204409161467105 9.0417324006894138 18.8338662775643542 Os
atom 1.7402832786569127 9.0417305961983701 18.8338698830658267 Os
atom 3.4803304685762693 10.0463784320202301 15.9923254377347099 Os
atom 1.0497137324838151 10.6523010859566245 19.8261901506751919 O
atom 5.2204699822635323 11.8484304696273650 19.8261868953799087 O
atom 4.1709531283129788 7.6383858965026006 19.8261787888042527 O
atom 3.4804143457675671 10.0463754374602310 21.5399963416536302 O
atom 5.9110602426301906 9.4404435053751765 20.6830833424036804 O
atom 1.7403026776683364 8.2443160976348615 20.6830907950427552 O
atom 9.7500443676842590 0.3987228930843645 20.6831021232145780 O
atom 3.4803628820704975 10.0463739058680908 18.9692788834515937 O
atom 3.4802790053220516 4.0185554892683273 15.9923254636977781 Os
atom 5.2203340865307144 1.0046505621226709 15.9923273660667746 Os
atom 8.7006064591433283 5.0232029895554406 21.6754056480232258 Os
atom -3.4799995779418866 6.0278311273580591 18.8338642799221390 Os
atom 1.0496026389934434 2.6152169816301423 16.9846496803613398 O
atom 5.2203628202577619 3.8113445281637124 16.9846432553884910 O
atom -2.7893832114016472 11.6569337645614777 16.9846334687729623 O
atom 3.4802997662167230 2.0092824537508114 18.6984583308806123 O
atom 5.9109524442615253 1.4033543224277525 17.8415470001259600 O
atom 1.7401929841990464 0.2072260818644401 17.8415467278314068 O
atom 2.7897155303896772 4.4172758356349542 17.8415559082378330 O
atom 3.4802515834994789 2.0092865069783503 16.1277376856799073 O
atom 3.4802768345114030 0.0000081682965397 18.8338725620156886 Os
atom -1.7398870584644919 9.0417353563949501 18.8338699033011387 Os
atom -5.2200551964974355 9.0417374997098605 18.8338696521691240 Os
atom 10.4406620069855389 2.0092841329766062 21.6754084799322122 Os
atom -5.9106178342261897 10.6523058461354054 19.8261930893875409 O
atom -1.7398601772845661 11.8484359850607106 19.8261922705006732 O
atom -2.7893797748707336 7.6383878275238759 19.8261772934771550 O
atom -3.4799123277651711 10.0463768581471982 21.5400013299295274 O
atom -1.0492679087569623 9.4404483104455075 20.6830858076663731 O
atom 8.7006349869012567 8.2443196453077459 20.6830913954772448 O
atom 2.7897171072677631 0.3987280002558701 20.6831068343637803 O
atom -3.4799687836468833 10.0463750652977826 18.9692824110642242 O
atom 0.0001715016730497 6.0278304373948721 18.8338662399907122 Os
atom 1.7402218664867495 3.0139310501980776 18.8338654288407561 Os
atom -1.7399500546466689 3.0139227382882039 18.8338603164511298 Os
atom 6.9605526578028218 8.0371054631246750 21.6754061820655757 Os
atom -2.4305033585113902 4.6244933218765834 19.8261905201520143 O
atom 1.7402540509136173 5.8206202397225351 19.8261874669233329 O
atom 0.6907322754348029 1.6105722454944182 19.8261718028671758 O
atom 0.0001918312322664 4.0185587858403524 21.5399981025860043 O
atom 2.4308422677404731 3.4126333530466098 20.6830836772468452 O
atom 12.1807448522553887 2.2165043123203696 20.6830870364879580 O
atom -0.6903943067066621 6.4265495345333514 20.6830983126746517 O
atom 0.0001363723537941 4.0185608835891493 18.9692738605421347 O
atom 0.0001681994864844 10.0463702139673483 15.9923257581477323 Os
atom 1.7402263212067721 7.0324556439829173 15.9923270658323133 Os
atom -1.7399411662833606 7.0324586119565158 15.9923269417125447 Os
atom 0.0001114187863653 0.0000060372361535 18.8338671493572001 Os
atom -2.4305058192561297 8.6430297303968509 16.9846500383057126 O
atom 1.7402528983236094 9.8391558848136444 16.9846486074232068 O
atom 0.6907319572405609 5.6291079803973094 16.9846343694166855 O
atom 0.0001953455681540 8.0370993625495792 18.6984590640734503 O
atom 2.4308463123582875 7.4311673447066786 17.8415418385863198 O
atom -1.7399150851191556 6.2350410229239825 17.8415490256686979 O
atom -0.6903959542581680 10.4450865676715896 17.8415605155013672 O
atom 0.0001448647252403 8.0370979248476342 16.1277378415411441 O
atom 0.0002738200324765 10.0463861226724589 24.5169494669794084 Os
atom 1.7403294598190466 7.0324785214955403 24.5169476569842573 Os
atom -1.7398378014043598 7.0324809424149075 24.5169467765345068 Os
atom 0.0002240114114335 0.0000233094590080 27.3584908639157440 Os
atom -2.4303978016067376 8.6430457084944337 25.5092754387579070 O
atom 1.7403603007677977 9.8391766924868787 25.5092672759721353 O
atom 0.6908388788719464 5.6291274408559486 25.5092569870454930 O
atom 0.0003005701098695 8.0371187005381284 27.2230766760866345 O
atom 2.4309506530513629 7.4311826532938969 26.3661675392852111 O
atom -1.7398103131003144 6.2350622306934440 26.3661692299863368 O
atom -0.6902893154950412 10.4451038235891822 26.3661807602238625 O
atom 0.0002480669535693 8.0371166178145241 24.6523577283280808 O
atom 0.0002735796165257 6.0278502857104810 27.3584876048009598 Os
atom 1.7403312558266237 3.0139239704267693 27.3584919955465899 Os
atom -1.7398291676050448 11.0510156648241580 21.6754133498368198 Os
atom 0.0002220244696807 4.0185615183554244 24.5169554569740278 Os
atom 4.5298231170447760 0.6059488464022195 22.6677306267728653 O
atom 8.7005784051319814 1.8020714776509097 22.6677278680095462 O
atom 0.6908379030737043 9.6476639473512655 22.6677198307269343 O
atom 6.9605249323915599 0.0000160780515701 24.3815389077560560 O
atom 2.4309470185209219 11.4497233157658993 23.5246258854227825 O
atom -1.7398091534576596 10.2535947118506243 23.5246315598146758 O
atom 6.2699333638592876 2.4080005724068330 23.5246414099649961 O
atom 6.9604751304198338 0.0000231482419407 21.8108192382859514 O
atom 3.4803884229947832 0.0000210722642130 27.3584916577815314 Os
atom -1.7397798822801291 9.0417558701320058 27.3584909620818628 Os
atom -5.2199448312778900 9.0417539105373823 27.3584910400212564 Os
atom -3.4798862640578427 10.0463836649944085 24.5169518369677810 Os
atom 1.0497136547366464 6.6337694906951494 22.6677305805734655 O
atom 5.2204722167142430 7.8298948367775374 22.6677238149760250 O
atom 4.1709523858515789 3.6198502187596988 22.6677168746674660 O
atom 3.4804090495282285 6.0278331951073554 24.3815373893579057 O
atom 5.9110617841434197 5.4219048025054404 23.5246265204832703 O
atom 1.7403012422275237 4.2257764762169074 23.5246293485668154 O
atom 2.7898223600641185 8.4358256094569271 23.5246392102563320 O
atom 3.4803592404782608 6.0278379505302846 21.8108182221840998 O
atom 3.4803860895328325 4.0185590321270626 24.5169506505446329 Os
atom 5.2204427546126642 1.0046477444639541 24.5169496199680346 Os
atom 1.7402851171228668 1.0046459399729080 24.5169532254695071 Os
atom 3.4803323070422172 2.0092937757947693 21.6754087801383868 Os
atom 1.0497155709497639 2.6152164297311655 25.5092734930788723 O
atom 5.2204718207294825 3.8113458134019047 25.5092702377835927 O
atom -2.7892671115471979 11.6569393853654919 25.5092621312079366 O
atom 3.4804161842335155 2.0092907812347716 27.2230796840573177 O
atom 5.9110620810961425 1.4033588491497166 26.3661666848073644 O
atom 1.7403045161342776 0.2072314414093984 26.3661741374464285 O
atom 2.7898241278240796 4.4172763819472545 26.3661854656182584 O
atom 3.4803647205364512 2.0092892496426291 24.6523622258552741 O
atom -3.4799412345381247 8.0371089781312168 21.6754088061014620 Os
atom -1.7398861533294676 5.0232040509855560 21.6754107084704550 Os
atom 1.7403862192831538 9.0417564784183302 27.3584889904269062 Os
atom 3.4804425237399745 10.0463846162209478 24.5169476223258229 Os
atom 8.0100447406753066 6.6337704704930349 22.6677330227650202 O
atom -1.7398574196024148 7.8298980170266024 22.6677265977921714 O
atom 11.1312809686063456 3.6198491083360187 22.6677168111766427 O
atom -3.4799204736434515 6.0278359426136987 24.3815416732842927 O
atom -1.0492677955986511 5.4219078112906427 23.5246303425296439 O
atom 8.7006350858809078 4.2257795707273305 23.5246300702350872 O
atom -4.1705047094705039 8.4358293244978473 23.5246392506415170 O
atom -3.4799686563606955 6.0278399958412381 21.8108210280835877 O
atom 10.4407189361932602 4.0185616571594300 24.5169559044193726 Os
atom 12.1807771215434908 1.0046507001694855 24.5169532457048227 Os
atom 8.7006089835105467 1.0046528434843984 24.5169529945728009 Os
atom 3.4804417671253578 6.0278376218394936 27.3584918223358962 Os
atom 8.0100463457817952 2.6152211899099473 25.5092764317912284 O
atom -1.7398583388186186 3.8113513288352499 25.5092756129043501 O
atom 4.1710623268111275 11.6569413163867655 25.5092606358808389 O
atom 10.4407518522428209 2.0092922019217396 27.2230846723332149 O
atom 12.8713962712510224 1.4033636542200461 26.3661691500700570 O
atom 8.7006368253672033 0.2072349890822858 26.3661747378809252 O
atom 9.7501592089496203 4.4172814891187571 26.3661901767674607 O
atom 10.4406953963611056 2.0092904090723218 24.6523657534679081 O
atom 6.9606136033549131 10.0463839262577626 24.5169495823943961 Os
atom 8.7006639681686071 7.0324845390609676 24.5169487712444401 Os
atom 5.2204920470351892 7.0324762271510943 24.5169436588548102 Os
atom 6.9605544962687613 0.0000208068992137 27.3584895244692525 Os
atom 4.5299387431704625 8.6430468107394685 25.5092738625556912 O
atom -5.2199661889465601 9.8391737285854219 25.5092708093270133 O
atom 7.6511743771166643 5.6291257343573085 25.5092551452708527 O
atom 6.9606339329141260 8.0371122747032455 27.2230814449896812 O
atom 9.3912843694223369 7.4311868419094971 26.3661670196505291 O
atom 5.2205246123952129 6.2350578011832596 26.3661703788916419 O
atom 6.2700477949751932 10.4451030233962410 26.3661816550783357 O
atom 6.9605784740356560 8.0371143724520397 24.6523572029458187 O
atom 0.0001700379524314 2.0092855577418876 21.6754091005514162 Os
atom -5.2199939186534010 11.0510091328458078 21.6754104082359937 Os
atom 5.2205009353984950 11.0510121008194044 21.6754102841162251 Os
atom 6.9605535204682276 4.0185595260990405 24.5169504917608840 Os
atom 11.4901583607518578 0.6059450741713889 22.6677333807093966 O
atom 1.7402547367895613 1.8020712285881857 22.6677319498268908 O
atom 7.6511740589224182 9.6476614692601999 22.6677177118203694 O
atom 0.0001971840341012 0.0000147063241171 24.3815424064771342 O
atom -4.5293739275018927 11.4497208335695699 23.5246251809900038 O
atom 5.2205270165627047 10.2535945117868721 23.5246323680723819 O
atom -0.6903941157922251 2.4080019114461306 23.5246438579050476 O
atom 0.0001467031911898 0.0000132686221736 21.8108211839448281 O
atom 0.0002756584984350 2.0093014664469933 30.2000328093830923 Os
atom -5.2198907800411343 11.0510320103584281 30.2000309993879377 Os
atom 5.2206043002775031 11.0510344312777953 30.2000301189381908 Os
atom 11.4902663784012500 0.6059610522689712 31.1923587811615839 O
atom 1.7403621392337467 1.8020920362614192 31.1923506183758157 O
atom 7.6512809805538096 9.6476809297188364 31.1923403294491699 O
atom 0.0002499054195189 0.0000319615890646 30.3354410707317648 O
atom -1.7398273291391002 3.0139310085986941 27.3584966922405002 Os
atom 6.9606641261515376 8.0371150072183113 30.2000387993777046 Os
atom -2.4303971228154051 4.6245023352651069 28.3508139691765457 O
atom 1.7403581652718056 5.8206249665138028 28.3508112104132231 O
atom 0.6908397415396560 1.6105792911258008 28.3508031731306183 O
atom 0.0003046925313835 4.0185695669144605 30.0646222501597400 O
atom 2.4309488569868658 3.4126386595404385 29.2077092278264736 O
atom 12.1808550265503364 2.2165100556251600 29.2077149022183526 O
atom -0.6902868760008908 6.4265540612697256 29.2077247523686800 O
atom 0.0002548905596530 4.0185766371048279 27.4939025806896353 O
atom 10.4407779159501466 2.0092990087689464 30.2000351793714579 Os
atom -5.9105065851235290 10.6523229795580363 28.3508139229771530 O
atom -1.7397480231459375 11.8484483256404278 28.3508071573797018 O
atom -2.7892678540086036 7.6384037076225892 28.3508002170711464 O
atom -3.4798111903319411 10.0463866839702458 30.0646207317615826 O
atom -1.0491584557167646 9.4404582913683281 29.2077098628869471 O
atom 8.7007433439093731 8.2443299650797979 29.2077126909704994 O
atom 2.7898241985300647 0.3987409532314726 29.2077225526600195 O
atom -3.4798609993819123 10.0463914393931741 27.4939015645877767 O
atom -3.4798341503273469 8.0371125209899574 30.2000339929483168 Os
atom -1.7397774852475163 5.0232012333268417 30.2000329623717256 Os
atom 8.7007272188047260 5.0231994288358006 30.2000365678731875 Os
atom -3.4798879328179591 6.0278472646576589 27.3584921225420672 Os
atom 8.0101576726316335 6.6337699185940533 31.1923568354825598 O
atom -1.7397484191306882 7.8298993022647947 31.1923535801872767 O
atom 11.1313970684607906 3.6198547291400294 31.1923454736116135 O
atom -3.4798555193237299 6.0278427385055169 30.3354455682589581 O
atom 10.4407229454698562 0.0000243219057547 27.3584921485051389 Os
atom 5.2205559483523976 9.0417575398484491 27.3584940508741390 Os
atom 3.4804443622059256 2.0092999599954866 30.2000309647294962 Os
atom 1.0498245008151270 10.6523239593559200 28.3508163651687006 O
atom 5.2205846820794424 11.8484515058894893 28.3508099401958553 O
atom 4.1710607287461610 7.6384025971989056 28.3508001535803267 O
atom 3.4805216280384035 10.0463894314765891 30.0646250156879766 O
atom 5.9111743060832058 9.4404613001535296 29.2077136849333279 O
atom 1.7404148460207280 8.2443330595902200 29.2077134126387712 O
atom 9.7501594705374917 0.3987446682723839 29.2077225930451938 O
atom 3.4804734453211639 10.0463934847041312 27.4939043704872716 O
atom 3.4804986963330879 8.0371151460223142 30.2000392468230565 Os
atom 5.2205568816833132 5.0232041890323780 30.2000365881085067 Os
atom 1.7403887436503696 5.0232063323472884 30.2000363369764848 Os
atom 1.0498261059216212 6.6337746787728342 31.1923597741949159 O
atom 5.2205837628632388 7.8299048176981456 31.1923589553080411 O
atom 4.1710641652770732 3.6198566601613016 31.1923439782845158 O
atom 3.4804751565009240 6.0278438979352122 30.3354490958715850 O
atom 6.9606154418208623 2.0092992700323036 30.2000329247980766 Os
atom 1.7404437283084293 11.0510380279238607 30.2000321136481240 Os
atom -1.7397281928249904 11.0510297160139839 30.2000270012584942 Os
atom 4.5299405816364109 0.6059621545140075 31.1923572049593822 O
atom 8.7006979910614319 1.8020890723599645 31.1923541517306937 O
atom 0.6909541372564764 9.6476792232201962 31.1923384876745367 O
atom 6.9605803125016017 0.0000297162265795 30.3354405453494955 O
atom 6.9606121396342928 6.0278390466047780 27.3584924429551002 Os
atom 8.7006702613545759 3.0139244766203435 27.3584937506396777 Os
atom 5.2205027738644487 3.0139274445939441 27.3584936265199055 Os
atom 0.0003332806080440 8.0371130149619336 30.2000338341645609 Os
atom 4.5299381208916740 4.6244985630342761 28.3508167231130734 O
atom 8.7006968384714174 5.8206247174510732 28.3508152922305747 O
atom 7.6511758973883746 1.6105768130347378 28.3508010542240463 O
atom 6.9606392857159678 4.0185681951870098 30.0646257488808182 O
atom 9.3912902525060957 3.4126361773441087 29.2077085233936806 O
atom 5.2205288550286530 2.2165098555614109 29.2077157104760623 O
atom 6.2700479858896445 6.4265554003090184 29.2077272003087280 O
atom 6.9605888048730513 4.0185667574850639 27.4939045263485049 O
