#===============================================================================
# Created using the Atomic Simulation Environment (ASE)

# Mon Mar 23 14:01:10 2026

#=======================================================
lattice_vector 9.0245745700181317 0.0000000000000000 0.0000000000000000 
lattice_vector -0.0000361800215085 9.0245852999456080 0.0000000000000000 
lattice_vector 0.0000000000000000 0.0000000000000000 39.6399891200000027 
atom -0.0000332900110248 9.0245800699514014 19.8199942100000008 Os
atom 2.2561446675106263 2.2561406025065880 15.0000089799999969 Os
atom 1.3914457408577661 1.3914232891928298 19.8199946699999998 O
atom 3.6475619066867182 0.8647032116366937 15.0000000000000000 O
atom 0.8646910983638411 3.6475633733036572 15.0000037299999960 O
atom 9.0245717200162670 0.0000009299942871 16.6066702500000005 Os
atom 2.2561459975098246 2.2561410025092536 18.2133331699999985 Os
atom 1.3914393908613145 1.3914215191801012 16.6066712499999980 O
atom 3.6475632966864375 0.8647033516394799 18.2133406899999990 O
atom 0.8646910483636203 3.6475634833035566 18.2133367899999996 O
atom 3.1208561641946164 3.1208423858455423 16.6066707499999993 O
atom 9.0245532749959505 4.5122983499663789 19.8199945799999959 Os
atom 2.2561022624402174 6.7684630124306526 15.0000074299999966 Os
atom 3.6475534316211395 5.3770232116287708 15.0000177999999984 O
atom 0.8646855432950556 8.1598849733015868 15.0000107599999950 O
atom -0.0000162650101328 4.5122923399764625 16.6066697499999982 Os
atom 2.2561033124414203 6.7684624124327568 18.2133357099999991 Os
atom 1.3913790057611781 5.9037587590681229 16.6066703999999987 O
atom 3.6475545516240859 5.3770217416310162 18.2133254999999998 O
atom 0.8646861932950555 8.1598849733028906 18.2133299499999985 O
atom 3.1207829690729714 7.6331903557078871 16.6066702699999986 O
atom 4.5122511799916971 9.0245832349457569 19.8199945699999986 Os
atom 6.7684387475579664 2.2561215075202092 15.0000084299999976 Os
atom 8.1598562067019280 0.8647001466507552 15.0000020299999974 O
atom 5.3769850083827793 3.6475584483169374 15.0000129699999967 O
atom 7.6331642142419778 3.1208232808871670 19.8199949900000014 O
atom 4.5122865400060688 0.0000014949985066 16.6066697899999980 Os
atom 6.7684373075565443 2.2561222175173219 18.2133346100000004 Os
atom 5.9037496909136866 1.3913999142262352 16.6066713099999994 O
atom 8.1598558867005853 0.8647008166501141 18.2133387499999984 O
atom 5.3769831883806125 3.6475595283132889 18.2133304000000003 O
atom 7.6331682442424782 3.1208230308952452 16.6066716700000008 O
atom 6.7683912024849127 6.7684452374339683 15.0000073299999954 Os
atom 8.1598444616304562 5.3770230866362789 15.0000121199999974 O
atom 5.3769767133057149 8.1598841783093761 15.0000056199999960 O
atom 4.5122699850014882 4.5122910649743870 16.6066705799999994 Os
atom 6.7683900724858947 6.7684447474317047 18.2133355399999992 Os
atom 5.9036881558085597 5.9037396441119521 16.6066701600000002 O
atom 8.1598443716316584 5.3770224866360978 18.2133284300000007 O
atom 5.3769765433040311 8.1598850183090352 18.2133350999999983 O
atom 7.6330882091266865 7.6331680807438786 16.6066708900000002 O
atom 2.2561446675106263 2.2561406025065880 21.4266574100000007 Os
atom 3.6475619066867182 0.8647032116366937 21.4266484300000002 O
atom 0.8646910983638411 3.6475633733036572 21.4266521599999997 O
atom 3.1208489641921711 3.1208436058311100 19.8199954399999996 O
atom 9.0245717200162670 0.0000009299942871 23.0333186800000007 Os
atom 2.2561459975098246 2.2561410025092536 24.6399815999999987 Os
atom 1.3914393908613145 1.3914215191801012 23.0333196799999982 O
atom 3.6475632966864375 0.8647033516394799 24.6399891200000027 O
atom 0.8646910483636203 3.6475634833035566 24.6399852199999998 O
atom 3.1208561641946164 3.1208423858455423 23.0333191799999994 O
atom 2.2561022624402174 6.7684630124306526 21.4266558600000003 Os
atom 1.3913713457512560 5.9037637090527699 19.8199964800000004 O
atom 3.6475534316211395 5.3770232116287708 21.4266662299999986 O
atom 0.8646855432950556 8.1598849733015868 21.4266591899999987 O
atom 3.1207888490599225 7.6331968657196736 19.8199965499999990 O
atom -0.0000162650101328 4.5122923399764625 23.0333181799999984 Os
atom 2.2561033124414203 6.7684624124327568 24.6399841400000028 Os
atom 1.3913790057611781 5.9037587590681229 23.0333188299999989 O
atom 3.6475545516240859 5.3770217416310162 24.6399739300000036 O
atom 0.8646861932950555 8.1598849733028906 24.6399783799999952 O
atom 3.1207829690729714 7.6331903557078871 23.0333186999999988 O
atom 6.7684387475579664 2.2561215075202092 21.4266568599999978 Os
atom 5.9037509709323892 1.3913905842288010 19.8199952900000014 O
atom 8.1598562067019280 0.8647001466507552 21.4266504600000012 O
atom 5.3769850083827793 3.6475584483169374 21.4266614000000004 O
atom 4.5122865400060688 0.0000014949985066 23.0333182199999982 Os
atom 6.7684373075565443 2.2561222175173219 24.6399830399999971 Os
atom 5.9037496909136866 1.3913999142262352 23.0333197399999996 O
atom 8.1598558867005853 0.8647008166501141 24.6399871799999985 O
atom 5.3769831883806125 3.6475595283132889 24.6399788299999969 O
atom 7.6331682442424782 3.1208230308952452 23.0333201000000010 O
atom 4.5122698549988804 4.5122923649741269 19.8199969699999983 Os
atom 6.7683912024849127 6.7684452374339683 21.4266557599999992 Os
atom 5.9036885358118472 5.9037380041127125 19.8199966799999991 O
atom 8.1598444616304562 5.3770230866362789 21.4266605500000011 O
atom 5.3769767133057149 8.1598841783093761 21.4266540499999998 O
atom 7.6330947691398565 7.6331615107570281 19.8199956700000008 O
atom 4.5122699850014882 4.5122910649743870 23.0333190099999996 Os
atom 6.7683900724858947 6.7684447474317047 24.6399839699999958 Os
atom 5.9036881558085597 5.9037396441119521 23.0333185899999968 O
atom 8.1598443716316584 5.3770224866360978 24.6399768599999973 O
atom 5.3769765433040311 8.1598850183090352 24.6399835300000021 O
atom 7.6330882091266865 7.6331680807438786 23.0333193200000004 O
