#===============================================================================
# Created using the Atomic Simulation Environment (ASE)

# Mon Mar 23 14:01:13 2026

#=======================================================
lattice_vector 10.0577835300710472 0.0000000000000000 0.0000000000000000 
lattice_vector -0.0000010998600674 10.0578176800707233 0.0000000000000000 
lattice_vector 0.0000000000000000 0.0000000000000000 35.1947123107559179 
atom 2.5146891741021777 2.5145677121674792 15.0000000000000000 Pb
atom 1.5488052668703745 1.5488053031048825 20.1938542630139466 O
atom 4.0631720216044123 0.9662336596725675 15.0007567286456442 O
atom 0.9662662710061859 4.0631424090768675 15.0004191802263591 O
atom 3.4809855611834690 3.4809996287103360 20.1938362630707644 O
atom 0.0003780817876595 0.0003751028316086 16.7322409310367455 Pb
atom 2.5150504069396962 2.5151803009162346 18.4624505963931966 Pb
atom 1.5487641249781716 1.5487638953483625 16.7316635032750867 O
atom 4.0632057044440053 0.9664647183846627 18.4632023277010973 O
atom 0.9664195138452126 4.0632539177884102 18.4628628892809417 O
atom 3.4809410962132481 3.4809551778811616 16.7308264633558039 O
atom 0.0004122777497800 5.0294234196302998 20.1941670254317529 Pb
atom 2.5146646192082591 7.5435910222438238 15.0000112746608067 Pb
atom 1.5488077619059148 6.5777605331085809 20.1938457778284715 O
atom 4.0631955869460636 5.9953277299905396 15.0008317128601583 O
atom 0.9662630279524010 9.0920179009830324 15.0009179253615841 O
atom 3.4809848861888550 8.5098657586789006 20.1938184582314619 O
atom 0.0003681247689406 5.0293794807868597 16.7316865657136979 Pb
atom 2.5150769720509567 7.5439879309887727 18.4624601116709499 Pb
atom 1.5487665197282892 6.5777187850671428 16.7315790680912713 O
atom 4.0631487597969418 5.9953366286973706 18.4632770830515796 O
atom 0.9664550307993363 9.0920500697002566 18.4633625845681166 O
atom 3.4809423015895913 8.5098237782202304 16.7309073985001611 O
atom 7.5439596241489619 2.5150655072265913 15.0000102367094144 Pb
atom 6.5777415969027597 1.5488063181042426 20.1938534428426522 O
atom 9.0920751422385475 0.9663505952770738 15.0009177081643088 O
atom 5.9953861425820243 4.0632884156347648 15.0008311488213586 O
atom 8.5098363211204973 3.4810001836098108 20.1938100632227986 O
atom 5.0293529611417656 0.0003689771556647 16.7320595307473532 Pb
atom 7.5435637870408145 2.5146852859340023 18.4624608496722260 Pb
atom 6.5776987620094776 1.5487644973520960 16.7308641531116926 O
atom 9.0919425550859714 0.9663780339767790 18.4633624286084910 O
atom 5.9952304354478363 4.0630771143385367 18.4632772902480227 O
atom 8.5097909892365475 3.4809549058610889 16.7316214435142037 O
atom 7.5436880008926996 7.5438437589106710 15.0004536932180663 Pb
atom 6.5777427429509672 6.5777608991186192 20.1941143976646913 O
atom 9.0919186557362099 5.9953778337409833 15.0005010733062072 O
atom 5.9953140376931362 9.0919860556957595 15.0008390248825592 O
atom 8.5098340473592149 8.5098653348092785 20.1941204083931680 O
atom 5.0293418163396861 5.0293650373229246 16.7320948454599865 Pb
atom 7.5438299437646306 7.5437342976423816 18.4629029431440443 Pb
atom 6.5776980204167890 6.5777164807209560 16.7317527779505788 O
atom 9.0920634285839004 5.9953171524513120 18.4629445830385563 O
atom 5.9953315105391694 9.0920526044044170 18.4632839446160659 O
atom 8.5097887949487330 8.5098207065350397 16.7317916986818389 O
atom 0.0004218747343704 0.0004191016409665 20.1947123107559179 Pb
atom 5.0293978344005765 0.0004106662764780 20.1946139204711415 Pb
atom 5.0293887997140088 5.0294139265595446 20.1946800751488311 Pb
