#===============================================================================
# Created using the Atomic Simulation Environment (ASE)

# Mon Mar 23 14:01:13 2026

#=======================================================
lattice_vector 12.2111169631888270 0.0000000000000000 0.0000000000000000 
lattice_vector 3.9269428276419625 11.5624905206256550 0.0000000000000000 
lattice_vector 0.0000000000000000 0.0000000000000000 44.5976642645916996 
atom 15.4499815777475344 11.0695078897137105 15.0001649214519865 O
atom 13.4866600575435598 5.2884080150425561 15.0000000000000000 O
atom 9.3446028412930762 11.0695990761772443 15.0000035901138027 O
atom 7.3809362083133969 5.2882524692681754 15.0002715167590956 O
atom 12.2108139096576274 8.7487357581869265 15.9537119305789084 Pb
atom 13.3005672000040125 9.5294148052084111 19.6739043999935710 Pb
atom 13.4866171239912838 9.6628169763615084 17.4807264619599287 O
atom 14.5755582474172662 7.7490958768249536 19.6745224758998383 O
atom 12.0249586696637127 11.3094485107526594 19.6742770952556896 O
atom 15.0780559472609816 10.8030524038004927 19.3870006404979307 O
atom 10.2473212630959996 7.3419524766543462 18.4344362887274862 Pb
atom 15.2643330884200843 10.9366123240530317 17.1936022276907892 Pb
atom 11.5229675221779964 8.2559211889607429 19.9616544589888854 O
atom 4.3279402224225452 9.1560551775856016 17.1938669357053904 O
atom 10.0616143285722384 1.1537806209451453 17.1936202060776431 O
atom 0.9038223483467309 0.6475838614867129 16.9058491502892423 O
atom 8.2841372454953834 1.5610042846205006 18.4341086603610513 Pb
atom 13.3005766476288176 5.1550646025165499 17.1932123351687451 Pb
atom 9.5596460019740217 2.4748213142895885 19.9614895375368953 O
atom 2.3644542361328358 3.3747678787528943 17.1939346998614830 O
atom 12.0247092287468398 6.9347657018755040 17.1938718783311337 O
atom 2.8669845923977388 6.4285706112745666 16.9062219848393589 O
atom 10.2476635072014464 2.9678115459948353 15.9533368274944216 Pb
atom 11.3373715847649255 3.7484742234082660 19.6743172630244665 Pb
atom 11.5230534441562913 3.8815428187788661 17.4808733645691845 O
atom 12.6119899011593795 1.9679698454648407 19.6746192269378710 O
atom 10.0613250461712287 5.5279213883076324 19.6746851895179056 O
atom 13.1148592455272031 5.0219673928588788 19.3866329216158775 O
atom 4.1418735441697248 7.3419514941717807 18.4344235786006294 Pb
atom 9.1588218417729959 10.9365310746592570 17.1935993309146866 Pb
atom 5.4175887857235345 8.2560123754242767 19.9614931276507015 O
atom 10.4334248548213431 9.1559223610362785 17.1939563281686212 O
atom 3.9559186411631369 1.1536471487955327 17.1940120346562928 O
atom 7.0090427497751779 0.6473778322990152 16.9062171465657833 O
atom 6.1054411380942950 8.7487909523289389 15.9535995323191599 Pb
atom 7.1949501107883878 9.5294900636945474 19.6739234964552985 Pb
atom 7.3814046890836460 9.6630278521679553 17.4803584335462467 O
atom 8.4697732886913286 7.7491647096565250 19.6746072301666608 O
atom 5.9191900557145711 11.3091782377044687 19.6745347799839259 O
atom 8.9723313109352976 10.8029695017749692 19.3871427008688713 O
atom 4.1418646528697298 2.9675572111052060 15.9537685987013482 Pb
atom 5.2313686483789139 3.7482745210297650 19.6744636795938881 Pb
atom 5.4174778095387435 3.8814937513425263 17.4809587230517067 O
atom 6.5065542475025104 1.9681996445976226 19.6743840770695222 O
atom 3.9558196258750695 5.5279321609447480 19.6746229640643762 O
atom 7.0088297204354557 5.0216661255571120 19.3871618632717819 O
atom 2.1784339425312220 1.5608168262188853 18.4344074016472490 Pb
atom 7.1949546870337020 5.1549058484547254 17.1936961821695391 Pb
atom 3.4539221527438553 2.4746657685152087 19.9617610542959945 O
atom 8.4701458719756015 3.3748749444466375 17.1936379260607275 O
atom 5.9193055990843995 6.9347531715000255 17.1938777885260698 O
atom 8.9722690196113231 6.4284114375542867 16.9064978707575726 O
atom 8.2837998540880911 5.9351490574339580 20.9152014681158072 Pb
atom 9.3735531444344673 6.7158281044554435 24.6353939375304662 Pb
atom 9.5596030684217386 6.8492302756085417 22.4422159994968240 O
atom 10.6485441918477193 4.9355091760719896 24.6360120134367300 O
atom 8.0979446140941711 8.4958618099996936 24.6357666327925848 O
atom 11.1510418916914453 7.9894657030475242 24.3484901780348260 O
atom 6.3203072075264624 4.5283657759013787 23.3959258262643885 Pb
atom 11.3373190328505498 8.1230256233000659 22.1550917652276880 Pb
atom 7.5959534666084503 5.4423344882077762 24.9231439965257806 O
atom 12.6120431300418296 6.3424684768326349 22.1553564732422892 O
atom 10.0615431006446574 9.9026844408178327 22.1551097436145454 O
atom 13.1148680836079787 9.3964876813594014 21.8673386878261375 O
atom 8.2840660175678025 10.3099081044931893 23.3955981978979537 Pb
atom 9.3735625920592742 2.3414779017635823 22.1547018727056440 Pb
atom 9.5595747740464443 11.2237251341622759 24.9229790750737976 O
atom 10.6485571437521234 0.5611811779999270 22.1554242373983818 O
atom 8.0976951731772999 4.1211790011225355 22.1553614158680325 O
atom 11.1510875000170202 3.6149839105215986 21.8677115223762577 O
atom 6.3206494516319029 0.1542248452418687 20.9148263650313204 Pb
atom 7.4103575291953838 0.9348875226552977 24.6358068005613688 Pb
atom 7.5960393885867505 1.0679561180258972 22.4423629021060833 O
atom 12.6119186732318003 10.7168736653375269 24.6361087644747734 O
atom 6.1343109906016897 2.7143346875546643 24.6361747270548044 O
atom 9.1878451899576650 2.2083806921059095 24.3481224591527763 O
atom 12.4259764517890137 4.5283647934188114 23.3959131161375318 Pb
atom 5.2318077862034578 8.1229443739062894 22.1550888684515890 Pb
atom 13.7016916933428305 5.4424256746713100 24.9229826651876003 O
atom 6.5064107992518014 6.3423356602833110 22.1554458657055200 O
atom 3.9558474132355603 9.9025509686682192 22.1555015721931845 O
atom 7.0089715218475996 9.3962816521717052 21.8677066841026821 O
atom 2.1784270825247556 5.9352042515759731 20.9150890698560552 Pb
atom 3.2679360552188457 6.7159033629415790 24.6354130339922008 Pb
atom 3.4543906335141012 6.8494411514149869 22.4418479710831456 O
atom 4.5427592331217888 4.9355780089035575 24.6360967677035596 O
atom 14.2032929633338565 8.4955915369514994 24.6360243175208211 O
atom 5.0453172553657621 7.9893828010220007 24.3486322384057665 O
atom 0.2148505973001887 0.1539705103522397 20.9152581362382470 Pb
atom 1.3043545928093774 0.9346878202767968 24.6359532171307940 Pb
atom 1.4904637539692021 1.0679070505895591 22.4424482605886091 O
atom 6.5064830195749428 10.7171034644703109 24.6358736146064210 O
atom 12.2399225334943598 2.7143454601917774 24.6361125016012785 O
atom 3.0818156648659110 2.2080794248041440 24.3486514008086807 O
atom 14.3894796777924743 10.3097206460915718 23.3958969391841478 Pb
atom 3.2679406314641590 2.3413191477017565 22.1551857197064379 Pb
atom 15.6649678880051120 11.2235695883878943 24.9232505918328933 O
atom 4.5431318164060643 0.5612882436936683 22.1551274635976228 O
atom 1.9922915435148572 4.1211664707470579 22.1553673260629687 O
atom 5.0452549640417743 3.6148247368013173 21.8679874082944714 O
atom 4.3567857985185547 3.1215623566809914 25.8766910056527060 Pb
atom 5.4465390888649310 3.9022414037024746 29.5968834750673686 Pb
atom 5.6325890128521960 4.0356435748555750 27.4037055370337264 O
atom 6.7215301362781874 2.1219224753190207 29.5975015509736359 O
atom 4.1709305585246401 5.6822751092467261 29.5972561703294836 O
atom 7.2240278361219037 5.1758790022945611 29.3099797155717248 O
atom 2.3932931519569158 1.7147790751484133 28.3574153638012767 Pb
atom 7.4103049772810055 5.3094389225470984 27.1165813027645832 Pb
atom 8.6850290744722916 3.5288817760796674 27.1168460107791880 O
atom 6.1345290450751229 7.0890977400648660 27.1165992811514407 O
atom 9.1878540280384424 6.5829009806064347 26.8288282253630364 O
atom 4.3570519619982546 7.4963214037402226 28.3570877354348490 Pb
atom 9.3734913641316986 11.0903817216362715 27.1161914102425392 Pb
atom 10.6484859158245477 9.3100849978726146 27.1169137749352878 O
atom 4.1706811176077530 1.3075923003695691 27.1168509534049313 O
atom 7.2240734444474883 0.8013972097686320 26.8292010599131565 O
atom 6.3205782237043291 8.9031286651145543 25.8763159025682192 Pb
atom 7.4102863012678055 9.6837913425279876 29.5972963380982641 Pb
atom 7.5959681606591714 9.8168599378985846 27.4038524396429786 O
atom 8.6849046176622533 7.9032869645845629 29.5975983020116651 O
atom 6.1342397626741105 11.4632385074273522 29.5976642645917032 O
atom 9.1877739620300858 10.9572845119785978 29.3096119966896786 O
atom 8.4989623962194631 1.7147780926658465 28.3574026536744306 Pb
atom 13.5159106938227431 5.3093576731533227 27.1165784059884807 Pb
atom 2.5793967436822607 3.5287489595303452 27.1169354032424188 O
atom 12.2399503208548524 7.0889642679152525 27.1169911097300904 O
atom 3.0819574662780562 6.5826949514187332 26.8291962216395845 O
atom 10.4625299901440467 3.1216175508230042 25.8765786073929540 Pb
atom 11.5520389628381359 3.9023166621886123 29.5969025715290961 Pb
atom 11.7384935411333871 4.0358544506620211 27.4033375086200444 O
atom 12.8268621407410741 2.1219913081505926 29.5975863052404584 O
atom 10.2762789077643042 5.6820048361985336 29.5975138550577164 O
atom 13.3294201629850484 5.1757961002690358 29.3101217759426653 O
atom 12.4258963325614360 8.9028743302249289 25.8767476737751423 Pb
atom 13.5154003280706156 9.6835916401494853 29.5974427546676857 Pb
atom 13.7015094892304443 9.8168108704622501 27.4039377981255079 O
atom 14.7905859271942219 7.9035167637173451 29.5973631521433198 O
atom 12.2398513055667859 11.4632492800644687 29.5976020391381773 O
atom 15.2928614001271654 10.9569832446768309 29.3101409383455724 O
atom 10.4624656222229344 7.4961339453386051 28.3573864767210431 Pb
atom 15.4789863667254135 11.0902229675744479 27.1166752572433332 Pb
atom 4.5430605884784860 9.3101920635663582 27.1166170011345251 O
atom 10.2763944511341432 1.3075797699940921 27.1168568635998675 O
atom 1.1182409084722278 0.8012380360483513 26.8294769458313702 O
