#===============================================================================
# Created using the Atomic Simulation Environment (ASE)

# Mon Mar 23 14:01:14 2026

#=======================================================
lattice_vector 12.2111169631888270 0.0000000000000000 0.0000000000000000 
lattice_vector -0.0000712279275758 10.0578176798185712 0.0000000000000000 
lattice_vector 0.0000000000000000 0.0000000000000000 46.0165028003635399 
atom 11.3373902607781218 2.5149177061271599 15.8784999844747112 Pb
atom 10.0616143285722437 4.0629824575365765 15.0006155772002394 O
atom 0.9038223483467310 3.4807050658232286 15.0000000000000000 O
atom 11.3373715847649255 7.5437253361906071 15.8785231985972466 Pb
atom 10.0613250461712322 9.0917786075219595 15.0010476051141062 O
atom 0.9037422823383795 8.5095736657212253 15.0000676577347818 O
atom 5.2318790141310361 2.5148456014739446 15.8785375447500812 Pb
atom 3.9559186411631364 4.0630596431069064 15.0010222550057541 O
atom 7.0090427497751806 3.4807073804534392 15.0004217391708359 O
atom 5.2313686483789219 7.5436238496994692 15.8787490732171079 Pb
atom 3.9558196258750762 9.0917572826006410 15.0009881635082394 O
atom 7.0088297204354557 8.5095725302705905 15.0006763776812413 O
atom 8.2838710820156667 0.0001351572167767 15.8792402777051826 Pb
atom 9.3736243723620483 2.5143765877356676 18.7301842990795500 Pb
atom 9.5596742963493160 1.5485302244413537 16.7566173735214043 O
atom 10.6486154197753002 0.9660513951612640 19.6089476158023608 O
atom 8.0980158420217521 4.0629424203450810 17.8524235151241086 O
atom 11.1511131196190156 3.4807356091306008 17.8523365095802653 O
atom 6.3203784354540344 0.0001626306650414 18.7310874933807412 Pb
atom 7.4103762052085838 2.5149752730214794 21.5822398584896682 Pb
atom 7.5960246945360321 1.5485602878306330 19.6086972255143941 O
atom 0.4009973947805836 0.9662109816614033 16.7570734324579362 O
atom 6.1346002730027012 4.0630400244308964 20.7043554512151928 O
atom 9.1879252559660145 3.4807626327175472 20.7037398740149534 O
atom 8.2841372454953817 5.0291394772181670 15.8787860223802220 Pb
atom 9.3735625920592724 7.5433998975032592 18.7301799723262654 Pb
atom 9.5596460019740253 6.5774854543704793 16.7566121114844009 O
atom 10.6485571437521234 5.9951454651900384 19.6090230523336224 O
atom 8.0976951731772946 9.0918179101067462 17.8528327797612505 O
atom 11.1510875000170273 8.5096017390438785 17.8523217736811368 O
atom 6.3206494516319083 5.0291670106667548 18.7306255551318266 Pb
atom 7.4103575291953865 7.5437829030849262 21.5822630726122036 Pb
atom 7.5960393885867523 6.5775151777792908 19.6086293503178908 O
atom 0.4008729379705522 5.9950828912250316 16.7571030234902132 O
atom 6.1343109906016906 9.0918361744162777 20.7047874791290596 O
atom 9.1878451899576667 8.5096312326155470 20.7038075317497352 O
atom 0.2149307165277563 0.0001555061764908 18.7310769219920132 Pb
atom 1.3048649585614935 2.5149031683682641 21.5822774187650381 Pb
atom 1.4906459580815712 1.5485600231462404 19.6085119076745720 O
atom 6.5064820271793771 0.9661395467370933 16.7572167094618329 O
atom 0.0289045855935916 4.0631172100012254 20.7047621290207111 O
atom 3.0820286942056416 3.4807649473477587 20.7041616131857928 O
atom 2.1784983104523308 0.0001277227461729 15.8791152797421837 Pb
atom 3.2680072831464244 2.5144514723851907 18.7301637855754066 Pb
atom 3.4544618614416800 1.5485321098428555 16.7561932155740756 O
atom 4.5428304610493617 0.9661530791710307 19.6089873852203240 O
atom 1.9922472280726014 4.0628344354068764 17.8527809898684779 O
atom 5.0453884832933316 3.4807335738179410 17.8525009776693651 O
atom 0.2148505973001886 5.0291587660192318 18.7311265986798325 Pb
atom 1.3043545928093798 7.5436814165937891 21.5824889472320613 Pb
atom 1.4904637539692061 6.5775146029962270 19.6087278051474918 O
atom 6.5065542475025122 5.9951667858556466 16.7567851165966708 O
atom 0.0288055703055372 9.0918148494949627 20.7047280375231928 O
atom 3.0818156648659176 8.5096300971649121 20.7044162516961912 O
atom 2.1784339425312256 5.0291237825848878 15.8791383584228001 Pb
atom 3.2679406314641652 7.5435004837185264 18.7306791648598754 Pb
atom 3.4539221527438611 6.5774840895157398 16.7569250235736042 O
atom 4.5431318164060626 5.9950921998925750 19.6087120851976060 O
atom 1.9922915435148609 9.0918099259016163 17.8528441020040596 O
atom 5.0452549640417788 8.5095993736726445 17.8526402759858591 O
atom 4.3568570264461330 0.0001927241110966 21.5829801517201325 Pb
atom 5.4466103167925048 2.5144341546299880 24.4339241730944998 Pb
atom 5.6326602407797779 1.5485877913356736 22.4603572475363578 O
atom 6.7216013642057586 0.9661089620555838 25.3126874898173178 O
atom 4.1710017864522060 4.0629999872394009 23.5561633891390656 O
atom 7.2240990640494740 3.4807931760249207 23.5560763835952223 O
atom 2.3933643798844986 0.0002201975593613 24.4348273673956946 Pb
atom 3.4833621496390470 2.5150328399157988 27.2859797325046252 Pb
atom 3.6690106389664905 1.5486178547249527 25.3124370995293440 O
atom 8.6851003023998690 0.9662685485557232 22.4608133064728896 O
atom 2.2075862174331617 4.0630975913252154 26.4080953252301462 O
atom 5.2609112003964817 3.4808201996118675 26.4074797480299068 O
atom 4.3571231899258418 5.0291970441124869 21.5825258963951718 Pb
atom 5.4465485364897335 7.5434574643975782 24.4339198463412153 Pb
atom 5.6326319464044845 6.5775430212647992 22.4603519854993543 O
atom 6.7215430881825853 5.9952030320843575 25.3127629263485794 O
atom 4.1706811176077574 9.0918754770010644 23.5565726537762039 O
atom 7.2240734444474848 8.5096593059381984 23.5560616476960867 O
atom 2.3936353960623631 5.0292245775610755 24.4343654291467800 Pb
atom 3.4833434736258497 7.5438404699792461 27.2860029466271534 Pb
atom 3.6690253330172133 6.5775727446736107 25.3123692243328478 O
atom 8.6849758455898396 5.9951404581193488 22.4608428975051666 O
atom 2.2072969350321570 9.0918937413105976 26.4085273531440130 O
atom 5.2608311343881251 8.5096887995098651 26.4075474057646886 O
atom 8.4990336241470459 0.0002130730708108 24.4348167960069702 Pb
atom 9.5889678661807789 2.5149607352625849 27.2860172927799880 Pb
atom 9.7747488657008610 1.5486175900405605 25.3122517816895289 O
atom 2.5794679716098399 0.9661971136314134 22.4609565834767864 O
atom 8.3130074932128828 4.0631747768955453 26.4085020030356645 O
atom 11.3661316018249288 3.4808225142420786 26.4079014872007427 O
atom 10.4626012180716152 0.0001852896404929 21.5828551537571336 Pb
atom 11.5521101907657133 2.5145090392795111 24.4339036595903600 Pb
atom 11.7385647690609680 1.5485896767371756 22.4599330895890326 O
atom 0.6158164054798272 0.9662106460653506 25.3127272592352810 O
atom 10.2763501356918887 4.0628920023011963 23.5565208638834314 O
atom 1.1183744277237944 3.4807911407122605 23.5562408516843185 O
atom 8.4989535049194735 5.0292163329135509 24.4348664726947824 Pb
atom 9.5884575004286710 7.5437389834881099 27.2862288212470183 Pb
atom 9.7745666615884907 6.5775721698905478 25.3124676791624452 O
atom 2.5795401919329679 5.9952243527499665 22.4605249906116242 O
atom 8.3129084779248217 9.0918724163892808 26.4084679115381498 O
atom 11.3659185724851994 8.5096876640592303 26.4081561257111481 O
atom 10.4625368501505136 5.0291813494792059 21.5828782324377535 Pb
atom 11.5520435390834493 7.5435580506128472 24.4344190388748324 Pb
atom 11.7380250603631495 6.5775416564100606 22.4606648975885577 O
atom 0.6161177608365254 5.9951497667868958 25.3124519592125630 O
atom 10.2763944511341450 9.0918674927959344 23.5565839760190094 O
atom 1.1182409084722371 8.5096569405669626 23.5563801500008161 O
atom 0.4298429708765906 0.0002502910054165 27.2867200257350895 Pb
atom 1.5195962612229685 2.5144917215243083 30.1376640471094497 Pb
atom 1.7056461852102360 1.5486453582299939 28.1640971215513147 O
atom 2.7945873086362272 0.9661665289499040 31.0164273638322747 O
atom 0.2439877308826692 4.0630575541337208 29.2599032631540119 O
atom 3.2970850084799292 3.4808507429192410 29.2598162576101721 O
atom 10.6774672875037826 0.0002777644536813 30.1385672414106516 Pb
atom 11.9531135465857794 1.5486754216192729 31.0161769735443009 O
atom 4.7580862468303291 0.9663261154500433 28.1645531804878466 O
atom 0.4301091343562991 5.0292546110068077 27.2862657704101252 Pb
atom 1.5195344809202020 7.5435150312918990 30.1376597203561722 Pb
atom 1.7056178908349451 6.5776005881591200 28.1640918595143077 O
atom 2.7945290326130428 5.9952605989786782 31.0165028003635364 O
atom 0.2436670620382156 9.0919330438953860 29.2603125277911538 O
atom 3.2970593888779431 8.5097168728325183 29.2598015217110436 O
atom 10.6777383036816591 5.0292821444553963 30.1381053031617334 Pb
atom 11.9531282406364934 6.5776303115679307 31.0161090983477941 O
atom 4.7579617900203024 5.9951980250136705 28.1645827715201236 O
atom 4.5720195685775042 0.0002706399651307 30.1385566700219236 Pb
atom 5.8477348101313114 1.5486751569348802 31.0159916557044788 O
atom 10.8635708792291261 0.9662546805257333 28.1646964574917362 O
atom 6.5355871625020816 0.0002428565348128 27.2865950277720870 Pb
atom 7.6250961351961726 2.5145666061738310 30.1376435336053099 Pb
atom 7.8115507134914237 1.5486472436314953 28.1636729636039895 O
atom 8.8999193130991063 0.9662682129596704 31.0164671332502273 O
atom 6.3493360801223444 4.0629495691955171 29.2602607378983812 O
atom 9.4024773353430788 3.4808487076065804 29.2599807256992754 O
atom 4.5719394493499319 5.0292738998078717 30.1386063467097323 Pb
atom 5.8475526060189464 6.5776297367848686 31.0162075531774057 O
atom 10.8636430995522648 5.9952819196442872 28.1642648646265741 O
atom 6.5355227945809711 5.0292389163735267 27.2866181064527069 Pb
atom 7.6250294835139112 7.5436156175071680 30.1381589128897893 Pb
atom 7.8110110047936070 6.5775992233043805 28.1644047716035075 O
atom 8.9002206684558001 5.9952073336812166 31.0161918332275128 O
atom 6.3493803955646095 9.0919250596902561 29.2603238500339664 O
atom 9.4023438160915216 8.5097145074612843 29.2601200240157588 O
