#===============================================================================
# Created using the Atomic Simulation Environment (ASE)

# Mon Mar 23 14:01:14 2026

#=======================================================
lattice_vector 10.0578176800707837 0.0000000000000000 0.0000000000000000 
lattice_vector 0.0000853774076561 6.9248890199838939 0.0000000000000000 
lattice_vector 0.0000000000000000 0.0000000000000000 39.4756562035059844 
atom 0.9660912690889331 1.7319798270102866 15.0001753400026274 O
atom 0.9661187078031371 5.1944245455533915 15.0000000000000000 O
atom 5.9951185075699245 1.7315631902267756 15.0000194085877183 O
atom 5.9950578262644214 5.1940067014827767 15.0001214285906457 O
atom 0.0000742923952093 0.0008973386026081 15.9662413660134206 Pb
atom 2.5143080053848084 1.7311050933755605 18.4805730823067975 Pb
atom 1.5484603245375881 0.0000584096684271 17.5146249379480494 O
atom 0.9659737835575022 1.7318809420527279 20.0290557510310663 O
atom 4.0628828716200394 1.7315051543104687 16.9321503434954366 O
atom 3.4806544388518721 0.0000642675008770 19.4468054436287829 O
atom 0.0001156709982966 3.4633149785905388 15.9662403262441472 Pb
atom 2.5149205940940624 5.1935556939651590 18.4808915622856631 Pb
atom 1.5485042941932230 3.4627566696693894 17.5146265457685786 O
atom 0.9662048422659141 5.1943265412601347 20.0290466810320140 O
atom 4.0629943803148230 5.1939488649932839 16.9322608335060636 O
atom 3.4806953654352153 3.4619434874847630 19.4468037384841352 O
atom 5.0290786103855627 0.0003520531667683 15.9662323257022791 Pb
atom 7.5433313154638100 1.7311163677399612 18.4805490772162173 Pb
atom 6.5774155545409849 0.0000499245205584 17.5146279830234590 O
atom 5.9950678538728663 1.7319559265650009 20.0290798653971294 O
atom 9.0917583635265249 1.7320038994124045 16.9321476442097349 O
atom 8.5095205688204807 0.0000464626600214 19.4468053187793686 O
atom 5.0291200489546064 3.4627606131513793 15.9662309260109865 Pb
atom 7.5437282241636670 5.1935652095777263 18.4809186771983889 Pb
atom 6.5774591839117136 3.4626722345219401 17.5146294914963363 O
atom 5.9950767525848212 5.1944012959142762 20.0289902853879056 O
atom 9.0917905322227561 5.1944485607257702 16.9322968942078660 O
atom 8.5095639657741238 3.4620244226507859 19.4468054927867584 O
atom 0.0000653070933473 0.0008610440587380 20.9952173265102005 Pb
atom 2.5148052504743426 1.7311774294621252 23.5098435318981984 Pb
atom 1.5484607896039080 0.0001196847487086 22.5435612676072807 O
atom 4.0630283282248234 1.7319792204233113 21.9612702096170125 O
atom 3.4806544438276630 0.0001001618478961 24.4756562035059844 O
atom 0.0001089953850973 3.4631956740287291 20.9952152074540379 Pb
atom 2.5144250292250407 5.1936280372733554 23.5094049418226874 Pb
atom 1.5485043462641019 3.4620194147367278 22.5435611922866173 O
atom 4.0628170269456225 5.1944253596634189 21.9610717495891237 O
atom 3.4806945434915555 3.4628005618273878 24.4756536213079272 O
atom 5.0290685673773723 0.0009271986316561 20.9952088409471429 Pb
atom 7.5435835021880999 1.7316208826236423 23.5095724530820931 Pb
atom 6.5774153706181320 0.0003806395916710 22.5435629603683552 O
atom 9.0917259682936731 1.7319870956009795 21.9611986545378173 O
atom 8.5095195950273510 0.0004105069969613 24.4756544758379562 O
atom 5.0291050555535470 3.4632309886105350 20.9952046121554901 Pb
atom 7.5434740409042869 5.1940701340383253 23.5096716430330517 Pb
atom 6.5774563296330140 3.4629080395731822 22.5435609896562994 O
atom 9.0917925170004192 5.1944320152862824 21.9611733745355977 O
atom 8.5095603441657151 3.4629708169747073 24.4756519748431955 O
