#===============================================================================
# Created using the Atomic Simulation Environment (ASE)

# Mon Mar 23 14:01:14 2026

#=======================================================
lattice_vector 10.0578176800707837 0.0000000000000000 0.0000000000000000 
lattice_vector 0.0000853774076561 6.9248890199838939 0.0000000000000000 
lattice_vector 0.0000000000000000 0.0000000000000000 31.9320952138496850 
atom 2.5148052504743426 1.7311774294621252 15.9662825422418990 Pb
atom 1.5484607896039080 0.0001196847487086 15.0000002779509813 O
atom 3.4806544438276630 0.0001001618478961 16.9320952138496850 O
atom 2.5144250292250407 5.1936280372733554 15.9658439521663880 Pb
atom 1.5485043462641019 3.4620194147367278 15.0000002026303179 O
atom 3.4806945434915555 3.4628005618273878 16.9320926316516278 O
atom 7.5435835021880999 1.7316208826236423 15.9660114634257937 Pb
atom 6.5774153706181320 0.0003806395916710 15.0000019707120558 O
atom 8.5095195950273510 0.0004105069969613 16.9320934861816568 O
atom 7.5434740409042869 5.1940701340383253 15.9661106533767523 Pb
atom 6.5774563296330140 3.4629080395731822 15.0000000000000000 O
atom 8.5095603441657151 3.4629708169747073 16.9320909851868961 O
