#===============================================================================
# Created using the Atomic Simulation Environment (ASE)

# Mon Mar 23 14:01:14 2026

#=======================================================
lattice_vector 10.0578176800707837 0.0000000000000000 0.0000000000000000 
lattice_vector 0.0000853774076561 6.9248890199838939 0.0000000000000000 
lattice_vector 0.0000000000000000 0.0000000000000000 52.0476622724582256 
atom 2.5148074501870088 1.7309290506568988 15.9662825422419097 Pb
atom 1.5485483667242301 6.9247603259273758 15.0000002779509813 O
atom 0.9660923689452660 1.7318556376076737 17.5143978796506019 O
atom 3.4807420209479853 6.9247408030265651 16.9320952138496992 O
atom 2.5144272289377070 5.1933796584681300 15.9658439521663880 Pb
atom 1.5485065459767682 3.4617710359315019 15.0000002026303143 O
atom 0.9661198076594701 5.1943003561507792 17.5142225396479674 O
atom 3.4806967432042222 3.4625521830221611 16.9320926316516349 O
atom 7.5435857019007653 1.7313725038184160 15.9660114634257972 Pb
atom 6.5774175703307964 0.0001322607864460 15.0000019707120664 O
atom 5.9951196074262585 1.7314390008241629 17.5142419482356893 O
atom 8.5095217947400155 0.0001621281917363 16.9320934861816568 O
atom 7.5434762406169513 5.1938217552330990 15.9661106533767594 Pb
atom 6.5774585293456793 3.4626596607679563 15.0000000000000000 O
atom 5.9950589261207554 5.1938825120801635 17.5143439682386237 O
atom 8.5095625438783813 3.4627224381694810 16.9320909851869068 O
atom 0.0000753922515423 0.0007731491999951 18.4804639056614022 Pb
atom 2.5143091052411415 1.7309809039729471 20.9947956219547720 Pb
atom 1.5485468018015773 6.9248232402497072 20.0288474775960204 O
atom 0.9659748834138352 1.7317567526501150 22.5432782906790479 O
atom 4.0628839714763716 1.7313809649078555 19.4463728831434111 O
atom 3.4807409161158613 6.9248290980821565 21.9610279832767574 O
atom 0.0001167708546296 3.4631907891879252 18.4804628658921253 Pb
atom 2.5149216939503956 5.1934315045625450 20.9951141019336340 Pb
atom 1.5485053940495561 3.4626324802667767 20.0288490854165531 O
atom 0.9662059421222470 5.1942023518575215 22.5432692206799885 O
atom 4.0629954801711552 5.1938246755906707 19.4464833731540416 O
atom 3.4806964652915484 3.4618192980821498 21.9610262781321097 O
atom 5.0290797102418958 0.0002278637641558 18.4804548653502430 Pb
atom 7.5433324153201422 1.7309921783373479 20.9947716168641918 Pb
atom 6.5775020318049737 6.9248147551018393 20.0288505226714406 O
atom 5.9950689537291986 1.7318317371623879 22.5433024050451039 O
atom 9.0917594633828571 1.7318797100097916 19.4463701838577130 O
atom 8.5096070460844686 6.9248112932413024 21.9610278584273502 O
atom 5.0291211488109395 3.4626364237487666 18.4804534656589645 Pb
atom 7.5437293240200001 5.1934410201751122 20.9951412168463705 Pb
atom 6.5774602837680449 3.4625480451193269 20.0288520311443143 O
atom 5.9950778524411534 5.1942771065116631 22.5432128250358872 O
atom 9.0917916320790884 5.1943243713231579 19.4465194338558405 O
atom 8.5095650656304560 3.4619002332481732 21.9610280324347329 O
atom 0.0000664069496803 0.0007368546561250 23.5094398661581749 Pb
atom 2.5148063503306766 1.7310532400595120 26.0240660715461729 Pb
atom 1.5485472668678972 6.9248845153299889 25.0577838072552481 O
atom 0.9660912690889331 1.7319798270102866 27.5721814089548687 O
atom 4.0630294280811565 1.7318550310206982 24.4754927492649870 O
atom 3.4807409210916522 6.9248649924291765 26.9898787431539660 O
atom 0.0001100952414303 3.4630714846261159 23.5094377471020195 Pb
atom 2.5144261290813739 5.1935038478707423 26.0236274814706547 Pb
atom 1.5485054461204348 3.4618952253341151 25.0577837319345846 O
atom 0.9661187078031371 5.1944245455533915 27.5720060689522413 O
atom 4.0628181268019548 5.1943011702608057 24.4752942892370910 O
atom 3.4806956433478891 3.4626763724247751 26.9898761609559017 O
atom 5.0290696672337045 0.0008030092290431 23.5094313805951103 Pb
atom 7.5435846020444322 1.7314966932210289 26.0237949927300676 Pb
atom 6.5774164704744624 0.0002564501890569 25.0577855000163296 O
atom 5.9951185075699245 1.7315631902267756 27.5720254775399596 O
atom 9.0917270681500053 1.7318629061983666 24.4754211941857918 O
atom 8.5095206948836815 0.0002863175943488 26.9898770154859236 O
atom 5.0291061554098802 3.4631067992079223 23.5094271518034574 Pb
atom 7.5434751407606182 5.1939459446357121 26.0238941826810262 Pb
atom 6.5774574294893462 3.4627838501705690 25.0577835293042668 O
atom 5.9950578262644214 5.1940067014827767 27.5721274975428869 O
atom 9.0917936168567515 5.1943078258836692 24.4753959141835793 O
atom 8.5095614440220473 3.4628466275720942 26.9898745144911771 O
atom 0.0000742923952093 0.0008973386026081 28.5382474349656619 Pb
atom 2.5143080053848084 1.7311050933755605 31.0525791512590388 Pb
atom 1.5484603245375881 0.0000584096684271 30.0866310069002907 O
atom 0.9659737835575022 1.7318809420527279 32.6010618199833075 O
atom 4.0628828716200394 1.7315051543104687 29.5041564124476778 O
atom 3.4806544388518721 0.0000642675008770 32.0188115125810242 O
atom 0.0001156709982966 3.4633149785905388 28.5382463951963885 Pb
atom 2.5149205940940624 5.1935556939651590 31.0528976312379044 Pb
atom 1.5485042941932230 3.4627566696693894 30.0866326147208198 O
atom 0.9662048422659141 5.1943265412601347 32.6010527499842553 O
atom 4.0629943803148230 5.1939488649932839 29.5042669024583049 O
atom 3.4806953654352153 3.4619434874847630 32.0188098074363765 O
atom 5.0290786103855627 0.0003520531667683 28.5382383946545204 Pb
atom 7.5433313154638100 1.7311163677399612 31.0525551461684586 Pb
atom 6.5774155545409849 0.0000499245205584 30.0866340519757003 O
atom 5.9950678538728663 1.7319559265650009 32.6010859343493706 O
atom 9.0917583635265249 1.7320038994124045 29.5041537131619762 O
atom 8.5095205688204807 0.0000464626600214 32.0188113877316098 O
atom 5.0291200489546064 3.4627606131513793 28.5382369949632277 Pb
atom 7.5437282241636670 5.1935652095777263 31.0529247461506301 Pb
atom 6.5774591839117136 3.4626722345219401 30.0866355604485776 O
atom 5.9950767525848212 5.1944012959142762 32.6009963543401469 O
atom 9.0917905322227561 5.1944485607257702 29.5043029631601073 O
atom 8.5095639657741238 3.4620244226507859 32.0188115617389997 O
atom 0.0000653070933473 0.0008610440587380 33.5672233954624417 Pb
atom 2.5148052504743426 1.7311774294621252 36.0818496008504397 Pb
atom 1.5484607896039080 0.0001196847487086 35.1155673365595220 O
atom 4.0630283282248234 1.7319792204233113 34.5332762785692537 O
atom 3.4806544438276630 0.0001001618478961 37.0476622724582256 O
atom 0.0001089953850973 3.4631956740287291 33.5672212764062792 Pb
atom 2.5144250292250407 5.1936280372733554 36.0814110107749286 Pb
atom 1.5485043462641019 3.4620194147367278 35.1155672612388585 O
atom 4.0628170269456225 5.1944253596634189 34.5330778185413649 O
atom 3.4806945434915555 3.4628005618273878 37.0476596902601685 O
atom 5.0290685673773723 0.0009271986316561 33.5672149098993842 Pb
atom 7.5435835021880999 1.7316208826236423 36.0815785220343344 Pb
atom 6.5774153706181320 0.0003806395916710 35.1155690293205964 O
atom 9.0917259682936731 1.7319870956009795 34.5332047234900585 O
atom 8.5095195950273510 0.0004105069969613 37.0476605447901974 O
atom 5.0291050555535470 3.4632309886105350 33.5672106811077313 Pb
atom 7.5434740409042869 5.1940701340383253 36.0816777119852929 Pb
atom 6.5774563296330140 3.4629080395731822 35.1155670586085407 O
atom 9.0917925170004192 5.1944320152862824 34.5331794434878390 O
atom 8.5095603441657151 3.4629708169747073 37.0476580437954368 O
