#===============================================================================
# Created using the Atomic Simulation Environment (ASE)

# Mon Mar 23 14:01:13 2026

#=======================================================
lattice_vector 12.2111169631888270 0.0000000000000000 0.0000000000000000 
lattice_vector 3.9269428276419625 11.5624905206256550 0.0000000000000000 
lattice_vector 0.0000000000000000 0.0000000000000000 39.9237598645981322 
atom 13.3005672000040125 9.5294148052084111 15.0000000000000000 Pb
atom 14.5755582474172662 7.7490958768249536 15.0006180759062673 O
atom 12.0249586696637127 11.3094485107526594 15.0003726952621186 O
atom 11.5229675221779964 8.2559211889607429 15.2877500589953144 O
atom 9.5596460019740217 2.4748213142895885 15.2875851375433243 O
atom 11.3373715847649255 3.7484742234082660 15.0004128630308955 Pb
atom 12.6119899011593795 1.9679698454648407 15.0007148269443000 O
atom 10.0613250461712287 5.5279213883076324 15.0007807895243346 O
atom 5.4175887857235345 8.2560123754242767 15.2875887276571305 O
atom 7.1949501107883878 9.5294900636945474 15.0000190964617275 Pb
atom 8.4697732886913286 7.7491647096565250 15.0007028301730898 O
atom 5.9191900557145711 11.3091782377044687 15.0006303799903549 O
atom 5.2313686483789139 3.7482745210297650 15.0005592796003171 Pb
atom 6.5065542475025104 1.9681996445976226 15.0004796770759512 O
atom 3.9558196258750695 5.5279321609447480 15.0007185640708052 O
atom 3.4539221527438553 2.4746657685152087 15.2878566543024235 O
atom 8.2837998540880911 5.9351490574339580 16.2412970681222362 Pb
atom 9.3735531444344673 6.7158281044554435 19.9614895375368953 Pb
atom 9.5596030684217386 6.8492302756085417 17.7683115995032530 O
atom 10.6485441918477193 4.9355091760719896 19.9621076134431590 O
atom 8.0979446140941711 8.4958618099996936 19.9618622327990138 O
atom 11.1510418916914453 7.9894657030475242 19.6745857780412550 O
atom 6.3203072075264624 4.5283657759013787 18.7220214262708176 Pb
atom 11.3373190328505498 8.1230256233000659 17.4811873652341170 Pb
atom 7.5959534666084503 5.4423344882077762 20.2492395965322096 O
atom 12.6120431300418296 6.3424684768326349 17.4814520732487182 O
atom 10.0615431006446574 9.9026844408178327 17.4812053436209744 O
atom 13.1148680836079787 9.3964876813594014 17.1934342878325666 O
atom 8.2840660175678025 10.3099081044931893 18.7216937979043827 Pb
atom 9.3735625920592742 2.3414779017635823 17.4807974727120730 Pb
atom 9.5595747740464443 11.2237251341622759 20.2490746750802266 O
atom 10.6485571437521234 0.5611811779999270 17.4815198374048109 O
atom 8.0976951731772999 4.1211790011225355 17.4814570158744615 O
atom 11.1510875000170202 3.6149839105215986 17.1938071223826867 O
atom 6.3206494516319029 0.1542248452418687 16.2409219650377494 Pb
atom 7.4103575291953838 0.9348875226552977 19.9619024005677979 Pb
atom 7.5960393885867505 1.0679561180258972 17.7684585021125123 O
atom 12.6119186732318003 10.7168736653375269 19.9622043644812024 O
atom 6.1343109906016897 2.7143346875546643 19.9622703270612334 O
atom 9.1878451899576650 2.2083806921059095 19.6742180591592053 O
atom 12.4259764517890137 4.5283647934188114 18.7220087161439608 Pb
atom 5.2318077862034578 8.1229443739062894 17.4811844684580180 Pb
atom 13.7016916933428305 5.4424256746713100 20.2490782651940293 O
atom 6.5064107992518014 6.3423356602833110 17.4815414657119490 O
atom 3.9558474132355603 9.9025509686682192 17.4815971721996135 O
atom 7.0089715218475996 9.3962816521717052 17.1938022841091112 O
atom 2.1784270825247556 5.9352042515759731 16.2411846698624842 Pb
atom 3.2679360552188457 6.7159033629415790 19.9615086339986298 Pb
atom 3.4543906335141012 6.8494411514149869 17.7679435710895746 O
atom 4.5427592331217888 4.9355780089035575 19.9621923677099886 O
atom 14.2032929633338565 8.4955915369514994 19.9621199175272501 O
atom 5.0453172553657621 7.9893828010220007 19.6747278384121955 O
atom 0.2148505973001887 0.1539705103522397 16.2413537362446760 Pb
atom 1.3043545928093774 0.9346878202767968 19.9620488171372230 Pb
atom 1.4904637539692021 1.0679070505895591 17.7685438605950381 O
atom 6.5064830195749428 10.7171034644703109 19.9619692146128500 O
atom 12.2399225334943598 2.7143454601917774 19.9622081016077075 O
atom 3.0818156648659110 2.2080794248041440 19.6747470008151097 O
atom 14.3894796777924743 10.3097206460915718 18.7219925391905768 Pb
atom 3.2679406314641590 2.3413191477017565 17.4812813197128669 Pb
atom 15.6649678880051120 11.2235695883878943 20.2493461918393223 O
atom 4.5431318164060643 0.5612882436936683 17.4812230636040518 O
atom 1.9922915435148572 4.1211664707470579 17.4814629260693977 O
atom 5.0452549640417743 3.6148247368013173 17.1940830083009004 O
atom 4.3567857985185547 3.1215623566809914 21.2027866056591350 Pb
atom 5.4465390888649310 3.9022414037024746 24.9229790750737976 Pb
atom 5.6325890128521960 4.0356435748555750 22.7298011370401554 O
atom 6.7215301362781874 2.1219224753190207 24.9235971509800649 O
atom 4.1709305585246401 5.6822751092467261 24.9233517703359126 O
atom 7.2240278361219037 5.1758790022945611 24.6360753155781538 O
atom 2.3932931519569158 1.7147790751484133 23.6835109638077057 Pb
atom 7.4103049772810055 5.3094389225470984 22.4426769027710122 Pb
atom 8.6850290744722916 3.5288817760796674 22.4429416107856170 O
atom 6.1345290450751229 7.0890977400648660 22.4426948811578697 O
atom 9.1878540280384424 6.5829009806064347 22.1549238253694654 O
atom 4.3570519619982546 7.4963214037402226 23.6831833354412780 Pb
atom 9.3734913641316986 11.0903817216362715 22.4422870102489682 Pb
atom 10.6484859158245477 9.3100849978726146 22.4430093749417168 O
atom 4.1706811176077530 1.3075923003695691 22.4429465534113604 O
atom 7.2240734444474883 0.8013972097686320 22.1552966599195855 O
atom 6.3205782237043291 8.9031286651145543 21.2024115025746482 Pb
atom 7.4102863012678055 9.6837913425279876 24.9233919381046931 Pb
atom 7.5959681606591714 9.8168599378985846 22.7299480396494076 O
atom 8.6849046176622533 7.9032869645845629 24.9236939020180941 O
atom 6.1342397626741105 11.4632385074273522 24.9237598645981322 O
atom 9.1877739620300858 10.9572845119785978 24.6357075966961077 O
atom 8.4989623962194631 1.7147780926658465 23.6834982536808596 Pb
atom 13.5159106938227431 5.3093576731533227 22.4426740059949097 Pb
atom 2.5793967436822607 3.5287489595303452 22.4430310032488478 O
atom 12.2399503208548524 7.0889642679152525 22.4430867097365194 O
atom 3.0819574662780562 6.5826949514187332 22.1552918216460135 O
atom 10.4625299901440467 3.1216175508230042 21.2026742073993830 Pb
atom 11.5520389628381359 3.9023166621886123 24.9229981715355251 Pb
atom 11.7384935411333871 4.0358544506620211 22.7294331086264734 O
atom 12.8268621407410741 2.1219913081505926 24.9236819052468874 O
atom 10.2762789077643042 5.6820048361985336 24.9236094550641454 O
atom 13.3294201629850484 5.1757961002690358 24.6362173759490943 O
atom 12.4258963325614360 8.9028743302249289 21.2028432737815713 Pb
atom 13.5154003280706156 9.6835916401494853 24.9235383546741147 Pb
atom 13.7015094892304443 9.8168108704622501 22.7300333981319369 O
atom 14.7905859271942219 7.9035167637173451 24.9234587521497488 O
atom 12.2398513055667859 11.4632492800644687 24.9236976391446063 O
atom 15.2928614001271654 10.9569832446768309 24.6362365383520014 O
atom 10.4624656222229344 7.4961339453386051 23.6834820767274721 Pb
atom 15.4789863667254135 11.0902229675744479 22.4427708572497622 Pb
atom 4.5430605884784860 9.3101920635663582 22.4427126011409541 O
atom 10.2763944511341432 1.3075797699940921 22.4429524636062965 O
atom 1.1182409084722278 0.8012380360483513 22.1555725458377992 O
