#===============================================================================
# Created using the Atomic Simulation Environment (ASE)

# Mon Mar 23 14:01:13 2026

#=======================================================
lattice_vector 12.2111169631888270 0.0000000000000000 0.0000000000000000 
lattice_vector 3.9269428276419625 11.5624905206256550 0.0000000000000000 
lattice_vector 0.0000000000000000 0.0000000000000000 42.4044519294229616 
atom 13.3005672000040125 9.5294148052084111 17.4806920648248258 Pb
atom 13.4866171239912838 9.6628169763615084 15.2875141267911836 O
atom 14.5755582474172662 7.7490958768249536 17.4813101407310931 O
atom 12.0249586696637127 11.3094485107526594 17.4810647600869444 O
atom 15.0780559472609816 10.8030524038004927 17.1937883053291856 O
atom 10.2473212630959996 7.3419524766543462 16.2412239535587410 Pb
atom 15.2643330884200843 10.9366123240530317 15.0003898925220440 Pb
atom 11.5229675221779964 8.2559211889607429 17.7684421238201402 O
atom 4.3279402224225452 9.1560551775856016 15.0006546005366452 O
atom 10.0616143285722384 1.1537806209451453 15.0004078709088979 O
atom 8.2841372454953834 1.5610042846205006 16.2408963251923062 Pb
atom 13.3005766476288176 5.1550646025165499 15.0000000000000000 Pb
atom 9.5596460019740217 2.4748213142895885 17.7682772023681501 O
atom 2.3644542361328358 3.3747678787528943 15.0007223646927379 O
atom 12.0247092287468398 6.9347657018755040 15.0006595431623886 O
atom 11.3373715847649255 3.7484742234082660 17.4811049278557213 Pb
atom 11.5230534441562913 3.8815428187788661 15.2876610294004394 O
atom 12.6119899011593795 1.9679698454648407 17.4814068917691259 O
atom 10.0613250461712287 5.5279213883076324 17.4814728543491604 O
atom 13.1148592455272031 5.0219673928588788 17.1934205864471323 O
atom 4.1418735441697248 7.3419514941717807 16.2412112434318843 Pb
atom 9.1588218417729959 10.9365310746592570 15.0003869957459415 Pb
atom 5.4175887857235345 8.2560123754242767 17.7682807924819564 O
atom 10.4334248548213431 9.1559223610362785 15.0007439929998760 O
atom 3.9559186411631369 1.1536471487955327 15.0007996994875477 O
atom 7.1949501107883878 9.5294900636945474 17.4807111612865533 Pb
atom 7.3814046890836460 9.6630278521679553 15.2871460983775016 O
atom 8.4697732886913286 7.7491647096565250 17.4813948949979157 O
atom 5.9191900557145711 11.3091782377044687 17.4813224448151807 O
atom 8.9723313109352976 10.8029695017749692 17.1939303657001261 O
atom 5.2313686483789139 3.7482745210297650 17.4812513444251429 Pb
atom 5.4174778095387435 3.8814937513425263 15.2877463878829616 O
atom 6.5065542475025104 1.9681996445976226 17.4811717419007771 O
atom 3.9558196258750695 5.5279321609447480 17.4814106288956310 O
atom 7.0088297204354557 5.0216661255571120 17.1939495281030368 O
atom 2.1784339425312220 1.5608168262188853 16.2411950664785039 Pb
atom 7.1949546870337020 5.1549058484547254 15.0004838470007940 Pb
atom 3.4539221527438553 2.4746657685152087 17.7685487191272493 O
atom 8.4701458719756015 3.3748749444466375 15.0004255908919824 O
atom 5.9193055990843995 6.9347531715000255 15.0006654533573247 O
atom 8.2837998540880911 5.9351490574339580 18.7219891329470620 Pb
atom 9.3735531444344673 6.7158281044554435 22.4421816023617211 Pb
atom 9.5596030684217386 6.8492302756085417 20.2490036643280789 O
atom 10.6485441918477193 4.9355091760719896 22.4427996782679848 O
atom 8.0979446140941711 8.4958618099996936 22.4425542976238397 O
atom 11.1510418916914453 7.9894657030475242 22.1552778428660808 O
atom 6.3203072075264624 4.5283657759013787 21.2027134910956434 Pb
atom 11.3373190328505498 8.1230256233000659 19.9618794300589428 Pb
atom 7.5959534666084503 5.4423344882077762 22.7299316613570355 O
atom 12.6120431300418296 6.3424684768326349 19.9621441380735440 O
atom 10.0615431006446574 9.9026844408178327 19.9618974084458003 O
atom 13.1148680836079787 9.3964876813594014 19.6741263526573924 O
atom 8.2840660175678025 10.3099081044931893 21.2023858627292086 Pb
atom 9.3735625920592742 2.3414779017635823 19.9614895375368988 Pb
atom 9.5595747740464443 11.2237251341622759 22.7297667399050525 O
atom 10.6485571437521234 0.5611811779999270 19.9622119022296367 O
atom 8.0976951731772999 4.1211790011225355 19.9621490806992874 O
atom 11.1510875000170202 3.6149839105215986 19.6744991872075126 O
atom 6.3206494516319029 0.1542248452418687 18.7216140298625753 Pb
atom 7.4103575291953838 0.9348875226552977 22.4425944653926237 Pb
atom 7.5960393885867505 1.0679561180258972 20.2491505669373382 O
atom 12.6119186732318003 10.7168736653375269 22.4428964293060282 O
atom 6.1343109906016897 2.7143346875546643 22.4429623918860592 O
atom 9.1878451899576650 2.2083806921059095 22.1549101239840311 O
atom 12.4259764517890137 4.5283647934188114 21.2027007809687866 Pb
atom 5.2318077862034578 8.1229443739062894 19.9618765332828438 Pb
atom 13.7016916933428305 5.4424256746713100 22.7297703300188552 O
atom 6.5064107992518014 6.3423356602833110 19.9622335305367749 O
atom 3.9558474132355603 9.9025509686682192 19.9622892370244394 O
atom 7.0089715218475996 9.3962816521717052 19.6744943489339370 O
atom 2.1784270825247556 5.9352042515759731 18.7218767346873101 Pb
atom 3.2679360552188457 6.7159033629415790 22.4422006988234557 Pb
atom 3.4543906335141012 6.8494411514149869 20.2486356359144004 O
atom 4.5427592331217888 4.9355780089035575 22.4428844325348145 O
atom 14.2032929633338565 8.4955915369514994 22.4428119823520760 O
atom 5.0453172553657621 7.9893828010220007 22.1554199032370214 O
atom 0.2148505973001887 0.1539705103522397 18.7220458010695019 Pb
atom 1.3043545928093774 0.9346878202767968 22.4427408819620489 Pb
atom 1.4904637539692021 1.0679070505895591 20.2492359254198639 O
atom 6.5064830195749428 10.7171034644703109 22.4426612794376759 O
atom 12.2399225334943598 2.7143454601917774 22.4429001664325334 O
atom 3.0818156648659110 2.2080794248041440 22.1554390656399356 O
atom 14.3894796777924743 10.3097206460915718 21.2026846040154027 Pb
atom 3.2679406314641590 2.3413191477017565 19.9619733845376928 Pb
atom 15.6649678880051120 11.2235695883878943 22.7300382566641481 O
atom 4.5431318164060643 0.5612882436936683 19.9619151284288776 O
atom 1.9922915435148572 4.1211664707470579 19.9621549908942235 O
atom 5.0452549640417743 3.6148247368013173 19.6747750731257263 O
atom 4.3567857985185547 3.1215623566809914 23.6834786704839608 Pb
atom 5.4465390888649310 3.9022414037024746 27.4036711398986235 Pb
atom 5.6325890128521960 4.0356435748555750 25.2104932018649812 O
atom 6.7215301362781874 2.1219224753190207 27.4042892158048907 O
atom 4.1709305585246401 5.6822751092467261 27.4040438351607385 O
atom 7.2240278361219037 5.1758790022945611 27.1167673804029796 O
atom 2.3932931519569158 1.7147790751484133 26.1642030286325316 Pb
atom 7.4103049772810055 5.3094389225470984 24.9233689675958381 Pb
atom 8.6850290744722916 3.5288817760796674 24.9236336756104429 O
atom 6.1345290450751229 7.0890977400648660 24.9233869459826956 O
atom 9.1878540280384424 6.5829009806064347 24.6356158901942912 O
atom 4.3570519619982546 7.4963214037402226 26.1638754002661038 Pb
atom 9.3734913641316986 11.0903817216362715 24.9229790750737941 Pb
atom 10.6484859158245477 9.3100849978726146 24.9237014397665426 O
atom 4.1706811176077530 1.3075923003695691 24.9236386182361862 O
atom 7.2240734444474883 0.8013972097686320 24.6359887247444114 O
atom 6.3205782237043291 8.9031286651145543 23.6831035673994741 Pb
atom 7.4102863012678055 9.6837913425279876 27.4040840029295190 Pb
atom 7.5959681606591714 9.8168599378985846 25.2106401044742334 O
atom 8.6849046176622533 7.9032869645845629 27.4043859668429199 O
atom 6.1342397626741105 11.4632385074273522 27.4044519294229580 O
atom 9.1877739620300858 10.9572845119785978 27.1163996615209335 O
atom 8.4989623962194631 1.7147780926658465 26.1641903185056854 Pb
atom 13.5159106938227431 5.3093576731533227 24.9233660708197355 Pb
atom 2.5793967436822607 3.5287489595303452 24.9237230680736737 O
atom 12.2399503208548524 7.0889642679152525 24.9237787745613453 O
atom 3.0819574662780562 6.5826949514187332 24.6359838864708394 O
atom 10.4625299901440467 3.1216175508230042 23.6833662722242089 Pb
atom 11.5520389628381359 3.9023166621886123 27.4036902363603510 Pb
atom 11.7384935411333871 4.0358544506620211 25.2101251734512992 O
atom 12.8268621407410741 2.1219913081505926 27.4043739700717133 O
atom 10.2762789077643042 5.6820048361985336 27.4043015198889712 O
atom 13.3294201629850484 5.1757961002690358 27.1169094407739202 O
atom 12.4258963325614360 8.9028743302249289 23.6835353386063971 Pb
atom 13.5154003280706156 9.6835916401494853 27.4042304194989406 Pb
atom 13.7015094892304443 9.8168108704622501 25.2107254629567628 O
atom 14.7905859271942219 7.9035167637173451 27.4041508169745747 O
atom 12.2398513055667859 11.4632492800644687 27.4043897039694322 O
atom 15.2928614001271654 10.9569832446768309 27.1169286031768273 O
atom 10.4624656222229344 7.4961339453386051 26.1641741415522979 Pb
atom 15.4789863667254135 11.0902229675744479 24.9234629220745880 Pb
atom 4.5430605884784860 9.3101920635663582 24.9234046659657800 O
atom 10.2763944511341432 1.3075797699940921 24.9236445284311223 O
atom 1.1182409084722278 0.8012380360483513 24.6362646106626251 O
