#===============================================================================
# Created using the Atomic Simulation Environment (ASE)

# Mon Mar 23 14:01:14 2026

#=======================================================
lattice_vector 10.0578176800707837 0.0000000000000000 0.0000000000000000 
lattice_vector 0.0000853774076561 6.9248890199838939 0.0000000000000000 
lattice_vector 0.0000000000000000 0.0000000000000000 47.0188147948622088 
atom 2.5143091052411415 1.7309809039729471 15.9659481443587516 Pb
atom 1.5485468018015773 6.9248232402497072 15.0000000000000000 O
atom 0.9659748834138352 1.7317567526501150 17.5144308130830275 O
atom 3.4807409161158613 6.9248290980821565 16.9321805056807371 O
atom 2.5149216939503956 5.1934315045625450 15.9662666243376137 Pb
atom 1.5485053940495561 3.4626324802667767 15.0000016078205327 O
atom 0.9662059421222470 5.1942023518575215 17.5144217430839682 O
atom 3.4806964652915484 3.4618192980821498 16.9321788005360894 O
atom 7.5433324153201422 1.7309921783373479 15.9659241392681714 Pb
atom 6.5775020318049737 6.9248147551018393 15.0000030450754203 O
atom 5.9950689537291986 1.7318317371623879 17.5144549274490835 O
atom 8.5096070460844686 6.9248112932413024 16.9321803808313298 O
atom 7.5437293240200001 5.1934410201751122 15.9662937392503501 Pb
atom 6.5774602837680449 3.4625480451193269 15.0000045535482940 O
atom 5.9950778524411534 5.1942771065116631 17.5143653474398668 O
atom 8.5095650656304560 3.4619002332481732 16.9321805548387125 O
atom 0.0000664069496803 0.0007368546561250 18.4805923885621546 Pb
atom 2.5148063503306766 1.7310532400595120 20.9952185939501526 Pb
atom 1.5485472668678972 6.9248845153299889 20.0289363296592278 O
atom 0.9660912690889331 1.7319798270102866 22.5433339313588483 O
atom 4.0630294280811565 1.7318550310206982 19.4466452716689666 O
atom 3.4807409210916522 6.9248649924291765 21.9610312655579456 O
atom 0.0001100952414303 3.4630714846261159 18.4805902695059991 Pb
atom 2.5144261290813739 5.1935038478707423 20.9947800038746344 Pb
atom 1.5485054461204348 3.4618952253341151 20.0289362543385643 O
atom 0.9661187078031371 5.1944245455533915 22.5431585913562209 O
atom 4.0628181268019548 5.1943011702608057 19.4464468116410707 O
atom 3.4806956433478891 3.4626763724247751 21.9610286833598813 O
atom 5.0290696672337045 0.0008030092290431 18.4805839029990899 Pb
atom 7.5435846020444322 1.7314966932210289 20.9949475151340472 Pb
atom 6.5774164704744624 0.0002564501890569 20.0289380224203093 O
atom 5.9951185075699245 1.7315631902267756 22.5431779999439392 O
atom 9.0917270681500053 1.7318629061983666 19.4465737165897714 O
atom 8.5095206948836815 0.0002863175943488 21.9610295378899032 O
atom 5.0291061554098802 3.4631067992079223 18.4805796742074371 Pb
atom 7.5434751407606182 5.1939459446357121 20.9950467050850058 Pb
atom 6.5774574294893462 3.4627838501705690 20.0289360517082464 O
atom 5.9950578262644214 5.1940067014827767 22.5432800199468666 O
atom 9.0917936168567515 5.1943078258836692 19.4465484365875589 O
atom 8.5095614440220473 3.4628466275720942 21.9610270368951568 O
atom 0.0000742923952093 0.0008973386026081 23.5093999573696415 Pb
atom 2.5143080053848084 1.7311050933755605 26.0237316736630184 Pb
atom 1.5484603245375881 0.0000584096684271 25.0577835293042703 O
atom 0.9659737835575022 1.7318809420527279 27.5722143423872872 O
atom 4.0628828716200394 1.7315051543104687 24.4753089348516575 O
atom 3.4806544388518721 0.0000642675008770 26.9899640349850038 O
atom 0.0001156709982966 3.4633149785905388 23.5093989176003682 Pb
atom 2.5149205940940624 5.1935556939651590 26.0240501536418840 Pb
atom 1.5485042941932230 3.4627566696693894 25.0577851371247995 O
atom 0.9662048422659141 5.1943265412601347 27.5722052723882349 O
atom 4.0629943803148230 5.1939488649932839 24.4754194248622845 O
atom 3.4806953654352153 3.4619434874847630 26.9899623298403561 O
atom 5.0290786103855627 0.0003520531667683 23.5093909170585000 Pb
atom 7.5433313154638100 1.7311163677399612 26.0237076685724382 Pb
atom 6.5774155545409849 0.0000499245205584 25.0577865743796799 O
atom 5.9950678538728663 1.7319559265650009 27.5722384567533503 O
atom 9.0917583635265249 1.7320038994124045 24.4753062355659559 O
atom 8.5095205688204807 0.0000464626600214 26.9899639101355895 O
atom 5.0291200489546064 3.4627606131513793 23.5093895173672074 Pb
atom 7.5437282241636670 5.1935652095777263 26.0240772685546098 Pb
atom 6.5774591839117136 3.4626722345219401 25.0577880828525572 O
atom 5.9950767525848212 5.1944012959142762 27.5721488767441265 O
atom 9.0917905322227561 5.1944485607257702 24.4754554855640869 O
atom 8.5095639657741238 3.4620244226507859 26.9899640841429793 O
atom 0.0000653070933473 0.0008610440587380 28.5383759178664214 Pb
atom 2.5148052504743426 1.7311774294621252 31.0530021232544193 Pb
atom 1.5484607896039080 0.0001196847487086 30.0867198589635017 O
atom 4.0630283282248234 1.7319792204233113 29.5044288009732334 O
atom 3.4806544438276630 0.0001001618478961 32.0188147948622088 O
atom 0.0001089953850973 3.4631956740287291 28.5383737988102588 Pb
atom 2.5144250292250407 5.1936280372733554 31.0525635331789083 Pb
atom 1.5485043462641019 3.4620194147367278 30.0867197836428382 O
atom 4.0628170269456225 5.1944253596634189 29.5042303409453446 O
atom 3.4806945434915555 3.4628005618273878 32.0188122126641446 O
atom 5.0290685673773723 0.0009271986316561 28.5383674323033638 Pb
atom 7.5435835021880999 1.7316208826236423 31.0527310444383140 Pb
atom 6.5774153706181320 0.0003806395916710 30.0867215517245761 O
atom 9.0917259682936731 1.7319870956009795 29.5043572458940382 O
atom 8.5095195950273510 0.0004105069969613 32.0188130671941735 O
atom 5.0291050555535470 3.4632309886105350 28.5383632035117110 Pb
atom 7.5434740409042869 5.1940701340383253 31.0528302343892726 Pb
atom 6.5774563296330140 3.4629080395731822 30.0867195810125203 O
atom 9.0917925170004192 5.1944320152862824 29.5043319658918186 O
atom 8.5095603441657151 3.4629708169747073 32.0188105661994200 O
