#===============================================================================
# Created using the Atomic Simulation Environment (ASE)

# Mon Mar 23 14:01:13 2026

#=======================================================
lattice_vector 12.2111169631888270 0.0000000000000000 0.0000000000000000 
lattice_vector 3.9269428276419625 11.5624905206256550 0.0000000000000000 
lattice_vector 0.0000000000000000 0.0000000000000000 32.4814728543491640 
atom 5.4465390888649310 3.9022414037024746 17.4806920648248294 Pb
atom 5.6325890128521960 4.0356435748555750 15.2875141267911872 O
atom 6.7215301362781874 2.1219224753190207 17.4813101407310967 O
atom 4.1709305585246401 5.6822751092467261 17.4810647600869444 O
atom 7.2240278361219037 5.1758790022945611 17.1937883053291856 O
atom 2.3932931519569158 1.7147790751484133 16.2412239535587375 Pb
atom 7.4103049772810055 5.3094389225470984 15.0003898925220440 Pb
atom 8.6850290744722916 3.5288817760796674 15.0006546005366488 O
atom 6.1345290450751229 7.0890977400648660 15.0004078709089015 O
atom 4.3570519619982546 7.4963214037402226 16.2408963251923097 Pb
atom 9.3734913641316986 11.0903817216362715 15.0000000000000000 Pb
atom 10.6484859158245477 9.3100849978726146 15.0007223646927486 O
atom 4.1706811176077530 1.3075923003695691 15.0006595431623921 O
atom 7.4102863012678055 9.6837913425279876 17.4811049278557249 Pb
atom 7.5959681606591714 9.8168599378985846 15.2876610294004394 O
atom 8.6849046176622533 7.9032869645845629 17.4814068917691259 O
atom 6.1342397626741105 11.4632385074273522 17.4814728543491640 O
atom 9.1877739620300858 10.9572845119785978 17.1934205864471394 O
atom 8.4989623962194631 1.7147780926658465 16.2412112434318914 Pb
atom 13.5159106938227431 5.3093576731533227 15.0003869957459415 Pb
atom 2.5793967436822607 3.5287489595303452 15.0007439929998796 O
atom 12.2399503208548524 7.0889642679152525 15.0007996994875512 O
atom 11.5520389628381359 3.9023166621886123 17.4807111612865569 Pb
atom 11.7384935411333871 4.0358544506620211 15.2871460983775052 O
atom 12.8268621407410741 2.1219913081505926 17.4813948949979192 O
atom 10.2762789077643042 5.6820048361985336 17.4813224448151772 O
atom 13.3294201629850484 5.1757961002690358 17.1939303657001261 O
atom 13.5154003280706156 9.6835916401494853 17.4812513444251465 Pb
atom 13.7015094892304443 9.8168108704622501 15.2877463878829687 O
atom 14.7905859271942219 7.9035167637173451 17.4811717419007806 O
atom 12.2398513055667859 11.4632492800644687 17.4814106288956381 O
atom 15.2928614001271654 10.9569832446768309 17.1939495281030332 O
atom 10.4624656222229344 7.4961339453386051 16.2411950664785039 Pb
atom 15.4789863667254135 11.0902229675744479 15.0004838470007940 Pb
atom 4.5430605884784860 9.3101920635663582 15.0004255908919859 O
atom 10.2763944511341432 1.3075797699940921 15.0006654533573283 O
