#===============================================================================
# Created using the Atomic Simulation Environment (ASE)

# Mon Mar 23 14:01:13 2026

#=======================================================
lattice_vector 10.0577835300710472 0.0000000000000000 0.0000000000000000 
lattice_vector -0.0000010998600674 10.0578176800707233 0.0000000000000000 
lattice_vector 0.0000000000000000 0.0000000000000000 43.8506802864451188 
atom 1.5486342554871846 1.5486345482708694 15.0000441997911480 O
atom 3.4808145498002792 3.4808288738763231 15.0000261998479729 O
atom 0.0002412663665902 5.0292526647962852 15.0003569622089543 Pb
atom 1.5486367505227252 6.5775897782745680 15.0000357146056800 O
atom 3.4808138748056647 8.5096950038448878 15.0000083950086598 O
atom 6.5775705855195703 1.5486355632702296 15.0000433796198536 O
atom 8.5096653097373061 3.4808294287757975 15.0000000000000000 O
atom 6.5775717315677786 6.5775901442846063 15.0003043344418927 O
atom 8.5096630359760237 8.5096945799752657 15.0003103451703730 O
atom 0.0002508633511806 0.0002483468069535 15.0009022475331264 Pb
atom 2.5146036684105821 2.5144823347504723 16.7310789562332047 Pb
atom 1.5487197611787800 1.5487199256878759 21.9249332192471407 O
atom 4.0630865159128176 0.9661482822555610 16.7318356848788490 O
atom 0.9661807653145910 4.0630570316598620 16.7314981364595639 O
atom 3.4809000554918743 3.4809142512933300 21.9249152193039691 O
atom 0.0002925760960646 0.0002897254146021 18.4633198872699502 Pb
atom 2.5149649012481006 2.5150949234992281 20.1935295526263978 Pb
atom 1.5486786192865767 1.5486785179313560 18.4627424595082914 O
atom 4.0631201987524097 0.9663793409676561 20.1942812839342949 O
atom 0.9663340081536178 4.0631685403714037 20.1939418455141428 O
atom 3.4808555905216538 3.4808698004641552 18.4619054195890087 O
atom 0.0003267720581851 5.0293380422132934 21.9252459816649505 Pb
atom 2.5145791135166635 7.5435056448268174 16.7310902308940115 Pb
atom 1.5487222562143197 6.5776751556915745 21.9249247340616797 O
atom 4.0631100812544689 5.9952423525735323 16.7319106690933594 O
atom 0.9661775222608061 9.0919325235660224 16.7319968815947888 O
atom 3.4808993804972599 8.5097803812618924 21.9248974144646596 O
atom 0.0002826190773457 5.0292941033698524 18.4627655219469027 Pb
atom 2.5149914663593615 7.5439025535717654 20.1935390679041582 Pb
atom 1.5486810140366944 6.5776334076501364 18.4626580243244760 O
atom 4.0630632541053471 5.9952512512803651 20.1943560392847843 O
atom 0.9663695251077415 9.0919646922832502 20.1944415408013285 O
atom 3.4808567958979966 8.5097384008032240 18.4619863547333658 O
atom 5.0292268230173880 0.0002399114424649 15.0008038572483429 Pb
atom 7.5438741184573663 2.5149801298095844 16.7310891929426191 Pb
atom 6.5776560912111650 1.5487209406872362 21.9249323990758498 O
atom 9.0919896365469555 0.9662652178600670 16.7319966643975100 O
atom 5.9953006368904296 4.0632030382177584 16.7319101050545633 O
atom 8.5097508154289017 3.4809148061928039 21.9248890194559962 O
atom 5.0292674554501700 0.0002835997386582 18.4631384869805579 Pb
atom 7.5434782813492181 2.5145999085169959 20.1935398059054307 Pb
atom 6.5776132563178837 1.5486791199350896 18.4619431093448974 O
atom 9.0918570493943758 0.9662926565597725 20.1944413848416957 O
atom 5.9951449297562407 4.0629917369215303 20.1943562464812238 O
atom 8.5097054835449519 3.4808695284440825 18.4627003997474048 O
atom 5.0292177883308185 5.0292431717255299 15.0008700119260325 Pb
atom 7.5436024952011040 7.5437583814936646 16.7315326494512746 Pb
atom 6.5776572372593742 6.5776755217016136 21.9251933538978960 O
atom 9.0918331500446143 5.9952924563239760 16.7315800295394084 O
atom 5.9952285320015415 9.0919006782787513 16.7319179811157639 O
atom 8.5097485416676193 8.5097799573922703 21.9251993646263728 O
atom 5.0292563106480905 5.0292796599059191 18.4631738016931877 Pb
atom 7.5437444380730350 7.5436489202253743 20.1939818993772491 Pb
atom 6.5776125147251960 6.5776311033039496 18.4628317341837835 O
atom 9.0919779228923048 5.9952317750343056 20.1940235392717575 O
atom 5.9952460048475738 9.0919672269874106 20.1943629008492636 O
atom 8.5097032892571374 8.5097353291180315 18.4628706549150436 O
atom 0.0003363690427755 0.0003337242239600 21.9257912669891191 Pb
atom 2.5146891741021777 2.5145677121674792 23.6559679756892010 Pb
atom 1.5488052668703745 1.5488053031048825 28.8498222387031475 O
atom 4.0631720216044123 0.9662336596725675 23.6567247043348452 O
atom 0.9662662710061859 4.0631424090768675 23.6563871559155601 O
atom 3.4809855611834690 3.4809996287103360 28.8498042387599654 O
atom 0.0003780817876595 0.0003751028316086 25.3882089067259464 Pb
atom 2.5150504069396962 2.5151803009162346 27.1184185720823976 Pb
atom 1.5487641249781716 1.5487638953483625 25.3876314789642876 O
atom 4.0632057044440053 0.9664647183846627 27.1191703033902982 O
atom 0.9664195138452126 4.0632539177884102 27.1188308649701426 O
atom 3.4809410962132481 3.4809551778811616 25.3867944390450049 O
atom 0.0004122777497800 5.0294234196302998 28.8501350011209539 Pb
atom 2.5146646192082591 7.5435910222438238 23.6559792503500077 Pb
atom 1.5488077619059148 6.5777605331085809 28.8498137535176724 O
atom 4.0631955869460636 5.9953277299905396 23.6567996885493592 O
atom 0.9662630279524010 9.0920179009830324 23.6568859010507850 O
atom 3.4809848861888550 8.5098657586789006 28.8497864339206629 O
atom 0.0003681247689406 5.0293794807868597 25.3876545414028989 Pb
atom 2.5150769720509567 7.5439879309887727 27.1184280873601509 Pb
atom 1.5487665197282892 6.5777187850671428 25.3875470437804722 O
atom 4.0631487597969418 5.9953366286973706 27.1192450587407805 O
atom 0.9664550307993363 9.0920500697002566 27.1193305602573176 O
atom 3.4809423015895913 8.5098237782202304 25.3868753741893620 O
atom 5.0293123287089827 0.0003252888594715 21.9256928767043391 Pb
atom 7.5439596241489619 2.5150655072265913 23.6559782123986153 Pb
atom 6.5777415969027597 1.5488063181042426 28.8498214185318531 O
atom 9.0920751422385475 0.9663505952770738 23.6568856838535098 O
atom 5.9953861425820243 4.0632884156347648 23.6567991245105596 O
atom 8.5098363211204973 3.4810001836098108 28.8497780389119995 O
atom 5.0293529611417656 0.0003689771556647 25.3880275064365541 Pb
atom 7.5435637870408145 2.5146852859340023 27.1184288253614270 Pb
atom 6.5776987620094776 1.5487644973520960 25.3868321288008936 O
atom 9.0919425550859714 0.9663780339767790 27.1193304042976919 O
atom 5.9952304354478363 4.0630771143385367 27.1192452659372236 O
atom 8.5097909892365475 3.4809549058610889 25.3875894192034046 O
atom 5.0293032940224141 5.0293285491425364 21.9257590313820252 Pb
atom 7.5436880008926996 7.5438437589106710 23.6564216689072673 Pb
atom 6.5777427429509672 6.5777608991186192 28.8500823733538923 O
atom 9.0919186557362099 5.9953778337409833 23.6564690489954081 O
atom 5.9953140376931362 9.0919860556957595 23.6568070005717601 O
atom 8.5098340473592149 8.5098653348092785 28.8500883840823690 O
atom 5.0293418163396861 5.0293650373229246 25.3880628211491874 Pb
atom 7.5438299437646306 7.5437342976423816 27.1188709188332453 Pb
atom 6.5776980204167890 6.5777164807209560 25.3877207536397798 O
atom 9.0920634285839004 5.9953171524513120 27.1189125587277573 O
atom 5.9953315105391694 9.0920526044044170 27.1192519203052669 O
atom 8.5097887949487330 8.5098207065350397 25.3877596743710399 O
atom 0.0004218747343704 0.0004191016409665 28.8506802864451188 Pb
atom 5.0293978344005765 0.0004106662764780 28.8505818961603424 Pb
atom 5.0293887997140088 5.0294139265595446 28.8506480508380321 Pb
