#===============================================================================
# Created using the Atomic Simulation Environment (ASE)

# Mon Mar 23 14:01:15 2026

#=======================================================
lattice_vector 14.2238788010732762 0.0000000000000000 0.0000000000000000 
lattice_vector -0.0000000905053021 6.9248890205102045 0.0000000000000000 
lattice_vector 0.0000000000000000 0.0000000000000000 39.8444641203634831 
atom 0.0000313862379168 5.1938773034884882 16.3659708367625889 Pb
atom 14.2238265192869466 0.0000468745517067 15.0000000000000000 O
atom 2.1898116161431758 5.1931205729443004 16.3660796353483100 O
atom 12.0340021828555326 5.1934581214520961 16.3660745658419096 O
atom 14.2238121080977269 0.0000171945720171 17.7325254986676981 O
atom 14.2237324507105001 1.7314266956070770 16.3665990159090668 Pb
atom 14.2238267073773219 3.4622376347820221 15.0000020404587424 O
atom 2.1896720500177165 1.7306749711494873 16.3662064193439178 O
atom 12.0340316930325013 1.7310144096580262 16.3662013572185714 O
atom 14.2238120982018046 3.4630269948568624 17.7325230518692543 O
atom 10.6677763284941403 6.9245992923180664 16.3662836420768869 Pb
atom 10.6678304964752737 5.1938039794918049 19.9220041157223378 Pb
atom 10.6678140050629811 6.9248823314177388 18.5560042667225815 O
atom 8.4780420851437732 5.1928973285419389 19.9220183830084352 O
atom 10.6677762676837755 3.4621907320857082 16.3662817686801247 Pb
atom 10.6678144533644339 3.4622600211416223 18.5560059969765803 O
atom 3.5559763376099625 6.9241523974104124 16.3662760885238328 Pb
atom 3.5559360485747602 6.9248746664511298 18.5560015408372081 O
atom 3.5559741766902579 3.4618177671649040 16.3662752978943189 Pb
atom 3.5558937469704124 1.7313544048846425 19.9219507397098923 Pb
atom 3.5559354220723303 3.4629749361892039 18.5560021060634739 O
atom 5.7455814308336350 1.7304528250033486 19.9220048911681289 O
atom 1.3661783726580581 1.7305379636502409 19.9219884770891156 O
atom 7.1117872248219358 5.1934236044120317 16.3663065758498618 Pb
atom 7.1118866781167771 6.9246757592635308 15.0000657683788923 O
atom 9.3014823760968373 5.1933762271639665 16.3661438114715487 O
atom 4.9222195796044828 5.1930382756687479 16.3661391587516150 O
atom 7.1118729035385106 6.9246220708192681 17.7324647794952099 O
atom 7.1119649943565673 1.7309743546123846 16.3662691277189225 Pb
atom 7.1118865536686444 3.4621483590401945 15.0000631510773168 O
atom 9.3016276540128917 1.7309327169211646 16.3661428571360936 O
atom 4.9221848776316142 1.7305933554256632 16.3661381545960225 O
atom 7.1118725528172657 3.4620617606022845 17.7324616385347369 O
atom 7.1118684648210335 6.9239919598406923 19.9221918276564267 Pb
atom 7.1119466390794903 5.1937532070490979 23.4779094584583561 Pb
atom 7.1118628805499391 6.9248117986225219 22.1119386216957707 O
atom 9.3017268689847494 5.1929964765049110 23.4780182570440843 O
atom 4.9220386346238207 5.1933340250127058 23.4780131875376767 O
atom 7.1118484693607176 6.9247821186428329 24.8444641203634831 O
atom 7.1118687009952035 3.4615743196057593 19.9221901662819931 Pb
atom 7.1117689024787820 1.7313025991676878 23.4785376376048376 Pb
atom 7.1118631591456127 3.4621135383426336 22.1119406621545096 O
atom 9.3015873028592839 1.7305508747100977 23.4781450410396957 O
atom 4.9220681448007921 1.7308903132186366 23.4781399789143421 O
atom 7.1118485499700972 3.4629028984174726 24.8444616735650285 O
atom 3.5558127802624209 6.9244751958786770 23.4782222637726505 Pb
atom 12.8575947173406107 5.1929835379271347 19.9221969743616398 O
atom 10.6678603556701841 6.9248619722303486 21.2884645208638759 O
atom 3.5558127194520668 3.4620666356463192 23.4782203903759026 Pb
atom 10.6678414161613304 1.7313551330238253 19.9225159337185502 Pb
atom 12.8575553132540445 1.7305381687307877 19.9221097385206463 O
atom 8.4781551046803170 1.7304526670965961 19.9221164801221562 O
atom 10.6678600190818234 3.4628840119676565 21.2884651487806167 O
atom 10.6678915904515303 6.9240283009710231 23.4782147102196035 Pb
atom 3.5559047881178829 5.1938050077450866 19.9225599122947159 Pb
atom 5.7456945860767910 5.1928975436230713 19.9221396588442801 O
atom 1.3661390612226982 5.1929841000215324 19.9223084075053549 O
atom 3.5558614556305481 6.9248703672095839 21.2884662073144426 O
atom 10.6678894295318205 3.4616936707255150 23.4782139195900967 Pb
atom 3.5558615079617204 3.4621699669988786 21.2884625484661640 O
atom 14.2238005996412280 6.9240241934527393 19.9223061636663772 Pb
atom 14.2237024776635028 5.1932995079726432 23.4782451975456325 Pb
atom 14.2238019309583397 6.9245516628241424 22.1120043900746595 O
atom 2.1895188278651321 5.1932521307245771 23.4780824331673159 O
atom 12.0341348324460551 5.1929141792293585 23.4780777804473928 O
atom 14.2237881563800759 6.9244979743798787 24.8444034011909736 O
atom 14.2238020379060686 3.4617204032871607 19.9222987902532083 Pb
atom 0.0000014461248549 1.7308502581729952 23.4782077494146861 Pb
atom 14.2238018065102150 3.4620242626008046 22.1120017727730840 O
atom 2.1896641057811830 1.7308086204817750 23.4780814788318608 O
atom 12.0341001304731812 1.7304692589862738 23.4780767762918003 O
atom 14.2237878056588283 3.4619376641628947 24.8444002602305005 O
