#===============================================================================
# Created using the Atomic Simulation Environment (ASE)

# Mon Mar 23 14:01:13 2026

#=======================================================
lattice_vector 10.0577835300710472 0.0000000000000000 0.0000000000000000 
lattice_vector -0.0000010998600674 10.0578176800707233 0.0000000000000000 
lattice_vector 0.0000000000000000 0.0000000000000000 38.6571507338187246 
atom 1.5487197611787800 1.5487199256878759 16.7314036666207429 O
atom 3.4809000554918743 3.4809142512933300 16.7313856666775713 O
atom 2.5149649012481006 2.5150949234992281 15.0000000000000000 Pb
atom 4.0631201987524097 0.9663793409676561 15.0007517313078971 O
atom 0.9663340081536178 4.0631685403714037 15.0004122928877450 O
atom 0.0003267720581851 5.0293380422132934 16.7317164290385527 Pb
atom 1.5487222562143197 6.5776751556915745 16.7313951814352819 O
atom 3.4808993804972599 8.5097803812618924 16.7313678618382617 O
atom 2.5149914663593615 7.5439025535717654 15.0000095152777604 Pb
atom 4.0630632541053471 5.9952512512803651 15.0008264866583865 O
atom 0.9663695251077415 9.0919646922832502 15.0009119881749307 O
atom 6.5776560912111650 1.5487209406872362 16.7314028464494520 O
atom 8.5097508154289017 3.4809148061928039 16.7313594668295984 O
atom 7.5434782813492181 2.5145999085169959 15.0000102532790329 Pb
atom 9.0918570493943758 0.9662926565597725 15.0009118322152979 O
atom 5.9951449297562407 4.0629917369215303 15.0008266938548260 O
atom 6.5776572372593742 6.5776755217016136 16.7316638012714982 O
atom 8.5097485416676193 8.5097799573922703 16.7316698119999749 O
atom 7.5437444380730350 7.5436489202253743 15.0004523467508513 Pb
atom 9.0919779228923048 5.9952317750343056 15.0004939866453597 O
atom 5.9952460048475738 9.0919672269874106 15.0008333482228657 O
atom 0.0003363690427755 0.0003337242239600 16.7322617143627212 Pb
atom 2.5146891741021777 2.5145677121674792 18.4624384230628031 Pb
atom 1.5488052668703745 1.5488053031048825 23.6562926860767497 O
atom 4.0631720216044123 0.9662336596725675 18.4631951517084474 O
atom 0.9662662710061859 4.0631424090768675 18.4628576032891623 O
atom 3.4809855611834690 3.4809996287103360 23.6562746861335675 O
atom 0.0003780817876595 0.0003751028316086 20.1946793540995486 Pb
atom 2.5150504069396962 2.5151803009162346 21.9248890194559998 Pb
atom 1.5487641249781716 1.5487638953483625 20.1941019263378898 O
atom 4.0632057044440053 0.9664647183846627 21.9256407507639004 O
atom 0.9664195138452126 4.0632539177884102 21.9253013123437448 O
atom 3.4809410962132481 3.4809551778811616 20.1932648864186071 O
atom 0.0004122777497800 5.0294234196302998 23.6566054484945560 Pb
atom 2.5146646192082591 7.5435910222438238 18.4624496977236099 Pb
atom 1.5488077619059148 6.5777605331085809 23.6562842008912746 O
atom 4.0631955869460636 5.9953277299905396 18.4632701359229614 O
atom 0.9662630279524010 9.0920179009830324 18.4633563484243872 O
atom 3.4809848861888550 8.5098657586789006 23.6562568812942651 O
atom 0.0003681247689406 5.0293794807868597 20.1941249887765011 Pb
atom 2.5150769720509567 7.5439879309887727 21.9248985347337531 Pb
atom 1.5487665197282892 6.5777187850671428 20.1940174911540744 O
atom 4.0631487597969418 5.9953366286973706 21.9257155061143827 O
atom 0.9664550307993363 9.0920500697002566 21.9258010076309198 O
atom 3.4809423015895913 8.5098237782202304 20.1933458215629642 O
atom 5.0293123287089827 0.0003252888594715 16.7321633240779413 Pb
atom 7.5439596241489619 2.5150655072265913 18.4624486597722175 Pb
atom 6.5777415969027597 1.5488063181042426 23.6562918659054553 O
atom 9.0920751422385475 0.9663505952770738 18.4633561312271119 O
atom 5.9953861425820243 4.0632884156347648 18.4632695718841617 O
atom 8.5098363211204973 3.4810001836098108 23.6562484862856017 O
atom 5.0293529611417656 0.0003689771556647 20.1944979538101563 Pb
atom 7.5435637870408145 2.5146852859340023 21.9248992727350291 Pb
atom 6.5776987620094776 1.5487644973520960 20.1933025761744958 O
atom 9.0919425550859714 0.9663780339767790 21.9258008516712941 O
atom 5.9952304354478363 4.0630771143385367 21.9257157133108258 O
atom 8.5097909892365475 3.4809549058610889 20.1940598665770068 O
atom 5.0293032940224141 5.0293285491425364 16.7322294787556274 Pb
atom 7.5436880008926996 7.5438437589106710 18.4628921162808695 Pb
atom 6.5777427429509672 6.5777608991186192 23.6565528207274944 O
atom 9.0919186557362099 5.9953778337409833 18.4629394963690103 O
atom 5.9953140376931362 9.0919860556957595 18.4632774479453623 O
atom 8.5098340473592149 8.5098653348092785 23.6565588314559712 O
atom 5.0293418163396861 5.0293650373229246 20.1945332685227896 Pb
atom 7.5438299437646306 7.5437342976423816 21.9253413662068475 Pb
atom 6.5776980204167890 6.5777164807209560 20.1941912010133819 O
atom 9.0920634285839004 5.9953171524513120 21.9253830061013595 O
atom 5.9953315105391694 9.0920526044044170 21.9257223676788691 O
atom 8.5097887949487330 8.5098207065350397 20.1942301217446420 O
atom 0.0004218747343704 0.0004191016409665 23.6571507338187210 Pb
atom 5.0293978344005765 0.0004106662764780 23.6570523435339446 Pb
atom 5.0293887997140088 5.0294139265595446 23.6571184982116343 Pb
