#===============================================================================
# Created using the Atomic Simulation Environment (ASE)

# Mon Mar 23 14:01:15 2026

#=======================================================
lattice_vector 14.2238788010732762 0.0000000000000000 0.0000000000000000 
lattice_vector -0.0000000905053021 6.9248890205102045 0.0000000000000000 
lattice_vector 0.0000000000000000 0.0000000000000000 36.2884625795262750 
atom 10.6678304964752737 5.1938039794918049 16.3660025748851297 Pb
atom 10.6678140050629811 6.9248823314177388 15.0000027258853734 O
atom 8.4780420851437732 5.1928973285419389 16.3660168421712271 O
atom 10.6678144533644339 3.4622600211416223 15.0000044561393722 O
atom 3.5559360485747602 6.9248746664511298 15.0000000000000000 O
atom 3.5558937469704124 1.7313544048846425 16.3659491988726842 Pb
atom 3.5559354220723303 3.4629749361892039 15.0000005652262658 O
atom 5.7455814308336350 1.7304528250033486 16.3660033503309208 O
atom 1.3661783726580581 1.7305379636502409 16.3659869362519075 O
atom 7.1118684648210335 6.9239919598406923 16.3661902868192186 Pb
atom 7.1119466390794903 5.1937532070490979 19.9219079176211480 Pb
atom 7.1118628805499391 6.9248117986225219 18.5559370808585626 O
atom 9.3017268689847494 5.1929964765049110 19.9220167162068762 O
atom 4.9220386346238207 5.1933340250127058 19.9220116467004686 O
atom 7.1118484693607176 6.9247821186428329 21.2884625795262750 O
atom 7.1118687009952035 3.4615743196057593 16.3661886254447850 Pb
atom 7.1117689024787820 1.7313025991676878 19.9225360967676295 Pb
atom 7.1118631591456127 3.4621135383426336 18.5559391213173015 O
atom 9.3015873028592839 1.7305508747100977 19.9221435002024876 O
atom 4.9220681448007921 1.7308903132186366 19.9221384380771340 O
atom 7.1118485499700972 3.4629028984174726 21.2884601327278205 O
atom 3.5558127802624209 6.9244751958786770 19.9222207229354424 Pb
atom 12.8575947173406107 5.1929835379271347 16.3661954335244317 O
atom 10.6678603556701841 6.9248619722303486 17.7324629800266678 O
atom 3.5558127194520668 3.4620666356463192 19.9222188495386945 Pb
atom 10.6678414161613304 1.7313551330238253 16.3665143928813421 Pb
atom 12.8575553132540445 1.7305381687307877 16.3661081976834382 O
atom 8.4781551046803170 1.7304526670965961 16.3661149392849481 O
atom 10.6678600190818234 3.4628840119676565 17.7324636079434086 O
atom 10.6678915904515303 6.9240283009710231 19.9222131693823954 Pb
atom 3.5559047881178829 5.1938050077450866 16.3665583714575078 Pb
atom 5.7456945860767910 5.1928975436230713 16.3661381180070720 O
atom 1.3661390612226982 5.1929841000215324 16.3663068666681468 O
atom 3.5558614556305481 6.9248703672095839 17.7324646664772345 O
atom 10.6678894295318205 3.4616936707255150 19.9222123787528886 Pb
atom 3.5558615079617204 3.4621699669988786 17.7324610076289559 O
atom 14.2238005996412280 6.9240241934527393 16.3663046228291691 Pb
atom 14.2237024776635028 5.1932995079726432 19.9222436567084245 Pb
atom 14.2238019309583397 6.9245516628241424 18.5560028492374514 O
atom 2.1895188278651321 5.1932521307245771 19.9220808923301078 O
atom 12.0341348324460551 5.1929141792293585 19.9220762396101847 O
atom 14.2237881563800759 6.9244979743798787 21.2884018603537655 O
atom 14.2238020379060686 3.4617204032871607 16.3662972494160002 Pb
atom 0.0000014461248549 1.7308502581729952 19.9222062085774780 Pb
atom 14.2238018065102150 3.4620242626008046 18.5560002319358759 O
atom 2.1896641057811830 1.7308086204817750 19.9220799379946527 O
atom 12.0341001304731812 1.7304692589862738 19.9220752354545922 O
atom 14.2237878056588283 3.4619376641628947 21.2883987193932924 O
