#===============================================================================
# Created using the Atomic Simulation Environment (ASE)

# Mon Mar 23 14:01:13 2026

#=======================================================
lattice_vector 12.2111169631888270 0.0000000000000000 0.0000000000000000 
lattice_vector 3.9269428276419625 11.5624905206256550 0.0000000000000000 
lattice_vector 0.0000000000000000 0.0000000000000000 44.8852494021350310 
atom 1.0895214647427589 0.7805109853357233 15.0000000000000000 Pb
atom 6.2914553397979747 10.5626825775779221 15.0006180759062655 O
atom 12.0250298975912902 2.5605446908799729 15.0003726952621186 O
atom 15.4499815777475344 11.0695078897137105 15.2877500589953144 O
atom 13.4866600575435598 5.2884080150425561 15.2875851375433278 O
atom 3.0532686771456401 6.5620609241612335 15.0004128630308990 Pb
atom 4.3278869935400914 4.7815565462178089 15.0007148269443018 O
atom 13.9883391017407703 8.3415080890605999 15.0007807895243346 O
atom 9.3446028412930762 11.0695990761772443 15.2875887276571305 O
atom 7.1950213387159669 0.7805862438218590 15.0000190964617293 Pb
atom 12.3967873442608649 10.5627514104094935 15.0007028301730916 O
atom 5.9192612836421459 2.5602744178317822 15.0006303799903513 O
atom 9.1583827039484529 6.5618612217827312 15.0005592796003189 Pb
atom 10.4335683030720521 4.7817863453505911 15.0004796770759565 O
atom 7.8828336814446107 8.3415188616977129 15.0007185640708069 O
atom 7.3809362083133969 5.2882524692681754 15.2878566543024235 O
atom 12.2108139096576274 8.7487357581869265 16.2412970681222362 Pb
atom 13.3005672000040125 9.5294148052084111 19.9614895375368988 Pb
atom 13.4866171239912838 9.6628169763615084 17.7683115995032566 O
atom 14.5755582474172662 7.7490958768249536 19.9621076134431661 O
atom 12.0249586696637127 11.3094485107526594 19.9618622327990174 O
atom 15.0780559472609816 10.8030524038004927 19.6745857780412585 O
atom 10.2473212630959996 7.3419524766543462 18.7220214262708140 Pb
atom 15.2643330884200843 10.9366123240530317 17.4811873652341170 Pb
atom 11.5229675221779964 8.2559211889607429 20.2492395965322132 O
atom 4.3279402224225452 9.1560551775856016 17.4814520732487182 O
atom 10.0616143285722384 1.1537806209451453 17.4812053436209709 O
atom 0.9038223483467309 0.6475838614867129 17.1934342878325701 O
atom 8.2841372454953834 1.5610042846205006 18.7216937979043792 Pb
atom 13.3005766476288176 5.1550646025165499 17.4807974727120730 Pb
atom 9.5596460019740217 2.4748213142895885 20.2490746750802231 O
atom 2.3644542361328358 3.3747678787528943 17.4815198374048109 O
atom 12.0247092287468398 6.9347657018755040 17.4814570158744615 O
atom 2.8669845923977388 6.4285706112745666 17.1938071223826867 O
atom 10.2476635072014464 2.9678115459948353 16.2409219650377494 Pb
atom 11.3373715847649255 3.7484742234082660 19.9619024005677943 Pb
atom 11.5230534441562913 3.8815428187788661 17.7684585021125123 O
atom 12.6119899011593795 1.9679698454648407 19.9622043644811988 O
atom 10.0613250461712287 5.5279213883076324 19.9622703270612334 O
atom 13.1148592455272031 5.0219673928588788 19.6742180591592053 O
atom 4.1418735441697248 7.3419514941717807 18.7220087161439572 Pb
atom 9.1588218417729959 10.9365310746592570 17.4811844684580144 Pb
atom 5.4175887857235345 8.2560123754242767 20.2490782651940293 O
atom 10.4334248548213431 9.1559223610362785 17.4815414657119490 O
atom 3.9559186411631369 1.1536471487955327 17.4815971721996206 O
atom 7.0090427497751779 0.6473778322990152 17.1938022841091112 O
atom 6.1054411380942950 8.7487909523289389 16.2411846698624878 Pb
atom 7.1949501107883878 9.5294900636945474 19.9615086339986263 Pb
atom 7.3814046890836460 9.6630278521679553 17.7679435710895746 O
atom 8.4697732886913286 7.7491647096565250 19.9621923677099886 O
atom 5.9191900557145711 11.3091782377044687 19.9621199175272537 O
atom 8.9723313109352976 10.8029695017749692 19.6747278384121991 O
atom 4.1418646528697298 2.9675572111052060 16.2413537362446760 Pb
atom 5.2313686483789139 3.7482745210297650 19.9620488171372159 Pb
atom 5.4174778095387435 3.8814937513425263 17.7685438605950345 O
atom 6.5065542475025104 1.9681996445976226 19.9619692146128500 O
atom 3.9558196258750695 5.5279321609447480 19.9622081016077040 O
atom 7.0088297204354557 5.0216661255571120 19.6747470008151097 O
atom 2.1784339425312220 1.5608168262188853 18.7219925391905768 Pb
atom 7.1949546870337020 5.1549058484547254 17.4812813197128669 Pb
atom 3.4539221527438553 2.4746657685152087 20.2493461918393223 O
atom 8.4701458719756015 3.3748749444466375 17.4812230636040553 O
atom 5.9193055990843995 6.9347531715000255 17.4814629260693977 O
atom 8.9722690196113231 6.4284114375542867 17.1940830083009004 O
atom 8.2837998540880911 5.9351490574339580 21.2027866056591350 Pb
atom 9.3735531444344673 6.7158281044554435 24.9229790750737941 Pb
atom 9.5596030684217386 6.8492302756085417 22.7298011370401518 O
atom 10.6485441918477193 4.9355091760719896 24.9235971509800578 O
atom 8.0979446140941711 8.4958618099996936 24.9233517703359126 O
atom 11.1510418916914453 7.9894657030475242 24.6360753155781538 O
atom 6.3203072075264624 4.5283657759013787 23.6835109638077164 Pb
atom 11.3373190328505498 8.1230256233000659 22.4426769027710158 Pb
atom 7.5959534666084503 5.4423344882077762 25.2107291340691084 O
atom 12.6120431300418296 6.3424684768326349 22.4429416107856170 O
atom 10.0615431006446574 9.9026844408178327 22.4426948811578733 O
atom 13.1148680836079787 9.3964876813594014 22.1549238253694654 O
atom 8.2840660175678025 10.3099081044931893 23.6831833354412815 Pb
atom 9.3735625920592742 2.3414779017635823 22.4422870102489718 Pb
atom 9.5595747740464443 11.2237251341622759 25.2105642126171254 O
atom 10.6485571437521234 0.5611811779999270 22.4430093749417097 O
atom 8.0976951731772999 4.1211790011225355 22.4429465534113604 O
atom 11.1510875000170202 3.6149839105215986 22.1552966599195855 O
atom 6.3206494516319029 0.1542248452418687 21.2024115025746482 Pb
atom 7.4103575291953838 0.9348875226552977 24.9233919381046967 Pb
atom 7.5960393885867505 1.0679561180258972 22.7299480396494111 O
atom 12.6119186732318003 10.7168736653375269 24.9236939020181012 O
atom 6.1343109906016897 2.7143346875546643 24.9237598645981322 O
atom 9.1878451899576650 2.2083806921059095 24.6357075966961041 O
atom 12.4259764517890137 4.5283647934188114 23.6834982536808596 Pb
atom 5.2318077862034578 8.1229443739062894 22.4426740059949168 Pb
atom 13.7016916933428305 5.4424256746713100 25.2105678027309281 O
atom 6.5064107992518014 6.3423356602833110 22.4430310032488478 O
atom 3.9558474132355603 9.9025509686682192 22.4430867097365123 O
atom 7.0089715218475996 9.3962816521717052 22.1552918216460100 O
atom 2.1784270825247556 5.9352042515759731 21.2026742073993830 Pb
atom 3.2679360552188457 6.7159033629415790 24.9229981715355287 Pb
atom 3.4543906335141012 6.8494411514149869 22.7294331086264734 O
atom 4.5427592331217888 4.9355780089035575 24.9236819052468874 O
atom 14.2032929633338565 8.4955915369514994 24.9236094550641489 O
atom 5.0453172553657621 7.9893828010220007 24.6362173759490943 O
atom 0.2148505973001887 0.1539705103522397 21.2028432737815749 Pb
atom 1.3043545928093774 0.9346878202767968 24.9235383546741218 Pb
atom 1.4904637539692021 1.0679070505895591 22.7300333981319369 O
atom 6.5064830195749428 10.7171034644703109 24.9234587521497488 O
atom 12.2399225334943598 2.7143454601917774 24.9236976391446063 O
atom 3.0818156648659110 2.2080794248041440 24.6362365383520086 O
atom 14.3894796777924743 10.3097206460915718 23.6834820767274756 Pb
atom 3.2679406314641590 2.3413191477017565 22.4427708572497657 Pb
atom 15.6649678880051120 11.2235695883878943 25.2108357293762211 O
atom 4.5431318164060643 0.5612882436936683 22.4427126011409506 O
atom 1.9922915435148572 4.1211664707470579 22.4429524636062965 O
atom 5.0452549640417743 3.6148247368013173 22.1555725458377992 O
atom 4.3567857985185547 3.1215623566809914 26.1642761431960338 Pb
atom 5.4465390888649310 3.9022414037024746 29.8844686126106964 Pb
atom 5.6325890128521960 4.0356435748555750 27.6912906745770542 O
atom 6.7215301362781874 2.1219224753190207 29.8850866885169637 O
atom 4.1709305585246401 5.6822751092467261 29.8848413078728115 O
atom 7.2240278361219037 5.1758790022945611 29.5975648531150526 O
atom 2.3932931519569158 1.7147790751484133 28.6450005013446045 Pb
atom 7.4103049772810055 5.3094389225470984 27.4041664403079110 Pb
atom 8.6850290744722916 3.5288817760796674 27.4044311483225158 O
atom 6.1345290450751229 7.0890977400648660 27.4041844186947685 O
atom 9.1878540280384424 6.5829009806064347 27.1164133629063642 O
atom 4.3570519619982546 7.4963214037402226 28.6446728729781768 Pb
atom 9.3734913641316986 11.0903817216362715 27.4037765477858670 Pb
atom 10.6484859158245477 9.3100849978726146 27.4044989124786156 O
atom 4.1706811176077530 1.3075923003695691 27.4044360909482592 O
atom 7.2240734444474883 0.8013972097686320 27.1167861974564843 O
atom 6.3205782237043291 8.9031286651145543 26.1639010401115470 Pb
atom 7.4102863012678055 9.6837913425279876 29.8848814756415919 Pb
atom 7.5959681606591714 9.8168599378985846 27.6914375771863064 O
atom 8.6849046176622533 7.9032869645845629 29.8851834395549929 O
atom 6.1342397626741105 11.4632385074273522 29.8852494021350310 O
atom 9.1877739620300858 10.9572845119785978 29.5971971342330065 O
atom 8.4989623962194631 1.7147780926658465 28.6449877912177584 Pb
atom 13.5159106938227431 5.3093576731533227 27.4041635435318085 Pb
atom 2.5793967436822607 3.5287489595303452 27.4045205407857466 O
atom 12.2399503208548524 7.0889642679152525 27.4045762472734182 O
atom 3.0819574662780562 6.5826949514187332 27.1167813591829123 O
atom 10.4625299901440467 3.1216175508230042 26.1641637449362818 Pb
atom 11.5520389628381359 3.9023166621886123 29.8844877090724239 Pb
atom 11.7384935411333871 4.0358544506620211 27.6909226461633722 O
atom 12.8268621407410741 2.1219913081505926 29.8851714427837862 O
atom 10.2762789077643042 5.6820048361985336 29.8850989926010442 O
atom 13.3294201629850484 5.1757961002690358 29.5977069134859931 O
atom 12.4258963325614360 8.9028743302249289 26.1643328113184701 Pb
atom 13.5154003280706156 9.6835916401494853 29.8850278922110135 Pb
atom 13.7015094892304443 9.8168108704622501 27.6915229356688357 O
atom 14.7905859271942219 7.9035167637173451 29.8849482896866476 O
atom 12.2398513055667859 11.4632492800644687 29.8851871766815052 O
atom 15.2928614001271654 10.9569832446768309 29.5977260758889003 O
atom 10.4624656222229344 7.4961339453386051 28.6449716142643709 Pb
atom 15.4789863667254135 11.0902229675744479 27.4042603947866610 Pb
atom 4.5430605884784860 9.3101920635663582 27.4042021386778529 O
atom 10.2763944511341432 1.3075797699940921 27.4044420011431953 O
atom 1.1182409084722278 0.8012380360483513 27.1170620833746980 O
