#===============================================================================
# Created using the Atomic Simulation Environment (ASE)

# Mon Mar 23 14:01:13 2026

#=======================================================
lattice_vector 12.2111169631888270 0.0000000000000000 0.0000000000000000 
lattice_vector 3.9269428276419625 11.5624905206256550 0.0000000000000000 
lattice_vector 0.0000000000000000 0.0000000000000000 37.4429623918860557 
atom 9.3735531444344673 6.7158281044554435 17.4806920648248223 Pb
atom 9.5596030684217386 6.8492302756085417 15.2875141267911800 O
atom 10.6485441918477193 4.9355091760719896 17.4813101407310860 O
atom 8.0979446140941711 8.4958618099996936 17.4810647600869409 O
atom 11.1510418916914453 7.9894657030475242 17.1937883053291820 O
atom 6.3203072075264624 4.5283657759013787 16.2412239535587446 Pb
atom 11.3373190328505498 8.1230256233000659 15.0003898925220440 Pb
atom 7.5959534666084503 5.4423344882077762 17.7684421238201367 O
atom 12.6120431300418296 6.3424684768326349 15.0006546005366452 O
atom 10.0615431006446574 9.9026844408178327 15.0004078709089015 O
atom 8.2840660175678025 10.3099081044931893 16.2408963251923097 Pb
atom 9.3735625920592742 2.3414779017635823 15.0000000000000000 Pb
atom 9.5595747740464443 11.2237251341622759 17.7682772023681537 O
atom 10.6485571437521234 0.5611811779999270 15.0007223646927379 O
atom 8.0976951731772999 4.1211790011225355 15.0006595431623886 O
atom 7.4103575291953838 0.9348875226552977 17.4811049278557249 Pb
atom 7.5960393885867505 1.0679561180258972 15.2876610294004394 O
atom 12.6119186732318003 10.7168736653375269 17.4814068917691294 O
atom 6.1343109906016897 2.7143346875546643 17.4814728543491604 O
atom 9.1878451899576650 2.2083806921059095 17.1934205864471323 O
atom 12.4259764517890137 4.5283647934188114 16.2412112434318878 Pb
atom 5.2318077862034578 8.1229443739062894 15.0003869957459450 Pb
atom 13.7016916933428305 5.4424256746713100 17.7682807924819564 O
atom 6.5064107992518014 6.3423356602833110 15.0007439929998760 O
atom 3.9558474132355603 9.9025509686682192 15.0007996994875406 O
atom 3.2679360552188457 6.7159033629415790 17.4807111612865569 Pb
atom 3.4543906335141012 6.8494411514149869 15.2871460983775016 O
atom 4.5427592331217888 4.9355780089035575 17.4813948949979157 O
atom 14.2032929633338565 8.4955915369514994 17.4813224448151772 O
atom 5.0453172553657621 7.9893828010220007 17.1939303657001226 O
atom 1.3043545928093774 0.9346878202767968 17.4812513444251501 Pb
atom 1.4904637539692021 1.0679070505895591 15.2877463878829651 O
atom 6.5064830195749428 10.7171034644703109 17.4811717419007771 O
atom 12.2399225334943598 2.7143454601917774 17.4814106288956346 O
atom 3.0818156648659110 2.2080794248041440 17.1939495281030368 O
atom 14.3894796777924743 10.3097206460915718 16.2411950664785039 Pb
atom 3.2679406314641590 2.3413191477017565 15.0004838470007940 Pb
atom 15.6649678880051120 11.2235695883878943 17.7685487191272493 O
atom 4.5431318164060643 0.5612882436936683 15.0004255908919788 O
atom 1.9922915435148572 4.1211664707470579 15.0006654533573247 O
atom 4.3567857985185547 3.1215623566809914 18.7219891329470620 Pb
atom 5.4465390888649310 3.9022414037024746 22.4421816023617247 Pb
atom 5.6325890128521960 4.0356435748555750 20.2490036643280824 O
atom 6.7215301362781874 2.1219224753190207 22.4427996782679919 O
atom 4.1709305585246401 5.6822751092467261 22.4425542976238397 O
atom 7.2240278361219037 5.1758790022945611 22.1552778428660808 O
atom 2.3932931519569158 1.7147790751484133 21.2027134910956327 Pb
atom 7.4103049772810055 5.3094389225470984 19.9618794300589393 Pb
atom 8.6850290744722916 3.5288817760796674 19.9621441380735440 O
atom 6.1345290450751229 7.0890977400648660 19.9618974084457967 O
atom 9.1878540280384424 6.5829009806064347 19.6741263526573924 O
atom 4.3570519619982546 7.4963214037402226 21.2023858627292050 Pb
atom 9.3734913641316986 11.0903817216362715 19.9614895375368953 Pb
atom 10.6484859158245477 9.3100849978726146 19.9622119022296438 O
atom 4.1706811176077530 1.3075923003695691 19.9621490806992874 O
atom 7.2240734444474883 0.8013972097686320 19.6744991872075126 O
atom 6.3205782237043291 8.9031286651145543 18.7216140298625753 Pb
atom 7.4102863012678055 9.6837913425279876 22.4425944653926202 Pb
atom 7.5959681606591714 9.8168599378985846 20.2491505669373346 O
atom 8.6849046176622533 7.9032869645845629 22.4428964293060211 O
atom 6.1342397626741105 11.4632385074273522 22.4429623918860592 O
atom 9.1877739620300858 10.9572845119785978 22.1549101239840347 O
atom 8.4989623962194631 1.7147780926658465 21.2027007809687866 Pb
atom 13.5159106938227431 5.3093576731533227 19.9618765332828367 Pb
atom 2.5793967436822607 3.5287489595303452 19.9622335305367749 O
atom 12.2399503208548524 7.0889642679152525 19.9622892370244465 O
atom 3.0819574662780562 6.5826949514187332 19.6744943489339406 O
atom 10.4625299901440467 3.1216175508230042 18.7218767346873101 Pb
atom 11.5520389628381359 3.9023166621886123 22.4422006988234521 Pb
atom 11.7384935411333871 4.0358544506620211 20.2486356359144004 O
atom 12.8268621407410741 2.1219913081505926 22.4428844325348145 O
atom 10.2762789077643042 5.6820048361985336 22.4428119823520724 O
atom 13.3294201629850484 5.1757961002690358 22.1554199032370214 O
atom 12.4258963325614360 8.9028743302249289 18.7220458010694983 Pb
atom 13.5154003280706156 9.6835916401494853 22.4427408819620418 Pb
atom 13.7015094892304443 9.8168108704622501 20.2492359254198639 O
atom 14.7905859271942219 7.9035167637173451 22.4426612794376759 O
atom 12.2398513055667859 11.4632492800644687 22.4429001664325334 O
atom 15.2928614001271654 10.9569832446768309 22.1554390656399285 O
atom 10.4624656222229344 7.4961339453386051 21.2026846040153991 Pb
atom 15.4789863667254135 11.0902229675744479 19.9619733845376892 Pb
atom 4.5430605884784860 9.3101920635663582 19.9619151284288812 O
atom 10.2763944511341432 1.3075797699940921 19.9621549908942235 O
atom 1.1182409084722278 0.8012380360483513 19.6747750731257263 O
