#===============================================================================
# Created using the Atomic Simulation Environment (ASE)

# Mon Mar 23 14:01:14 2026

#=======================================================
lattice_vector 10.0578176800707837 0.0000000000000000 0.0000000000000000 
lattice_vector 0.0000853774076561 6.9248890199838939 0.0000000000000000 
lattice_vector 0.0000000000000000 0.0000000000000000 34.4466659181180788 
atom 0.9659737835575022 1.7318809420527279 15.0000654656431607 O
atom 0.9662048422659141 5.1943265412601347 15.0000563956441084 O
atom 5.9950678538728663 1.7319559265650009 15.0000895800092238 O
atom 5.9950767525848212 5.1944012959142762 15.0000000000000000 O
atom 0.0000653070933473 0.0008610440587380 15.9662270411222948 Pb
atom 2.5148052504743426 1.7311774294621252 18.4808532465102928 Pb
atom 1.5484607896039080 0.0001196847487086 17.5145709822193751 O
atom 4.0630283282248234 1.7319792204233113 16.9322799242291069 O
atom 3.4806544438276630 0.0001001618478961 19.4466659181180788 O
atom 0.0001089953850973 3.4631956740287291 15.9662249220661323 Pb
atom 2.5144250292250407 5.1936280372733554 18.4804146564347818 Pb
atom 1.5485043462641019 3.4620194147367278 17.5145709068987117 O
atom 4.0628170269456225 5.1944253596634189 16.9320814642012181 O
atom 3.4806945434915555 3.4628005618273878 19.4466633359200216 O
atom 5.0290685673773723 0.0009271986316561 15.9662185555592373 Pb
atom 7.5435835021880999 1.7316208826236423 18.4805821676941875 Pb
atom 6.5774153706181320 0.0003806395916710 17.5145726749804496 O
atom 9.0917259682936731 1.7319870956009795 16.9322083691499117 O
atom 8.5095195950273510 0.0004105069969613 19.4466641904500506 O
atom 5.0291050555535470 3.4632309886105350 15.9662143267675845 Pb
atom 7.5434740409042869 5.1940701340383253 18.4806813576451461 Pb
atom 6.5774563296330140 3.4629080395731822 17.5145707042683938 O
atom 9.0917925170004192 5.1944320152862824 16.9321830891476921 O
atom 8.5095603441657151 3.4629708169747073 19.4466616894552899 O
