#===============================================================================
# Created using the Atomic Simulation Environment (ASE)

# Mon Mar 23 14:01:13 2026

#=======================================================
lattice_vector 12.2111169631888270 0.0000000000000000 0.0000000000000000 
lattice_vector 3.9269428276419625 11.5624905206256550 0.0000000000000000 
lattice_vector 0.0000000000000000 0.0000000000000000 42.1173058310454564 
atom 13.3005672000040125 9.5294148052084111 17.1935459664473242 Pb
atom 13.4866171239912838 9.6628169763615084 15.0003680284136820 O
atom 14.5755582474172662 7.7490958768249536 17.1941640423535915 O
atom 12.0249586696637127 11.3094485107526594 17.1939186617094428 O
atom 15.0780559472609816 10.8030524038004927 16.9066422069516840 O
atom 10.2473212630959996 7.3419524766543462 15.9540778551812394 Pb
atom 11.5229675221779964 8.2559211889607429 17.4812960254426386 O
atom 8.2841372454953834 1.5610042846205006 15.9537502268148046 Pb
atom 9.5596460019740217 2.4748213142895885 17.4811311039906485 O
atom 11.3373715847649255 3.7484742234082660 17.1939588294782197 Pb
atom 11.5230534441562913 3.8815428187788661 15.0005149310229378 O
atom 12.6119899011593795 1.9679698454648407 17.1942607933916243 O
atom 10.0613250461712287 5.5279213883076324 17.1943267559716588 O
atom 13.1148592455272031 5.0219673928588788 16.9062744880696307 O
atom 4.1418735441697248 7.3419514941717807 15.9540651450543827 Pb
atom 5.4175887857235345 8.2560123754242767 17.4811346941044548 O
atom 7.1949501107883878 9.5294900636945474 17.1935650629090517 Pb
atom 7.3814046890836460 9.6630278521679553 15.0000000000000000 O
atom 8.4697732886913286 7.7491647096565250 17.1942487966204141 O
atom 5.9191900557145711 11.3091782377044687 17.1941763464376791 O
atom 8.9723313109352976 10.8029695017749692 16.9067842673226245 O
atom 5.2313686483789139 3.7482745210297650 17.1941052460476413 Pb
atom 5.4174778095387435 3.8814937513425263 15.0006002895054600 O
atom 6.5065542475025104 1.9681996445976226 17.1940256435232754 O
atom 3.9558196258750695 5.5279321609447480 17.1942645305181294 O
atom 7.0088297204354557 5.0216661255571120 16.9068034297255352 O
atom 2.1784339425312220 1.5608168262188853 15.9540489681010023 Pb
atom 3.4539221527438553 2.4746657685152087 17.4814026207497477 O
atom 8.2837998540880911 5.9351490574339580 18.4348430345695604 Pb
atom 9.3735531444344673 6.7158281044554435 22.1550355039842195 Pb
atom 9.5596030684217386 6.8492302756085417 19.9618575659505773 O
atom 10.6485441918477193 4.9355091760719896 22.1556535798904832 O
atom 8.0979446140941711 8.4958618099996936 22.1554081992463381 O
atom 11.1510418916914453 7.9894657030475242 21.8681317444885792 O
atom 6.3203072075264624 4.5283657759013787 20.9155673927181418 Pb
atom 11.3373190328505498 8.1230256233000659 19.6747333316814412 Pb
atom 7.5959534666084503 5.4423344882077762 22.4427855629795339 O
atom 12.6120431300418296 6.3424684768326349 19.6749980396960424 O
atom 10.0615431006446574 9.9026844408178327 19.6747513100682987 O
atom 13.1148680836079787 9.3964876813594014 19.3869802542798908 O
atom 8.2840660175678025 10.3099081044931893 20.9152397643517070 Pb
atom 9.3735625920592742 2.3414779017635823 19.6743434391593972 Pb
atom 9.5595747740464443 11.2237251341622759 22.4426206415275509 O
atom 10.6485571437521234 0.5611811779999270 19.6750658038521351 O
atom 8.0976951731772999 4.1211790011225355 19.6750029823217858 O
atom 11.1510875000170202 3.6149839105215986 19.3873530888300110 O
atom 6.3206494516319029 0.1542248452418687 18.4344679314850737 Pb
atom 7.4103575291953838 0.9348875226552977 22.1554483670151221 Pb
atom 7.5960393885867505 1.0679561180258972 19.9620044685598366 O
atom 12.6119186732318003 10.7168736653375269 22.1557503309285266 O
atom 6.1343109906016897 2.7143346875546643 22.1558162935085576 O
atom 9.1878451899576650 2.2083806921059095 21.8677640256065295 O
atom 12.4259764517890137 4.5283647934188114 20.9155546825912850 Pb
atom 5.2318077862034578 8.1229443739062894 19.6747304349053422 Pb
atom 13.7016916933428305 5.4424256746713100 22.4426242316413536 O
atom 6.5064107992518014 6.3423356602833110 19.6750874321592732 O
atom 3.9558474132355603 9.9025509686682192 19.6751431386469378 O
atom 7.0089715218475996 9.3962816521717052 19.3873482505564354 O
atom 2.1784270825247556 5.9352042515759731 18.4347306363098085 Pb
atom 3.2679360552188457 6.7159033629415790 22.1550546004459541 Pb
atom 3.4543906335141012 6.8494411514149869 19.9614895375368988 O
atom 4.5427592331217888 4.9355780089035575 22.1557383341573129 O
atom 14.2032929633338565 8.4955915369514994 22.1556658839745744 O
atom 5.0453172553657621 7.9893828010220007 21.8682738048595198 O
atom 0.2148505973001887 0.1539705103522397 18.4348997026920003 Pb
atom 1.3043545928093774 0.9346878202767968 22.1555947835845473 Pb
atom 1.4904637539692021 1.0679070505895591 19.9620898270423623 O
atom 6.5064830195749428 10.7171034644703109 22.1555151810601743 O
atom 12.2399225334943598 2.7143454601917774 22.1557540680550318 O
atom 3.0818156648659110 2.2080794248041440 21.8682929672624340 O
atom 14.3894796777924743 10.3097206460915718 20.9155385056379011 Pb
atom 3.2679406314641590 2.3413191477017565 19.6748272861601912 Pb
atom 15.6649678880051120 11.2235695883878943 22.4428921582866465 O
atom 4.5431318164060643 0.5612882436936683 19.6747690300513760 O
atom 1.9922915435148572 4.1211664707470579 19.6750088925167219 O
atom 5.0452549640417743 3.6148247368013173 19.3876289747482247 O
atom 4.3567857985185547 3.1215623566809914 23.3963325721064592 Pb
atom 5.4465390888649310 3.9022414037024746 27.1165250415211219 Pb
atom 5.6325890128521960 4.0356435748555750 24.9233471034874796 O
atom 6.7215301362781874 2.1219224753190207 27.1171431174273891 O
atom 4.1709305585246401 5.6822751092467261 27.1168977367832369 O
atom 7.2240278361219037 5.1758790022945611 26.8296212820254780 O
atom 2.3932931519569158 1.7147790751484133 25.8770569302550300 Pb
atom 7.4103049772810055 5.3094389225470984 24.6362228692183365 Pb
atom 8.6850290744722916 3.5288817760796674 24.6364875772329412 O
atom 6.1345290450751229 7.0890977400648660 24.6362408476051939 O
atom 9.1878540280384424 6.5829009806064347 24.3484697918167896 O
atom 4.3570519619982546 7.4963214037402226 25.8767293018886022 Pb
atom 9.3734913641316986 11.0903817216362715 24.6358329766962925 Pb
atom 10.6484859158245477 9.3100849978726146 24.6365553413890410 O
atom 4.1706811176077530 1.3075923003695691 24.6364925198586846 O
atom 7.2240734444474883 0.8013972097686320 24.3488426263669098 O
atom 6.3205782237043291 8.9031286651145543 23.3959574690219725 Pb
atom 7.4102863012678055 9.6837913425279876 27.1169379045520174 Pb
atom 7.5959681606591714 9.8168599378985846 24.9234940060967318 O
atom 8.6849046176622533 7.9032869645845629 27.1172398684654183 O
atom 6.1342397626741105 11.4632385074273522 27.1173058310454564 O
atom 9.1877739620300858 10.9572845119785978 26.8292535631434319 O
atom 8.4989623962194631 1.7147780926658465 25.8770442201281838 Pb
atom 13.5159106938227431 5.3093576731533227 24.6362199724422339 Pb
atom 2.5793967436822607 3.5287489595303452 24.6365769696961721 O
atom 12.2399503208548524 7.0889642679152525 24.6366326761838437 O
atom 3.0819574662780562 6.5826949514187332 24.3488377880933378 O
atom 10.4625299901440467 3.1216175508230042 23.3962201738467073 Pb
atom 11.5520389628381359 3.9023166621886123 27.1165441379828493 Pb
atom 11.7384935411333871 4.0358544506620211 24.9229790750737976 O
atom 12.8268621407410741 2.1219913081505926 27.1172278716942117 O
atom 10.2762789077643042 5.6820048361985336 27.1171554215114696 O
atom 13.3294201629850484 5.1757961002690358 26.8297633423964186 O
atom 12.4258963325614360 8.9028743302249289 23.3963892402288955 Pb
atom 13.5154003280706156 9.6835916401494853 27.1170843211214390 Pb
atom 13.7015094892304443 9.8168108704622501 24.9235793645792612 O
atom 14.7905859271942219 7.9035167637173451 27.1170047185970731 O
atom 12.2398513055667859 11.4632492800644687 27.1172436055919306 O
atom 15.2928614001271654 10.9569832446768309 26.8297825047993257 O
atom 10.4624656222229344 7.4961339453386051 25.8770280431747963 Pb
atom 15.4789863667254135 11.0902229675744479 24.6363168236970864 Pb
atom 4.5430605884784860 9.3101920635663582 24.6362585675882784 O
atom 10.2763944511341432 1.3075797699940921 24.6364984300536207 O
atom 1.1182409084722278 0.8012380360483513 24.3491185122851235 O
