#===============================================================================
# Created using the Atomic Simulation Environment (ASE)

# Mon Mar 23 14:01:15 2026

#=======================================================
lattice_vector 14.2238788010732762 0.0000000000000000 0.0000000000000000 
lattice_vector -0.0000000905053021 6.9248890205102045 0.0000000000000000 
lattice_vector 0.0000000000000000 0.0000000000000000 43.4004012012220457 
atom 3.5559152436337067 5.1939280759311943 16.3660025748851226 Pb
atom 3.5558988427267124 0.0001174073469236 15.0000027258853663 O
atom 1.3661268323022067 5.1930214249813273 16.3660168421712200 O
atom 3.5558992005228629 3.4623841175810122 15.0000044561393651 O
atom 10.6678996873117651 0.0001097423803150 15.0000000000000000 O
atom 10.6678572952021220 1.7314785013240319 16.3659491988726842 Pb
atom 10.6678989703040497 3.4630990326285933 15.0000005652262693 O
atom 12.8575449790653416 1.7305769214427382 16.3660033503309208 O
atom 8.4781419208897741 1.7306620600896303 16.3659869362519004 O
atom 14.2238320130527409 6.9241160562800816 16.3661902868192257 Pb
atom 0.0000313862379168 5.1938773034884882 19.9219079176211515 Pb
atom 14.2238265192869466 0.0000468745517067 18.5559370808585626 O
atom 2.1898116161431758 5.1931205729443004 19.9220167162068726 O
atom 12.0340021828555326 5.1934581214520961 19.9220116467004722 O
atom 14.2238121080977269 0.0000171945720171 21.2884625795262608 O
atom 14.2238322492269127 3.4616984160451483 16.3661886254447815 Pb
atom 14.2237324507105001 1.7314266956070770 19.9225360967676295 Pb
atom 14.2238267073773219 3.4622376347820221 18.5559391213173051 O
atom 2.1896720500177165 1.7306749711494873 19.9221435002024805 O
atom 12.0340316930325013 1.7310144096580262 19.9221384380771340 O
atom 14.2238120982018046 3.4630269948568624 21.2884601327278169 O
atom 10.6677763284941403 6.9245992923180664 19.9222207229354495 Pb
atom 10.6678304964752737 5.1938039794918049 23.4779411965809004 Pb
atom 10.6678140050629811 6.9248823314177388 22.1119413475811442 O
atom 5.7456794644990437 5.1931076343665250 16.3661954335244353 O
atom 8.4780420851437732 5.1928973285419389 23.4779554638669978 O
atom 3.5559451933339199 0.0000970481595334 17.7324629800266642 O
atom 10.6677762676837755 3.4621907320857082 19.9222188495386874 Pb
atom 3.5559261633197665 1.7314792294632146 16.3665143928813457 Pb
atom 10.6678144533644339 3.4622600211416223 22.1119430778351429 O
atom 5.7456400604124740 1.7306622651701769 16.3661081976834382 O
atom 1.3662398518387544 1.7305767635359854 16.3661149392849481 O
atom 3.5559447662402519 3.4630081084070463 17.7324636079434086 O
atom 3.5559763376099625 6.9241523974104124 19.9222131693823954 Pb
atom 10.6678683363495850 5.1939291041844768 16.3665583714575007 Pb
atom 3.5559360485747602 6.9248746664511298 22.1119386216957707 O
atom 12.8576581343085010 5.1930216400624607 16.3661381180070684 O
atom 8.4781026094544103 5.1931081964609209 16.3663068666681504 O
atom 10.6678250943675526 0.0001054431387695 17.7324646664772310 O
atom 3.5559741766902579 3.4618177671649040 19.9222123787528815 Pb
atom 3.5558937469704124 1.7313544048846425 23.4778878205684549 Pb
atom 3.5559354220723303 3.4629749361892039 22.1119391869220365 O
atom 5.7455814308336350 1.7304528250033486 23.4779419720266915 O
atom 1.3661783726580581 1.7305379636502409 23.4779255579476782 O
atom 10.6678250561934327 3.4622940634382671 17.7324610076289488 O
atom 7.1118853467996619 6.9241482898921296 16.3663046228291620 Pb
atom 7.1117872248219358 5.1934236044120317 19.9222436567084245 Pb
atom 7.1118866781167771 6.9246757592635308 18.5560028492374549 O
atom 9.3014823760968373 5.1933762271639665 19.9220808923301114 O
atom 4.9222195796044828 5.1930382756687479 19.9220762396101776 O
atom 7.1118729035385106 6.9246220708192681 21.2884018603537726 O
atom 7.1118867850645016 3.4618444997265501 16.3662972494159931 Pb
atom 7.1119649943565673 1.7309743546123846 19.9222062085774851 Pb
atom 7.1118865536686444 3.4621483590401945 18.5560002319358794 O
atom 9.3016276540128917 1.7309327169211646 19.9220799379946563 O
atom 4.9221848776316142 1.7305933554256632 19.9220752354545851 O
atom 7.1118725528172657 3.4620617606022845 21.2883987193932995 O
atom 7.1118684648210335 6.9239919598406923 23.4781289085149893 Pb
atom 7.1119466390794903 5.1937532070490979 27.0338465393169187 Pb
atom 7.1118628805499391 6.9248117986225219 25.6678757025543334 O
atom 9.3017268689847494 5.1929964765049110 27.0339553379026469 O
atom 4.9220386346238207 5.1933340250127058 27.0339502683962394 O
atom 7.1118484693607176 6.9247821186428329 28.4004012012220457 O
atom 7.1118687009952035 3.4615743196057593 23.4781272471405558 Pb
atom 7.1117689024787820 1.7313025991676878 27.0344747184634002 Pb
atom 7.1118631591456127 3.4621135383426336 25.6678777430130722 O
atom 9.3015873028592839 1.7305508747100977 27.0340821218982583 O
atom 4.9220681448007921 1.7308903132186366 27.0340770597729048 O
atom 7.1118485499700972 3.4629028984174726 28.4003987544235912 O
atom 3.5558127802624209 6.9244751958786770 27.0341593446312132 Pb
atom 12.8575947173406107 5.1929835379271347 23.4781340552202025 O
atom 10.6678603556701841 6.9248619722303486 24.8444016017224385 O
atom 3.5558127194520668 3.4620666356463192 27.0341574712344652 Pb
atom 10.6678414161613304 1.7313551330238253 23.4784530145771129 Pb
atom 12.8575553132540445 1.7305381687307877 23.4780468193792089 O
atom 8.4781551046803170 1.7304526670965961 23.4780535609807188 O
atom 10.6678600190818234 3.4628840119676565 24.8444022296391793 O
atom 10.6678915904515303 6.9240283009710231 27.0341517910781661 Pb
atom 3.5559047881178829 5.1938050077450866 23.4784969931532785 Pb
atom 5.7456945860767910 5.1928975436230713 23.4780767397028427 O
atom 1.3661390612226982 5.1929841000215324 23.4782454883639176 O
atom 3.5558614556305481 6.9248703672095839 24.8444032881730053 O
atom 10.6678894295318205 3.4616936707255150 27.0341510004486594 Pb
atom 3.5558615079617204 3.4621699669988786 24.8443996293247267 O
atom 14.2238005996412280 6.9240241934527393 23.4782432445249398 Pb
atom 14.2237024776635028 5.1932995079726432 27.0341822784041952 Pb
atom 14.2238019309583397 6.9245516628241424 25.6679414709332221 O
atom 2.1895188278651321 5.1932521307245771 27.0340195140258786 O
atom 12.0341348324460551 5.1929141792293585 27.0340148613059554 O
atom 14.2237881563800759 6.9244979743798787 28.4003404820495362 O
atom 14.2238020379060686 3.4617204032871607 23.4782358711117709 Pb
atom 0.0000014461248549 1.7308502581729952 27.0341448302732488 Pb
atom 14.2238018065102150 3.4620242626008046 25.6679388536316466 O
atom 2.1896641057811830 1.7308086204817750 27.0340185596904234 O
atom 12.0341001304731812 1.7304692589862738 27.0340138571503630 O
atom 14.2237878056588283 3.4619376641628947 28.4003373410890632 O
