#===============================================================================
# Created using the Atomic Simulation Environment (ASE)

# Mon Mar 23 14:01:13 2026

#=======================================================
lattice_vector 10.0577835300710472 0.0000000000000000 0.0000000000000000 
lattice_vector -0.0000010998600674 10.0578176800707233 0.0000000000000000 
lattice_vector 0.0000000000000000 0.0000000000000000 49.0444903496679103 
atom 2.5145181627189874 2.5143969573334659 15.0000000000000000 Pb
atom 1.5486342554871846 1.5486345482708694 20.1938542630139395 O
atom 4.0630010102212228 0.9660629048385546 15.0007567286456407 O
atom 0.9660952596229960 4.0629716542428547 15.0004191802263556 O
atom 3.4808145498002792 3.4808288738763231 20.1938362630707644 O
atom 0.0002070704044697 0.0002043479975956 16.7322409310367419 Pb
atom 2.5148793955565059 2.5150095460822213 18.4624505963931860 Pb
atom 1.5485931135949818 1.5485931405143494 16.7316635032750867 O
atom 4.0630346930608150 0.9662939635506498 18.4632023277010937 O
atom 0.9662485024620230 4.0630831629543973 18.4628628892809346 O
atom 3.4807700848300582 3.4807844230471483 16.7308264633558039 O
atom 0.0002412663665902 5.0292526647962852 20.1941670254317458 Pb
atom 2.5144936078250684 7.5434202674098110 15.0000112746608050 Pb
atom 1.5486367505227252 6.5775897782745680 20.1938457778284715 O
atom 4.0630245755628751 5.9951569751565250 15.0008317128601547 O
atom 0.9660920165692113 9.0918471461490178 15.0009179253615823 O
atom 3.4808138748056647 8.5096950038448878 20.1938184582314513 O
atom 0.0001971133857509 5.0292087259528468 16.7316865657136944 Pb
atom 2.5149059606677673 7.5438171761547590 18.4624601116709499 Pb
atom 1.5485955083450995 6.5775480302331291 16.7315790680912713 O
atom 4.0629777484137533 5.9951658738633578 18.4632770830515796 O
atom 0.9662840194161467 9.0918793148662438 18.4633625845681202 O
atom 3.4807712902064019 8.5096530233862175 16.7309073985001575 O
atom 7.5437886127657725 2.5148947523925780 15.0000102367094108 Pb
atom 6.5775705855195703 1.5486355632702296 20.1938534428426451 O
atom 9.0919041308553616 0.9661798404430607 15.0009177081643017 O
atom 5.9952151311988340 4.0631176608007520 15.0008311488213568 O
atom 8.5096653097373061 3.4808294287757975 20.1938100632227915 O
atom 5.0291819497585752 0.0001982223216517 16.7320595307473532 Pb
atom 7.5433927756576233 2.5145145310999890 18.4624608496722225 Pb
atom 6.5775277506262881 1.5485937425180829 16.7308641531116891 O
atom 9.0917715437027802 0.9662072791427661 18.4633624286084874 O
atom 5.9950594240646460 4.0629063595045229 18.4632772902480156 O
atom 8.5096199778533563 3.4807841510270765 16.7316214435142001 O
atom 7.5435169895095111 7.5436730040766573 15.0004536932180645 Pb
atom 6.5775717315677786 6.5775901442846063 20.1941143976646842 O
atom 9.0917476443530205 5.9952070789069696 15.0005010733062019 O
atom 5.9951430263099450 9.0918153008617448 15.0008390248825556 O
atom 8.5096630359760237 8.5096945799752657 20.1941204083931645 O
atom 5.0291708049564958 5.0291942824889118 16.7320948454599829 Pb
atom 7.5436589323814429 7.5435635428083669 18.4629029431440372 Pb
atom 6.5775270090336004 6.5775457258869423 16.7317527779505753 O
atom 9.0918924172007110 5.9951463976172983 18.4629445830385563 O
atom 5.9951604991559790 9.0918818495704024 18.4632839446160588 O
atom 8.5096177835655418 8.5096499517010251 16.7317916986818354 O
atom 0.0002508633511806 0.0002483468069535 20.1947123107559179 Pb
atom 2.5146036684105821 2.5144823347504723 21.9248890194559962 Pb
atom 1.5487197611787800 1.5487199256878759 27.1187432824699322 O
atom 4.0630865159128176 0.9661482822555610 21.9256457481016405 O
atom 0.9661807653145910 4.0630570316598620 21.9253081996823553 O
atom 3.4809000554918743 3.4809142512933300 27.1187252825267606 O
atom 0.0002925760960646 0.0002897254146021 23.6571299504927417 Pb
atom 2.5149649012481006 2.5150949234992281 25.3873396158491893 Pb
atom 1.5486786192865767 1.5486785179313560 23.6565525227310829 O
atom 4.0631201987524097 0.9663793409676561 25.3880913471570864 O
atom 0.9663340081536178 4.0631685403714037 25.3877519087369343 O
atom 3.4808555905216538 3.4808698004641552 23.6557154828118001 O
atom 0.0003267720581851 5.0293380422132934 27.1190560448877420 Pb
atom 2.5145791135166635 7.5435056448268174 21.9249002941168030 Pb
atom 1.5487222562143197 6.5776751556915745 27.1187347972844712 O
atom 4.0631100812544689 5.9952423525735323 21.9257207323161509 O
atom 0.9661775222608061 9.0919325235660224 21.9258069448175803 O
atom 3.4808993804972599 8.5097803812618924 27.1187074776874510 O
atom 0.0002826190773457 5.0292941033698524 23.6565755851696942 Pb
atom 2.5149914663593615 7.5439025535717654 25.3873491311269497 Pb
atom 1.5486810140366944 6.5776334076501364 23.6564680875472675 O
atom 4.0630632541053471 5.9952512512803651 25.3881661025075758 O
atom 0.9663695251077415 9.0919646922832502 25.3882516040241200 O
atom 3.4808567958979966 8.5097384008032240 23.6557964179561573 O
atom 5.0292268230173880 0.0002399114424649 20.1946139204711343 Pb
atom 7.5438741184573663 2.5149801298095844 21.9248992561654106 Pb
atom 6.5776560912111650 1.5487209406872362 27.1187424622986413 O
atom 9.0919896365469555 0.9662652178600670 21.9258067276203015 O
atom 5.9953006368904296 4.0632030382177584 21.9257201682773548 O
atom 8.5097508154289017 3.4809148061928039 27.1186990826787877 O
atom 5.0292674554501700 0.0002835997386582 23.6569485502033494 Pb
atom 7.5434782813492181 2.5145999085169959 25.3873498691282222 Pb
atom 6.5776132563178837 1.5486791199350896 23.6557531725676888 O
atom 9.0918570493943758 0.9662926565597725 25.3882514480644872 O
atom 5.9951449297562407 4.0629917369215303 25.3881663097040153 O
atom 8.5097054835449519 3.4808695284440825 23.6565104629701963 O
atom 5.0292177883308185 5.0292431717255299 20.1946800751488240 Pb
atom 7.5436024952011040 7.5437583814936646 21.9253427126740661 Pb
atom 6.5776572372593742 6.5776755217016136 27.1190034171206875 O
atom 9.0918331500446143 5.9952924563239760 21.9253900927621999 O
atom 5.9952285320015415 9.0919006782787513 21.9257280443385554 O
atom 8.5097485416676193 8.5097799573922703 27.1190094278491642 O
atom 5.0292563106480905 5.0292796599059191 23.6569838649159792 Pb
atom 7.5437444380730350 7.5436489202253743 25.3877919626000406 Pb
atom 6.5776125147251960 6.5776311033039496 23.6566417974065750 O
atom 9.0919779228923048 5.9952317750343056 25.3878336024945490 O
atom 5.9952460048475738 9.0919672269874106 25.3881729640720550 O
atom 8.5097032892571374 8.5097353291180315 23.6566807181378351 O
atom 0.0003363690427755 0.0003337242239600 27.1196013302119106 Pb
atom 2.5146891741021777 2.5145677121674792 28.8497780389119924 Pb
atom 1.5488052668703745 1.5488053031048825 34.0436323019259390 O
atom 4.0631720216044123 0.9662336596725675 28.8505347675576367 O
atom 0.9662662710061859 4.0631424090768675 28.8501972191383516 O
atom 3.4809855611834690 3.4809996287103360 34.0436143019827568 O
atom 0.0003780817876595 0.0003751028316086 30.5820189699487379 Pb
atom 2.5150504069396962 2.5151803009162346 32.3122286353051891 Pb
atom 1.5487641249781716 1.5487638953483625 30.5814415421870791 O
atom 4.0632057044440053 0.9664647183846627 32.3129803666130897 O
atom 0.9664195138452126 4.0632539177884102 32.3126409281929341 O
atom 3.4809410962132481 3.4809551778811616 30.5806045022677964 O
atom 0.0004122777497800 5.0294234196302998 34.0439450643437453 Pb
atom 2.5146646192082591 7.5435910222438238 28.8497893135727992 Pb
atom 1.5488077619059148 6.5777605331085809 34.0436238167404639 O
atom 4.0631955869460636 5.9953277299905396 28.8506097517721507 O
atom 0.9662630279524010 9.0920179009830324 28.8506959642735765 O
atom 3.4809848861888550 8.5098657586789006 34.0435964971434544 O
atom 0.0003681247689406 5.0293794807868597 30.5814646046256904 Pb
atom 2.5150769720509567 7.5439879309887727 32.3122381505829424 Pb
atom 1.5487665197282892 6.5777187850671428 30.5813571070032637 O
atom 4.0631487597969418 5.9953366286973706 32.3130551219635720 O
atom 0.9664550307993363 9.0920500697002566 32.3131406234801091 O
atom 3.4809423015895913 8.5098237782202304 30.5806854374121535 O
atom 5.0293123287089827 0.0003252888594715 27.1195029399271306 Pb
atom 7.5439596241489619 2.5150655072265913 28.8497882756214068 Pb
atom 6.5777415969027597 1.5488063181042426 34.0436314817546446 O
atom 9.0920751422385475 0.9663505952770738 28.8506957470763012 O
atom 5.9953861425820243 4.0632884156347648 28.8506091877333510 O
atom 8.5098363211204973 3.4810001836098108 34.0435881021347910 O
atom 5.0293529611417656 0.0003689771556647 30.5818375696593456 Pb
atom 7.5435637870408145 2.5146852859340023 32.3122388885842184 Pb
atom 6.5776987620094776 1.5487644973520960 30.5806421920236851 O
atom 9.0919425550859714 0.9663780339767790 32.3131404675204834 O
atom 5.9952304354478363 4.0630771143385367 32.3130553291600151 O
atom 8.5097909892365475 3.4809549058610889 30.5813994824261961 O
atom 5.0293032940224141 5.0293285491425364 27.1195690946048167 Pb
atom 7.5436880008926996 7.5438437589106710 28.8502317321300588 Pb
atom 6.5777427429509672 6.5777608991186192 34.0438924365766837 O
atom 9.0919186557362099 5.9953778337409833 28.8502791122181996 O
atom 5.9953140376931362 9.0919860556957595 28.8506170637945516 O
atom 8.5098340473592149 8.5098653348092785 34.0438984473051605 O
atom 5.0293418163396861 5.0293650373229246 30.5818728843719789 Pb
atom 7.5438299437646306 7.5437342976423816 32.3126809820560368 Pb
atom 6.5776980204167890 6.5777164807209560 30.5815308168625712 O
atom 9.0920634285839004 5.9953171524513120 32.3127226219505488 O
atom 5.9953315105391694 9.0920526044044170 32.3130619835280584 O
atom 8.5097887949487330 8.5098207065350397 30.5815697375938313 O
atom 0.0004218747343704 0.0004191016409665 34.0444903496679103 Pb
atom 5.0293978344005765 0.0004106662764780 34.0443919593831339 Pb
atom 5.0293887997140088 5.0294139265595446 34.0444581140608236 Pb
