#===============================================================================
# Created using the Atomic Simulation Environment (ASE)

# Mon Mar 23 14:01:13 2026

#=======================================================
lattice_vector 10.0577835300710472 0.0000000000000000 0.0000000000000000 
lattice_vector -0.0000010998600674 10.0578176800707233 0.0000000000000000 
lattice_vector 0.0000000000000000 0.0000000000000000 42.1196013302119141 
atom 2.5146036684105821 2.5144823347504723 15.0000000000000000 Pb
atom 1.5487197611787800 1.5487199256878759 20.1938542630139359 O
atom 4.0630865159128176 0.9661482822555610 15.0007567286456442 O
atom 0.9661807653145910 4.0630570316598620 15.0004191802263591 O
atom 3.4809000554918743 3.4809142512933300 20.1938362630707644 O
atom 0.0002925760960646 0.0002897254146021 16.7322409310367455 Pb
atom 2.5149649012481006 2.5150949234992281 18.4624505963931931 Pb
atom 1.5486786192865767 1.5486785179313560 16.7316635032750867 O
atom 4.0631201987524097 0.9663793409676561 18.4632023277010902 O
atom 0.9663340081536178 4.0631685403714037 18.4628628892809381 O
atom 3.4808555905216538 3.4808698004641552 16.7308264633558039 O
atom 0.0003267720581851 5.0293380422132934 20.1941670254317458 Pb
atom 2.5145791135166635 7.5435056448268174 15.0000112746608067 Pb
atom 1.5487222562143197 6.5776751556915745 20.1938457778284750 O
atom 4.0631100812544689 5.9952423525735323 15.0008317128601547 O
atom 0.9661775222608061 9.0919325235660224 15.0009179253615841 O
atom 3.4808993804972599 8.5097803812618924 20.1938184582314548 O
atom 0.0002826190773457 5.0292941033698524 16.7316865657136979 Pb
atom 2.5149914663593615 7.5439025535717654 18.4624601116709535 Pb
atom 1.5486810140366944 6.5776334076501364 16.7315790680912713 O
atom 4.0630632541053471 5.9952512512803651 18.4632770830515796 O
atom 0.9663695251077415 9.0919646922832502 18.4633625845681237 O
atom 3.4808567958979966 8.5097384008032240 16.7309073985001611 O
atom 7.5438741184573663 2.5149801298095844 15.0000102367094144 Pb
atom 6.5776560912111650 1.5487209406872362 20.1938534428426451 O
atom 9.0919896365469555 0.9662652178600670 15.0009177081643053 O
atom 5.9953006368904296 4.0632030382177584 15.0008311488213586 O
atom 8.5097508154289017 3.4809148061928039 20.1938100632227915 O
atom 5.0292674554501700 0.0002835997386582 16.7320595307473532 Pb
atom 7.5434782813492181 2.5145999085169959 18.4624608496722260 Pb
atom 6.5776132563178837 1.5486791199350896 16.7308641531116926 O
atom 9.0918570493943758 0.9662926565597725 18.4633624286084910 O
atom 5.9951449297562407 4.0629917369215303 18.4632772902480191 O
atom 8.5097054835449519 3.4808695284440825 16.7316214435142001 O
atom 7.5436024952011040 7.5437583814936646 15.0004536932180699 Pb
atom 6.5776572372593742 6.5776755217016136 20.1941143976646913 O
atom 9.0918331500446143 5.9952924563239760 15.0005010733062036 O
atom 5.9952285320015415 9.0919006782787513 15.0008390248825592 O
atom 8.5097485416676193 8.5097799573922703 20.1941204083931680 O
atom 5.0292563106480905 5.0292796599059191 16.7320948454599829 Pb
atom 7.5437444380730350 7.5436489202253743 18.4629029431440443 Pb
atom 6.5776125147251960 6.5776311033039496 16.7317527779505788 O
atom 9.0919779228923048 5.9952317750343056 18.4629445830385528 O
atom 5.9952460048475738 9.0919672269874106 18.4632839446160588 O
atom 8.5097032892571374 8.5097353291180315 16.7317916986818389 O
atom 0.0003363690427755 0.0003337242239600 20.1947123107559143 Pb
atom 2.5146891741021777 2.5145677121674792 21.9248890194559962 Pb
atom 1.5488052668703745 1.5488053031048825 27.1187432824699428 O
atom 4.0631720216044123 0.9662336596725675 21.9256457481016405 O
atom 0.9662662710061859 4.0631424090768675 21.9253081996823553 O
atom 3.4809855611834690 3.4809996287103360 27.1187252825267606 O
atom 0.0003780817876595 0.0003751028316086 23.6571299504927417 Pb
atom 2.5150504069396962 2.5151803009162346 25.3873396158491929 Pb
atom 1.5487641249781716 1.5487638953483625 23.6565525227310829 O
atom 4.0632057044440053 0.9664647183846627 25.3880913471570935 O
atom 0.9664195138452126 4.0632539177884102 25.3877519087369379 O
atom 3.4809410962132481 3.4809551778811616 23.6557154828118001 O
atom 0.0004122777497800 5.0294234196302998 27.1190560448877491 Pb
atom 2.5146646192082591 7.5435910222438238 21.9249002941168030 Pb
atom 1.5488077619059148 6.5777605331085809 27.1187347972844677 O
atom 4.0631955869460636 5.9953277299905396 21.9257207323161545 O
atom 0.9662630279524010 9.0920179009830324 21.9258069448175803 O
atom 3.4809848861888550 8.5098657586789006 27.1187074776874582 O
atom 0.0003681247689406 5.0293794807868597 23.6565755851696942 Pb
atom 2.5150769720509567 7.5439879309887727 25.3873491311269461 Pb
atom 1.5487665197282892 6.5777187850671428 23.6564680875472675 O
atom 4.0631487597969418 5.9953366286973706 25.3881661025075758 O
atom 0.9664550307993363 9.0920500697002566 25.3882516040241129 O
atom 3.4809423015895913 8.5098237782202304 23.6557964179561573 O
atom 5.0293123287089827 0.0003252888594715 20.1946139204711343 Pb
atom 7.5439596241489619 2.5150655072265913 21.9248992561654106 Pb
atom 6.5777415969027597 1.5488063181042426 27.1187424622986484 O
atom 9.0920751422385475 0.9663505952770738 21.9258067276203050 O
atom 5.9953861425820243 4.0632884156347648 21.9257201682773548 O
atom 8.5098363211204973 3.4810001836098108 27.1186990826787948 O
atom 5.0293529611417656 0.0003689771556647 23.6569485502033494 Pb
atom 7.5435637870408145 2.5146852859340023 25.3873498691282222 Pb
atom 6.5776987620094776 1.5487644973520960 23.6557531725676888 O
atom 9.0919425550859714 0.9663780339767790 25.3882514480644872 O
atom 5.9952304354478363 4.0630771143385367 25.3881663097040189 O
atom 8.5097909892365475 3.4809549058610889 23.6565104629701999 O
atom 5.0293032940224141 5.0293285491425364 20.1946800751488205 Pb
atom 7.5436880008926996 7.5438437589106710 21.9253427126740625 Pb
atom 6.5777427429509672 6.5777608991186192 27.1190034171206875 O
atom 9.0919186557362099 5.9953778337409833 21.9253900927622034 O
atom 5.9953140376931362 9.0919860556957595 21.9257280443385554 O
atom 8.5098340473592149 8.5098653348092785 27.1190094278491642 O
atom 5.0293418163396861 5.0293650373229246 23.6569838649159827 Pb
atom 7.5438299437646306 7.5437342976423816 25.3877919626000406 Pb
atom 6.5776980204167890 6.5777164807209560 23.6566417974065750 O
atom 9.0920634285839004 5.9953171524513120 25.3878336024945526 O
atom 5.9953315105391694 9.0920526044044170 25.3881729640720621 O
atom 8.5097887949487330 8.5098207065350397 23.6566807181378351 O
atom 0.0004218747343704 0.0004191016409665 27.1196013302119141 Pb
atom 5.0293978344005765 0.0004106662764780 27.1195029399271377 Pb
atom 5.0293887997140088 5.0294139265595446 27.1195690946048273 Pb
