#===============================================================================
# Created using the Atomic Simulation Environment (ASE)

# Mon Mar 23 14:01:13 2026

#=======================================================
lattice_vector 12.2111169631888270 0.0000000000000000 0.0000000000000000 
lattice_vector 3.9269428276419625 11.5624905206256550 0.0000000000000000 
lattice_vector 0.0000000000000000 0.0000000000000000 30.0007807895243346 
atom 5.4465390888649310 3.9022414037024746 15.0000000000000000 Pb
atom 6.7215301362781874 2.1219224753190207 15.0006180759062673 O
atom 4.1709305585246401 5.6822751092467261 15.0003726952621150 O
atom 7.4102863012678055 9.6837913425279876 15.0004128630308955 Pb
atom 8.6849046176622533 7.9032869645845629 15.0007148269442965 O
atom 6.1342397626741105 11.4632385074273522 15.0007807895243346 O
atom 11.5520389628381359 3.9023166621886123 15.0000190964617275 Pb
atom 12.8268621407410741 2.1219913081505926 15.0007028301730898 O
atom 10.2762789077643042 5.6820048361985336 15.0006303799903478 O
atom 13.5154003280706156 9.6835916401494853 15.0005592796003171 Pb
atom 14.7905859271942219 7.9035167637173451 15.0004796770759512 O
atom 12.2398513055667859 11.4632492800644687 15.0007185640708087 O
