#===============================================================================
# Created using the Atomic Simulation Environment (ASE)

# Mon Mar 23 14:01:15 2026

#=======================================================
lattice_vector 14.2238788010732762 0.0000000000000000 0.0000000000000000 
lattice_vector -0.0000000905053021 6.9248890205102045 0.0000000000000000 
lattice_vector 0.0000000000000000 0.0000000000000000 50.5123398229178235 
atom 10.6678787918654141 5.1940521723705828 16.3660025748851261 Pb
atom 10.6678623909584225 0.0002415037863130 15.0000027258853734 O
atom 8.4780903805339189 5.1931455214207167 16.3660168421712235 O
atom 10.6678627487545707 3.4625082140204011 15.0000044561393651 O
atom 3.5559844344702012 0.0002338388197044 15.0000000000000000 O
atom 3.5559420423605572 1.7316025977634215 16.3659491988726913 Pb
atom 3.5559837174624787 3.4632231290679822 15.0000005652262693 O
atom 5.7456297262237772 1.7307010178821276 16.3660033503309243 O
atom 1.3662266680482003 1.7307861565290199 16.3659869362519039 O
atom 7.1119167602111784 6.9242401527194710 16.3661902868192293 Pb
atom 7.1119949344696254 5.1940013999278758 19.9219079176211515 Pb
atom 7.1119112664453823 0.0001709709910961 18.5559370808585662 O
atom 9.3017751643748916 5.1932446693836907 19.9220167162068726 O
atom 4.9220869300139656 5.1935822178914854 19.9220116467004758 O
atom 7.1118968552561679 0.0001412910114065 21.2884625795262679 O
atom 7.1119169963853484 3.4618225124845377 16.3661886254447886 Pb
atom 7.1118171978689269 1.7315507920464663 19.9225360967676330 Pb
atom 7.1119114545357478 3.4623617312214123 18.5559391213173015 O
atom 9.3016355982494296 1.7307990675888762 19.9221435002024840 O
atom 4.9221164401909281 1.7311385060974156 19.9221384380771340 O
atom 7.1118968453602358 3.4631510912962518 21.2884601327278240 O
atom 3.5558610756525755 6.9247233887574557 19.9222207229354495 Pb
atom 3.5559152436337067 5.1939280759311943 23.4779411965808968 Pb
atom 3.5558988427267124 0.0001174073469236 22.1119413475811406 O
atom 12.8576430127307564 5.1932317308059126 16.3661954335244388 O
atom 1.3661268323022067 5.1930214249813273 23.4779554638669943 O
atom 10.6679087415656273 0.0002211445989228 17.7324629800266713 O
atom 3.5558610148422116 3.4623148285250975 19.9222188495386909 Pb
atom 10.6678897115514726 1.7316033259026038 16.3665143928813457 Pb
atom 3.5558992005228629 3.4623841175810122 22.1119430778351393 O
atom 12.8576036086441849 1.7307863616095664 16.3661081976834417 O
atom 8.4782034000704627 1.7307008599753744 16.3661149392849481 O
atom 10.6679083144719655 3.4631322048464357 17.7324636079434121 O
atom 10.6679398858416690 6.9242764938498000 19.9222131693823989 Pb
atom 3.5559530835080180 5.1940532006238662 16.3665583714575078 Pb
atom 10.6678996873117651 0.0001097423803150 22.1119386216957743 O
atom 5.7457428814669331 5.1931457365018492 16.3661381180070684 O
atom 1.3661873566128435 5.1932322929003103 16.3663068666681539 O
atom 3.5559098415259824 0.0002295395781588 17.7324646664772345 O
atom 10.6679377249219627 3.4619418636042942 19.9222123787528886 Pb
atom 10.6678572952021220 1.7314785013240319 23.4778878205684585 Pb
atom 10.6678989703040497 3.4630990326285933 22.1119391869220436 O
atom 12.8575449790653416 1.7305769214427382 23.4779419720266951 O
atom 8.4781419208897741 1.7306620600896303 23.4779255579476747 O
atom 3.5559098033518621 3.4624181598776573 17.7324610076289524 O
atom 14.2238488950313702 6.9242723863315190 16.3663046228291691 Pb
atom 14.2237507730536468 5.1935477008514210 19.9222436567084280 Pb
atom 14.2238502263484818 6.9247998557029202 18.5560028492374549 O
atom 2.1895671232552743 5.1935003236033541 19.9220808923301114 O
atom 12.0341831278361955 5.1931623721081381 19.9220762396101811 O
atom 14.2238364517702180 6.9247461672586574 21.2884018603537690 O
atom 14.2238503332962090 3.4619685961659390 16.3662972494159966 Pb
atom 0.0000497415150000 1.7310984510517742 19.9222062085774816 Pb
atom 14.2238501019003571 3.4622724554795838 18.5560002319358794 O
atom 2.1897124011713247 1.7310568133605539 19.9220799379946563 O
atom 12.0341484258633251 1.7307174518650528 19.9220752354545887 O
atom 14.2238361010489722 3.4621858570416739 21.2883987193932995 O
atom 14.2238320130527409 6.9241160562800816 23.4781289085150000 Pb
atom 0.0000313862379168 5.1938773034884882 27.0338465393169258 Pb
atom 14.2238265192869466 0.0000468745517067 25.6678757025543369 O
atom 2.1898116161431758 5.1931205729443004 27.0339553379026469 O
atom 12.0340021828555326 5.1934581214520961 27.0339502683962465 O
atom 14.2238121080977269 0.0000171945720171 28.4004012012220350 O
atom 14.2238322492269127 3.4616984160451483 23.4781272471405558 Pb
atom 14.2237324507105001 1.7314266956070770 27.0344747184634038 Pb
atom 14.2238267073773219 3.4622376347820221 25.6678777430130793 O
atom 2.1896720500177165 1.7306749711494873 27.0340821218982548 O
atom 12.0340316930325013 1.7310144096580262 27.0340770597729083 O
atom 14.2238120982018046 3.4630269948568624 28.4003987544235912 O
atom 10.6677763284941403 6.9245992923180664 27.0341593446312238 Pb
atom 10.6678304964752737 5.1938039794918049 30.5898798182766747 Pb
atom 10.6678140050629811 6.9248823314177388 29.2238799692769184 O
atom 5.7456794644990437 5.1931076343665250 23.4781340552202096 O
atom 8.4780420851437732 5.1928973285419389 30.5898940855627721 O
atom 3.5559451933339199 0.0000970481595334 24.8444016017224385 O
atom 10.6677762676837755 3.4621907320857082 27.0341574712344617 Pb
atom 3.5559261633197665 1.7314792294632146 23.4784530145771200 Pb
atom 10.6678144533644339 3.4622600211416223 29.2238816995309172 O
atom 5.7456400604124740 1.7306622651701769 23.4780468193792125 O
atom 1.3662398518387544 1.7305767635359854 23.4780535609807224 O
atom 3.5559447662402519 3.4630081084070463 24.8444022296391829 O
atom 3.5559763376099625 6.9241523974104124 27.0341517910781697 Pb
atom 10.6678683363495850 5.1939291041844768 23.4784969931532750 Pb
atom 3.5559360485747602 6.9248746664511298 29.2238772433915450 O
atom 12.8576581343085010 5.1930216400624607 23.4780767397028427 O
atom 8.4781026094544103 5.1931081964609209 23.4782454883639247 O
atom 10.6678250943675526 0.0001054431387695 24.8444032881730053 O
atom 3.5559741766902579 3.4618177671649040 27.0341510004486558 Pb
atom 3.5558937469704124 1.7313544048846425 30.5898264422642292 Pb
atom 3.5559354220723303 3.4629749361892039 29.2238778086178108 O
atom 5.7455814308336350 1.7304528250033486 30.5898805937224658 O
atom 1.3661783726580581 1.7305379636502409 30.5898641796434525 O
atom 10.6678250561934327 3.4622940634382671 24.8443996293247231 O
atom 7.1118853467996619 6.9241482898921296 23.4782432445249363 Pb
atom 7.1117872248219358 5.1934236044120317 27.0341822784041987 Pb
atom 7.1118866781167771 6.9246757592635308 25.6679414709332292 O
atom 9.3014823760968373 5.1933762271639665 27.0340195140258857 O
atom 4.9222195796044828 5.1930382756687479 27.0340148613059519 O
atom 7.1118729035385106 6.9246220708192681 28.4003404820495469 O
atom 7.1118867850645016 3.4618444997265501 23.4782358711117674 Pb
atom 7.1119649943565673 1.7309743546123846 27.0341448302732594 Pb
atom 7.1118865536686444 3.4621483590401945 25.6679388536316537 O
atom 9.3016276540128917 1.7309327169211646 27.0340185596904305 O
atom 4.9221848776316142 1.7305933554256632 27.0340138571503594 O
atom 7.1118725528172657 3.4620617606022845 28.4003373410890738 O
atom 7.1118684648210335 6.9239919598406923 30.5900675302107636 Pb
atom 7.1119466390794903 5.1937532070490979 34.1457851610126966 Pb
atom 7.1118628805499391 6.9248117986225219 32.7798143242501112 O
atom 9.3017268689847494 5.1929964765049110 34.1458939595984248 O
atom 4.9220386346238207 5.1933340250127058 34.1458888900920101 O
atom 7.1118484693607176 6.9247821186428329 35.5123398229178235 O
atom 7.1118687009952035 3.4615743196057593 30.5900658688363301 Pb
atom 7.1117689024787820 1.7313025991676878 34.1464133401591710 Pb
atom 7.1118631591456127 3.4621135383426336 32.7798163647088501 O
atom 9.3015873028592839 1.7305508747100977 34.1460207435940362 O
atom 4.9220681448007921 1.7308903132186366 34.1460156814686826 O
atom 7.1118485499700972 3.4629028984174726 35.5123373761193619 O
atom 3.5558127802624209 6.9244751958786770 34.1460979663269910 Pb
atom 12.8575947173406107 5.1929835379271347 30.5900726769159768 O
atom 10.6678603556701841 6.9248619722303486 31.9563402234182128 O
atom 3.5558127194520668 3.4620666356463192 34.1460960929302360 Pb
atom 10.6678414161613304 1.7313551330238253 30.5903916362728872 Pb
atom 12.8575553132540445 1.7305381687307877 30.5899854410749832 O
atom 8.4781551046803170 1.7304526670965961 30.5899921826764931 O
atom 10.6678600190818234 3.4628840119676565 31.9563408513349536 O
atom 10.6678915904515303 6.9240283009710231 34.1460904127739440 Pb
atom 3.5559047881178829 5.1938050077450866 30.5904356148490528 Pb
atom 5.7456945860767910 5.1928975436230713 30.5900153613986170 O
atom 1.3661390612226982 5.1929841000215324 30.5901841100596918 O
atom 3.5558614556305481 6.9248703672095839 31.9563419098687795 O
atom 10.6678894295318205 3.4616936707255150 34.1460896221444301 Pb
atom 3.5558615079617204 3.4621699669988786 31.9563382510205010 O
atom 14.2238005996412280 6.9240241934527393 30.5901818662207141 Pb
atom 14.2237024776635028 5.1932995079726432 34.1461209000999730 Pb
atom 14.2238019309583397 6.9245516628241424 32.7798800926289999 O
atom 2.1895188278651321 5.1932521307245771 34.1459581357216564 O
atom 12.0341348324460551 5.1929141792293585 34.1459534830017333 O
atom 14.2237881563800759 6.9244979743798787 35.5122791037453140 O
atom 14.2238020379060686 3.4617204032871607 30.5901744928075452 Pb
atom 0.0000014461248549 1.7308502581729952 34.1460834519690195 Pb
atom 14.2238018065102150 3.4620242626008046 32.7798774753274245 O
atom 2.1896641057811830 1.7308086204817750 34.1459571813861942 O
atom 12.0341001304731812 1.7304692589862738 34.1459524788461408 O
atom 14.2237878056588283 3.4619376641628947 35.5122759627848410 O
