#===============================================================================
# Created using the Atomic Simulation Environment (ASE)

# Mon Mar 23 14:01:14 2026

#=======================================================
lattice_vector 10.0578176800707837 0.0000000000000000 0.0000000000000000 
lattice_vector 0.0000853774076561 6.9248890199838939 0.0000000000000000 
lattice_vector 0.0000000000000000 0.0000000000000000 54.5622329767266194 
atom 0.9659759832701681 1.7316325632475020 15.0000654656431678 O
atom 0.9662070419785800 5.1940781624549102 15.0000563956441120 O
atom 5.9950700535855317 1.7317075477597750 15.0000895800092344 O
atom 5.9950789522974883 5.1941529171090499 15.0000000000000000 O
atom 0.0000675068060133 0.0006126652535120 15.9662270411222984 Pb
atom 2.5148074501870088 1.7309290506568988 18.4808532465102999 Pb
atom 1.5485483667242301 6.9247603259273758 17.5145709822193716 O
atom 0.9660923689452660 1.7318556376076737 20.0289685839189922 O
atom 4.0630305279374896 1.7317308416180852 16.9322799242291104 O
atom 3.4807420209479853 6.9247408030265651 19.4466659181180894 O
atom 0.0001111950977633 3.4629472952235032 15.9662249220661430 Pb
atom 2.5144272289377070 5.1933796584681300 18.4804146564347782 Pb
atom 1.5485065459767682 3.4617710359315019 17.5145709068987045 O
atom 0.9661198076594701 5.1943003561507792 20.0287932439163576 O
atom 4.0628192266582879 5.1941769808581926 16.9320814642012216 O
atom 3.4806967432042222 3.4625521830221611 19.4466633359200252 O
atom 5.0290707670900385 0.0006788198264301 15.9662185555592337 Pb
atom 7.5435857019007653 1.7313725038184160 18.4805821676941875 Pb
atom 6.5774175703307964 0.0001322607864460 17.5145726749804567 O
atom 5.9951196074262585 1.7314390008241629 20.0288126525040795 O
atom 9.0917281680063393 1.7317387167957536 16.9322083691499117 O
atom 8.5095217947400155 0.0001621281917363 19.4466641904500470 O
atom 5.0291072552662133 3.4629826098053083 15.9662143267675845 Pb
atom 7.5434762406169513 5.1938217552330990 18.4806813576451496 Pb
atom 6.5774585293456793 3.4626596607679563 17.5145707042683902 O
atom 5.9950589261207554 5.1938825120801635 20.0289146725070140 O
atom 9.0917947167130855 5.1941836364810579 16.9321830891476992 O
atom 8.5095625438783813 3.4627224381694810 19.4466616894552971 O
atom 0.0000753922515423 0.0007731491999951 20.9950346099297924 Pb
atom 2.5143091052411415 1.7309809039729471 23.5093663262231622 Pb
atom 1.5485468018015773 6.9248232402497072 22.5434181818644106 O
atom 0.9659748834138352 1.7317567526501150 25.0578489949474381 O
atom 4.0628839714763716 1.7313809649078555 21.9609435874118013 O
atom 3.4807409161158613 6.9248290980821565 24.4755986875451477 O
atom 0.0001167708546296 3.4631907891879252 20.9950335701605155 Pb
atom 2.5149216939503956 5.1934315045625450 23.5096848062020243 Pb
atom 1.5485053940495561 3.4626324802667767 22.5434197896849433 O
atom 0.9662059421222470 5.1942023518575215 25.0578399249483788 O
atom 4.0629954801711552 5.1938246755906707 21.9610540774224319 O
atom 3.4806964652915484 3.4618192980821498 24.4755969824005000 O
atom 5.0290797102418958 0.0002278637641558 20.9950255696186332 Pb
atom 7.5433324153201422 1.7309921783373479 23.5093423211325820 Pb
atom 6.5775020318049737 6.9248147551018393 22.5434212269398309 O
atom 5.9950689537291986 1.7318317371623879 25.0578731093134941 O
atom 9.0917594633828571 1.7318797100097916 21.9609408881261032 O
atom 8.5096070460844686 6.9248112932413024 24.4755985626957404 O
atom 5.0291211488109395 3.4626364237487666 20.9950241699273548 Pb
atom 7.5437293240200001 5.1934410201751122 23.5097119211147607 Pb
atom 6.5774602837680449 3.4625480451193269 22.5434227354127046 O
atom 5.9950778524411534 5.1942771065116631 25.0577835293042774 O
atom 9.0917916320790884 5.1943243713231579 21.9610901381242307 O
atom 8.5095650656304560 3.4619002332481732 24.4755987367031231 O
atom 0.0000664069496803 0.0007368546561250 26.0240105704265652 Pb
atom 2.5148063503306766 1.7310532400595120 28.5386367758145632 Pb
atom 1.5485472668678972 6.9248845153299889 27.5723545115236384 O
atom 0.9660912690889331 1.7319798270102866 30.0867521132232589 O
atom 4.0630294280811565 1.7318550310206982 26.9900634535333772 O
atom 3.4807409210916522 6.9248649924291765 29.5044494474223562 O
atom 0.0001100952414303 3.4630714846261159 26.0240084513704097 Pb
atom 2.5144261290813739 5.1935038478707423 28.5381981857390450 Pb
atom 1.5485054461204348 3.4618952253341151 27.5723544362029749 O
atom 0.9661187078031371 5.1944245455533915 30.0865767732206315 O
atom 4.0628181268019548 5.1943011702608057 26.9898649935054813 O
atom 3.4806956433478891 3.4626763724247751 29.5044468652242919 O
atom 5.0290696672337045 0.0008030092290431 26.0240020848635005 Pb
atom 7.5435846020444322 1.7314966932210289 28.5383656969984578 Pb
atom 6.5774164704744624 0.0002564501890569 27.5723562042847199 O
atom 5.9951185075699245 1.7315631902267756 30.0865961818083498 O
atom 9.0917270681500053 1.7318629061983666 26.9899918984541820 O
atom 8.5095206948836815 0.0002863175943488 29.5044477197543138 O
atom 5.0291061554098802 3.4631067992079223 26.0239978560718477 Pb
atom 7.5434751407606182 5.1939459446357121 28.5384648869494164 Pb
atom 6.5774574294893462 3.4627838501705690 27.5723542335726570 O
atom 5.9950578262644214 5.1940067014827767 30.0866982018112772 O
atom 9.0917936168567515 5.1943078258836692 26.9899666184519695 O
atom 8.5095614440220473 3.4628466275720942 29.5044452187595674 O
atom 0.0000742923952093 0.0008973386026081 31.0528181392340521 Pb
atom 2.5143080053848084 1.7311050933755605 33.5671498555274326 Pb
atom 1.5484603245375881 0.0000584096684271 32.6012017111686845 O
atom 0.9659737835575022 1.7318809420527279 35.1156325242516942 O
atom 4.0628828716200394 1.7315051543104687 32.0187271167160645 O
atom 3.4806544388518721 0.0000642675008770 34.5333822168494180 O
atom 0.0001156709982966 3.4633149785905388 31.0528170994647787 Pb
atom 2.5149205940940624 5.1935556939651590 33.5674683355062911 Pb
atom 1.5485042941932230 3.4627566696693894 32.6012033189892065 O
atom 0.9662048422659141 5.1943265412601347 35.1156234542526420 O
atom 4.0629943803148230 5.1939488649932839 32.0188376067266915 O
atom 3.4806953654352153 3.4619434874847630 34.5333805117047632 O
atom 5.0290786103855627 0.0003520531667683 31.0528090989229106 Pb
atom 7.5433313154638100 1.7311163677399612 33.5671258504368524 Pb
atom 6.5774155545409849 0.0000499245205584 32.6012047562440870 O
atom 5.9950678538728663 1.7319559265650009 35.1156566386177644 O
atom 9.0917583635265249 1.7320038994124045 32.0187244174303629 O
atom 8.5095205688204807 0.0000464626600214 34.5333820919999965 O
atom 5.0291200489546064 3.4627606131513793 31.0528076992316180 Pb
atom 7.5437282241636670 5.1935652095777263 33.5674954504190168 Pb
atom 6.5774591839117136 3.4626722345219401 32.6012062647169643 O
atom 5.9950767525848212 5.1944012959142762 35.1155670586085336 O
atom 9.0917905322227561 5.1944485607257702 32.0188736674284939 O
atom 8.5095639657741238 3.4620244226507859 34.5333822660073935 O
atom 0.0000653070933473 0.0008610440587380 36.0817940997308284 Pb
atom 2.5148052504743426 1.7311774294621252 38.5964203051188264 Pb
atom 1.5484607896039080 0.0001196847487086 37.6301380408279158 O
atom 4.0630283282248234 1.7319792204233113 37.0478469828376404 O
atom 3.4806544438276630 0.0001001618478961 39.5622329767266194 O
atom 0.0001089953850973 3.4631956740287291 36.0817919806746659 Pb
atom 2.5144250292250407 5.1936280372733554 38.5959817150433224 Pb
atom 1.5485043462641019 3.4620194147367278 37.6301379655072452 O
atom 4.0628170269456225 5.1944253596634189 37.0476485228097516 O
atom 3.4806945434915555 3.4628005618273878 39.5622303945285552 O
atom 5.0290685673773723 0.0009271986316561 36.0817856141677709 Pb
atom 7.5435835021880999 1.7316208826236423 38.5961492263027282 Pb
atom 6.5774153706181320 0.0003806395916710 37.6301397335889902 O
atom 9.0917259682936731 1.7319870956009795 37.0477754277584523 O
atom 8.5095195950273510 0.0004105069969613 39.5622312490585841 O
atom 5.0291050555535470 3.4632309886105350 36.0817813853761180 Pb
atom 7.5434740409042869 5.1940701340383253 38.5962484162536867 Pb
atom 6.5774563296330140 3.4629080395731822 37.6301377628769274 O
atom 9.0917925170004192 5.1944320152862824 37.0477501477562328 O
atom 8.5095603441657151 3.4629708169747073 39.5622287480638306 O
