#===============================================================================
# Created using the Atomic Simulation Environment (ASE)

# Mon Mar 23 14:01:14 2026

#=======================================================
lattice_vector 10.0578176800707837 0.0000000000000000 0.0000000000000000 
lattice_vector 0.0000853774076561 6.9248890199838939 0.0000000000000000 
lattice_vector 0.0000000000000000 0.0000000000000000 57.0765983241664756 
atom 2.5143102050974742 1.7308567145703344 15.9659481443587552 Pb
atom 1.5485479016579105 6.9246990508470949 15.0000000000000000 O
atom 0.9659759832701681 1.7316325632475020 17.5144308130830275 O
atom 3.4807420159721940 6.9247049086795451 16.9321805056807406 O
atom 2.5149227938067282 5.1933073151599318 15.9662666243376172 Pb
atom 1.5485064939058890 3.4625082908641627 15.0000016078205363 O
atom 0.9662070419785800 5.1940781624549102 17.5144217430839717 O
atom 3.4806975651478815 3.4616951086795362 16.9321788005360929 O
atom 7.5433335151764762 1.7308679889347351 15.9659241392681750 Pb
atom 6.5775031316613068 6.9246905656992261 15.0000030450754203 O
atom 5.9950700535855317 1.7317075477597750 17.5144549274490942 O
atom 8.5096081459408026 6.9246871038386892 16.9321803808313334 O
atom 7.5437304238763323 5.1933168307724999 15.9662937392503537 Pb
atom 6.5774613836243780 3.4624238557167137 15.0000045535482940 O
atom 5.9950789522974883 5.1941529171090499 17.5143653474398597 O
atom 8.5095661654867900 3.4617760438455596 16.9321805548387161 O
atom 0.0000675068060133 0.0006126652535120 18.4805923885621581 Pb
atom 2.5148074501870088 1.7309290506568988 20.9952185939501597 Pb
atom 1.5485483667242301 6.9247603259273758 20.0289363296592313 O
atom 0.9660923689452660 1.7318556376076737 22.5433339313588519 O
atom 4.0630305279374896 1.7317308416180852 19.4466452716689702 O
atom 3.4807420209479853 6.9247408030265651 21.9610312655579492 O
atom 0.0001111950977633 3.4629472952235032 18.4805902695060027 Pb
atom 2.5144272289377070 5.1933796584681300 20.9947800038746379 Pb
atom 1.5485065459767682 3.4617710359315019 20.0289362543385643 O
atom 0.9661198076594701 5.1943003561507792 22.5431585913562174 O
atom 4.0628192266582879 5.1941769808581926 19.4464468116410814 O
atom 3.4806967432042222 3.4625521830221611 21.9610286833598849 O
atom 5.0290707670900385 0.0006788198264301 18.4805839029990935 Pb
atom 7.5435857019007653 1.7313725038184160 20.9949475151340472 Pb
atom 6.5774175703307964 0.0001322607864460 20.0289380224203164 O
atom 5.9951196074262585 1.7314390008241629 22.5431779999439392 O
atom 9.0917281680063393 1.7317387167957536 19.4465737165897714 O
atom 8.5095217947400155 0.0001621281917363 21.9610295378899067 O
atom 5.0291072552662133 3.4629826098053083 18.4805796742074442 Pb
atom 7.5434762406169513 5.1938217552330990 20.9950467050850094 Pb
atom 6.5774585293456793 3.4626596607679563 20.0289360517082500 O
atom 5.9950589261207554 5.1938825120801635 22.5432800199468737 O
atom 9.0917947167130855 5.1941836364810579 19.4465484365875589 O
atom 8.5095625438783813 3.4627224381694810 21.9610270368951568 O
atom 0.0000753922515423 0.0007731491999951 23.5093999573696522 Pb
atom 2.5143091052411415 1.7309809039729471 26.0237316736630220 Pb
atom 1.5485468018015773 6.9248232402497072 25.0577835293042703 O
atom 0.9659748834138352 1.7317567526501150 27.5722143423872978 O
atom 4.0628839714763716 1.7313809649078555 24.4753089348516610 O
atom 3.4807409161158613 6.9248290980821565 26.9899640349850074 O
atom 0.0001167708546296 3.4631907891879252 23.5093989176003753 Pb
atom 2.5149216939503956 5.1934315045625450 26.0240501536418840 Pb
atom 1.5485053940495561 3.4626324802667767 25.0577851371248030 O
atom 0.9662059421222470 5.1942023518575215 27.5722052723882385 O
atom 4.0629954801711552 5.1938246755906707 24.4754194248622916 O
atom 3.4806964652915484 3.4618192980821498 26.9899623298403597 O
atom 5.0290797102418958 0.0002278637641558 23.5093909170584929 Pb
atom 7.5433324153201422 1.7309921783373479 26.0237076685724418 Pb
atom 6.5775020318049737 6.9248147551018393 25.0577865743796906 O
atom 5.9950689537291986 1.7318317371623879 27.5722384567533538 O
atom 9.0917594633828571 1.7318797100097916 24.4753062355659630 O
atom 8.5096070460844686 6.9248112932413024 26.9899639101356001 O
atom 5.0291211488109395 3.4626364237487666 23.5093895173672145 Pb
atom 7.5437293240200001 5.1934410201751122 26.0240772685546204 Pb
atom 6.5774602837680449 3.4625480451193269 25.0577880828525643 O
atom 5.9950778524411534 5.1942771065116631 27.5721488767441372 O
atom 9.0917916320790884 5.1943243713231579 24.4754554855640905 O
atom 8.5095650656304560 3.4619002332481732 26.9899640841429829 O
atom 0.0000664069496803 0.0007368546561250 28.5383759178664249 Pb
atom 2.5148063503306766 1.7310532400595120 31.0530021232544229 Pb
atom 1.5485472668678972 6.9248845153299889 30.0867198589634981 O
atom 0.9660912690889331 1.7319798270102866 32.6011174606631187 O
atom 4.0630294280811565 1.7318550310206982 29.5044288009732369 O
atom 3.4807409210916522 6.9248649924291765 32.0188147948622159 O
atom 0.0001100952414303 3.4630714846261159 28.5383737988102695 Pb
atom 2.5144261290813739 5.1935038478707423 31.0525635331789047 Pb
atom 1.5485054461204348 3.4618952253341151 30.0867197836428346 O
atom 0.9661187078031371 5.1944245455533915 32.6009421206604912 O
atom 4.0628181268019548 5.1943011702608057 29.5042303409453410 O
atom 3.4806956433478891 3.4626763724247751 32.0188122126641517 O
atom 5.0290696672337045 0.0008030092290431 28.5383674323033603 Pb
atom 7.5435846020444322 1.7314966932210289 31.0527310444383176 Pb
atom 6.5774164704744624 0.0002564501890569 30.0867215517245796 O
atom 5.9951185075699245 1.7315631902267756 32.6009615292482096 O
atom 9.0917270681500053 1.7318629061983666 29.5043572458940417 O
atom 8.5095206948836815 0.0002863175943488 32.0188130671941735 O
atom 5.0291061554098802 3.4631067992079223 28.5383632035117074 Pb
atom 7.5434751407606182 5.1939459446357121 31.0528302343892761 Pb
atom 6.5774574294893462 3.4627838501705690 30.0867195810125168 O
atom 5.9950578262644214 5.1940067014827767 32.6010635492511369 O
atom 9.0917936168567515 5.1943078258836692 29.5043319658918293 O
atom 8.5095614440220473 3.4628466275720942 32.0188105661994271 O
atom 0.0000742923952093 0.0008973386026081 33.5671834866739118 Pb
atom 2.5143080053848084 1.7311050933755605 36.0815152029672888 Pb
atom 1.5484603245375881 0.0000584096684271 35.1155670586085407 O
atom 0.9659737835575022 1.7318809420527279 37.6299978716915575 O
atom 4.0628828716200394 1.7315051543104687 34.5330924641559278 O
atom 3.4806544388518721 0.0000642675008770 37.0477475642892742 O
atom 0.0001156709982966 3.4633149785905388 33.5671824469046385 Pb
atom 2.5149205940940624 5.1935556939651590 36.0818336829461543 Pb
atom 1.5485042941932230 3.4627566696693894 35.1155686664290698 O
atom 0.9662048422659141 5.1943265412601347 37.6299888016925053 O
atom 4.0629943803148230 5.1939488649932839 34.5332029541665548 O
atom 3.4806953654352153 3.4619434874847630 37.0477458591446265 O
atom 5.0290786103855627 0.0003520531667683 33.5671744463627704 Pb
atom 7.5433313154638100 1.7311163677399612 36.0814911978767086 Pb
atom 6.5774155545409849 0.0000499245205584 35.1155701036839503 O
atom 5.9950678538728663 1.7319559265650009 37.6300219860576206 O
atom 9.0917583635265249 1.7320038994124045 34.5330897648702262 O
atom 8.5095205688204807 0.0000464626600214 37.0477474394398598 O
atom 5.0291200489546064 3.4627606131513793 33.5671730466714777 Pb
atom 7.5437282241636670 5.1935652095777263 36.0818607978588801 Pb
atom 6.5774591839117136 3.4626722345219401 35.1155716121568275 O
atom 5.9950767525848212 5.1944012959142762 37.6299324060483968 O
atom 9.0917905322227561 5.1944485607257702 34.5332390148683572 O
atom 8.5095639657741238 3.4620244226507859 37.0477476134472496 O
atom 0.0000653070933473 0.0008610440587380 38.5961594471706917 Pb
atom 2.5148052504743426 1.7311774294621252 41.1107856525586897 Pb
atom 1.5484607896039080 0.0001196847487086 40.1445033882677720 O
atom 4.0630283282248234 1.7319792204233113 39.5622123302775037 O
atom 3.4806544438276630 0.0001001618478961 42.0765983241664756 O
atom 0.0001089953850973 3.4631956740287291 38.5961573281145292 Pb
atom 2.5144250292250407 5.1936280372733554 41.1103470624831786 Pb
atom 1.5485043462641019 3.4620194147367278 40.1445033129471085 O
atom 4.0628170269456225 5.1944253596634189 39.5620138702496149 O
atom 3.4806945434915555 3.4628005618273878 42.0765957419684185 O
atom 5.0290685673773723 0.0009271986316561 38.5961509616076341 Pb
atom 7.5435835021880999 1.7316208826236423 41.1105145737425843 Pb
atom 6.5774153706181320 0.0003806395916710 40.1445050810288464 O
atom 9.0917259682936731 1.7319870956009795 39.5621407751983085 O
atom 8.5095195950273510 0.0004105069969613 42.0765965964984474 O
atom 5.0291050555535470 3.4632309886105350 38.5961467328159813 Pb
atom 7.5434740409042869 5.1940701340383253 41.1106137636935429 Pb
atom 6.5774563296330140 3.4629080395731822 40.1445031103167906 O
atom 9.0917925170004192 5.1944320152862824 39.5621154951960889 O
atom 8.5095603441657151 3.4629708169747073 42.0765940955036868 O
