#===============================================================================
# Created using the Atomic Simulation Environment (ASE)

# Mon Mar 23 14:01:14 2026

#=======================================================
lattice_vector 10.0578176800707837 0.0000000000000000 0.0000000000000000 
lattice_vector 0.0000853774076561 6.9248890199838939 0.0000000000000000 
lattice_vector 0.0000000000000000 0.0000000000000000 36.9610312655579349 
atom 2.5143080053848084 1.7311050933755605 15.9659481443587481 Pb
atom 1.5484603245375881 0.0000584096684271 15.0000000000000000 O
atom 0.9659737835575022 1.7318809420527279 17.5144308130830169 O
atom 3.4806544388518721 0.0000642675008770 16.9321805056807335 O
atom 2.5149205940940624 5.1935556939651590 15.9662666243376137 Pb
atom 1.5485042941932230 3.4627566696693894 15.0000016078205292 O
atom 0.9662048422659141 5.1943265412601347 17.5144217430839646 O
atom 3.4806953654352153 3.4619434874847630 16.9321788005360858 O
atom 7.5433313154638100 1.7311163677399612 15.9659241392681679 Pb
atom 6.5774155545409849 0.0000499245205584 15.0000030450754096 O
atom 5.9950678538728663 1.7319559265650009 17.5144549274490799 O
atom 8.5095205688204807 0.0000464626600214 16.9321803808313192 O
atom 7.5437282241636670 5.1935652095777263 15.9662937392503395 Pb
atom 6.5774591839117136 3.4626722345219401 15.0000045535482869 O
atom 5.9950767525848212 5.1944012959142762 17.5143653474398562 O
atom 8.5095639657741238 3.4620244226507859 16.9321805548387090 O
atom 0.0000653070933473 0.0008610440587380 18.4805923885621510 Pb
atom 2.5148052504743426 1.7311774294621252 20.9952185939501490 Pb
atom 1.5484607896039080 0.0001196847487086 20.0289363296592313 O
atom 4.0630283282248234 1.7319792204233113 19.4466452716689631 O
atom 3.4806544438276630 0.0001001618478961 21.9610312655579349 O
atom 0.0001089953850973 3.4631956740287291 18.4805902695059885 Pb
atom 2.5144250292250407 5.1936280372733554 20.9947800038746379 Pb
atom 1.5485043462641019 3.4620194147367278 20.0289362543385678 O
atom 4.0628170269456225 5.1944253596634189 19.4464468116410742 O
atom 3.4806945434915555 3.4628005618273878 21.9610286833598778 O
atom 5.0290685673773723 0.0009271986316561 18.4805839029990935 Pb
atom 7.5435835021880999 1.7316208826236423 20.9949475151340437 Pb
atom 6.5774153706181320 0.0003806395916710 20.0289380224203057 O
atom 9.0917259682936731 1.7319870956009795 19.4465737165897679 O
atom 8.5095195950273510 0.0004105069969613 21.9610295378899067 O
atom 5.0291050555535470 3.4632309886105350 18.4805796742074406 Pb
atom 7.5434740409042869 5.1940701340383253 20.9950467050850023 Pb
atom 6.5774563296330140 3.4629080395731822 20.0289360517082500 O
atom 9.0917925170004192 5.1944320152862824 19.4465484365875483 O
atom 8.5095603441657151 3.4629708169747073 21.9610270368951461 O
