#===============================================================================
# Created using the Atomic Simulation Environment (ASE)

# Mon Mar 23 14:01:15 2026

#=======================================================
lattice_vector 14.2238788010732762 0.0000000000000000 0.0000000000000000 
lattice_vector -0.0000000905053021 6.9248890205102045 0.0000000000000000 
lattice_vector 0.0000000000000000 0.0000000000000000 46.9564027420592538 
atom 7.1119949344696254 5.1940013999278758 16.3659708367625853 Pb
atom 7.1119112664453823 0.0001709709910961 15.0000000000000000 O
atom 9.3017751643748916 5.1932446693836907 16.3660796353483065 O
atom 4.9220869300139656 5.1935822178914854 16.3660745658419096 O
atom 7.1118968552561679 0.0001412910114065 17.7325254986677017 O
atom 7.1118171978689269 1.7315507920464663 16.3665990159090668 Pb
atom 7.1119114545357478 3.4623617312214123 15.0000020404587353 O
atom 9.3016355982494296 1.7307990675888762 16.3662064193439178 O
atom 4.9221164401909281 1.7311385060974156 16.3662013572185678 O
atom 7.1118968453602358 3.4631510912962518 17.7325230518692578 O
atom 3.5558610756525755 6.9247233887574557 16.3662836420768834 Pb
atom 3.5559152436337067 5.1939280759311943 19.9220041157223307 Pb
atom 3.5558988427267124 0.0001174073469236 18.5560042667225744 O
atom 1.3661268323022067 5.1930214249813273 19.9220183830084281 O
atom 3.5558610148422116 3.4623148285250975 16.3662817686801247 Pb
atom 3.5558992005228629 3.4623841175810122 18.5560059969765732 O
atom 10.6679398858416690 6.9242764938498000 16.3662760885238328 Pb
atom 10.6678996873117651 0.0001097423803150 18.5560015408372081 O
atom 10.6679377249219627 3.4619418636042942 16.3662752978943224 Pb
atom 10.6678572952021220 1.7314785013240319 19.9219507397098923 Pb
atom 10.6678989703040497 3.4630990326285933 18.5560021060634774 O
atom 12.8575449790653416 1.7305769214427382 19.9220048911681289 O
atom 8.4781419208897741 1.7306620600896303 19.9219884770891085 O
atom 14.2237507730536468 5.1935477008514210 16.3663065758498618 Pb
atom 14.2238502263484818 6.9247998557029202 15.0000657683788887 O
atom 2.1895671232552743 5.1935003236033541 16.3661438114715452 O
atom 12.0341831278361955 5.1931623721081381 16.3661391587516150 O
atom 14.2238364517702180 6.9247461672586574 17.7324647794952028 O
atom 0.0000497415150000 1.7310984510517742 16.3662691277189154 Pb
atom 14.2238501019003571 3.4622724554795838 15.0000631510773133 O
atom 2.1897124011713247 1.7310568133605539 16.3661428571360901 O
atom 12.0341484258633251 1.7307174518650528 16.3661381545960225 O
atom 14.2238361010489722 3.4621858570416739 17.7324616385347333 O
atom 14.2238320130527409 6.9241160562800816 19.9221918276564338 Pb
atom 0.0000313862379168 5.1938773034884882 23.4779094584583596 Pb
atom 14.2238265192869466 0.0000468745517067 22.1119386216957707 O
atom 2.1898116161431758 5.1931205729443004 23.4780182570440807 O
atom 12.0340021828555326 5.1934581214520961 23.4780131875376803 O
atom 14.2238121080977269 0.0000171945720171 24.8444641203634689 O
atom 14.2238322492269127 3.4616984160451483 19.9221901662819896 Pb
atom 14.2237324507105001 1.7314266956070770 23.4785376376048376 Pb
atom 14.2238267073773219 3.4622376347820221 22.1119406621545131 O
atom 2.1896720500177165 1.7306749711494873 23.4781450410396886 O
atom 12.0340316930325013 1.7310144096580262 23.4781399789143421 O
atom 14.2238120982018046 3.4630269948568624 24.8444616735650250 O
atom 10.6677763284941403 6.9245992923180664 23.4782222637726576 Pb
atom 10.6678304964752737 5.1938039794918049 27.0339427374181085 Pb
atom 10.6678140050629811 6.9248823314177388 25.6679428884183523 O
atom 5.7456794644990437 5.1931076343665250 19.9221969743616434 O
atom 8.4780420851437732 5.1928973285419389 27.0339570047042059 O
atom 3.5559451933339199 0.0000970481595334 21.2884645208638723 O
atom 10.6677762676837755 3.4621907320857082 23.4782203903758955 Pb
atom 3.5559261633197665 1.7314792294632146 19.9225159337185538 Pb
atom 10.6678144533644339 3.4622600211416223 25.6679446186723510 O
atom 5.7456400604124740 1.7306622651701769 19.9221097385206463 O
atom 1.3662398518387544 1.7305767635359854 19.9221164801221562 O
atom 3.5559447662402519 3.4630081084070463 21.2884651487806167 O
atom 3.5559763376099625 6.9241523974104124 23.4782147102196035 Pb
atom 10.6678683363495850 5.1939291041844768 19.9225599122947088 Pb
atom 3.5559360485747602 6.9248746664511298 25.6679401625329788 O
atom 12.8576581343085010 5.1930216400624607 19.9221396588442765 O
atom 8.4781026094544103 5.1931081964609209 19.9223084075053585 O
atom 10.6678250943675526 0.0001054431387695 21.2884662073144391 O
atom 3.5559741766902579 3.4618177671649040 23.4782139195900896 Pb
atom 3.5558937469704124 1.7313544048846425 27.0338893614056630 Pb
atom 3.5559354220723303 3.4629749361892039 25.6679407277592446 O
atom 5.7455814308336350 1.7304528250033486 27.0339435128638996 O
atom 1.3661783726580581 1.7305379636502409 27.0339270987848863 O
atom 10.6678250561934327 3.4622940634382671 21.2884625484661569 O
atom 7.1118853467996619 6.9241482898921296 19.9223061636663701 Pb
atom 7.1117872248219358 5.1934236044120317 23.4782451975456325 Pb
atom 7.1118866781167771 6.9246757592635308 22.1120043900746630 O
atom 9.3014823760968373 5.1933762271639665 23.4780824331673195 O
atom 4.9222195796044828 5.1930382756687479 23.4780777804473857 O
atom 7.1118729035385106 6.9246220708192681 24.8444034011909807 O
atom 7.1118867850645016 3.4618444997265501 19.9222987902532012 Pb
atom 7.1119649943565673 1.7309743546123846 23.4782077494146932 Pb
atom 7.1118865536686444 3.4621483590401945 22.1120017727730875 O
atom 9.3016276540128917 1.7309327169211646 23.4780814788318644 O
atom 4.9221848776316142 1.7305933554256632 23.4780767762917932 O
atom 7.1118725528172657 3.4620617606022845 24.8444002602305076 O
atom 7.1118684648210335 6.9239919598406923 27.0341304493521974 Pb
atom 7.1119466390794903 5.1937532070490979 30.5898480801541268 Pb
atom 7.1118628805499391 6.9248117986225219 29.2238772433915415 O
atom 9.3017268689847494 5.1929964765049110 30.5899568787398550 O
atom 4.9220386346238207 5.1933340250127058 30.5899518092334475 O
atom 7.1118484693607176 6.9247821186428329 31.9564027420592538 O
atom 7.1118687009952035 3.4615743196057593 27.0341287879777639 Pb
atom 7.1117689024787820 1.7313025991676878 30.5904762593006083 Pb
atom 7.1118631591456127 3.4621135383426336 29.2238792838502803 O
atom 9.3015873028592839 1.7305508747100977 30.5900836627354664 O
atom 4.9220681448007921 1.7308903132186366 30.5900786006101129 O
atom 7.1118485499700972 3.4629028984174726 31.9564002952607993 O
atom 3.5558127802624209 6.9244751958786770 30.5901608854684213 Pb
atom 12.8575947173406107 5.1929835379271347 27.0341355960574106 O
atom 10.6678603556701841 6.9248619722303486 28.4004031425596466 O
atom 3.5558127194520668 3.4620666356463192 30.5901590120716733 Pb
atom 10.6678414161613304 1.7313551330238253 27.0344545554143210 Pb
atom 12.8575553132540445 1.7305381687307877 27.0340483602164170 O
atom 8.4781551046803170 1.7304526670965961 27.0340551018179269 O
atom 10.6678600190818234 3.4628840119676565 28.4004037704763874 O
atom 10.6678915904515303 6.9240283009710231 30.5901533319153742 Pb
atom 3.5559047881178829 5.1938050077450866 27.0344985339904866 Pb
atom 5.7456945860767910 5.1928975436230713 27.0340782805400508 O
atom 1.3661390612226982 5.1929841000215324 27.0342470292011257 O
atom 3.5558614556305481 6.9248703672095839 28.4004048290102133 O
atom 10.6678894295318205 3.4616936707255150 30.5901525412858675 Pb
atom 3.5558615079617204 3.4621699669988786 28.4004011701619348 O
atom 14.2238005996412280 6.9240241934527393 27.0342447853621479 Pb
atom 14.2237024776635028 5.1932995079726432 30.5901838192414033 Pb
atom 14.2238019309583397 6.9245516628241424 29.2239430117704302 O
atom 2.1895188278651321 5.1932521307245771 30.5900210548630866 O
atom 12.0341348324460551 5.1929141792293585 30.5900164021431635 O
atom 14.2237881563800759 6.9244979743798787 31.9563420228867443 O
atom 14.2238020379060686 3.4617204032871607 27.0342374119489790 Pb
atom 0.0000014461248549 1.7308502581729952 30.5901463711104569 Pb
atom 14.2238018065102150 3.4620242626008046 29.2239403944688547 O
atom 2.1896641057811830 1.7308086204817750 30.5900201005276315 O
atom 12.0341001304731812 1.7304692589862738 30.5900153979875711 O
atom 14.2237878056588283 3.4619376641628947 31.9563388819262713 O
