#===============================================================================
# Created using the Atomic Simulation Environment (ASE)

# Mon Mar 23 14:01:13 2026

#=======================================================
lattice_vector 12.2111169631888270 0.0000000000000000 0.0000000000000000 
lattice_vector 3.9269428276419625 11.5624905206256550 0.0000000000000000 
lattice_vector 0.0000000000000000 0.0000000000000000 37.1558162935085576 
atom 9.3735531444344673 6.7158281044554435 17.1935459664473207 Pb
atom 9.5596030684217386 6.8492302756085417 15.0003680284136784 O
atom 10.6485441918477193 4.9355091760719896 17.1941640423535844 O
atom 8.0979446140941711 8.4958618099996936 17.1939186617094393 O
atom 11.1510418916914453 7.9894657030475242 16.9066422069516804 O
atom 6.3203072075264624 4.5283657759013787 15.9540778551812430 Pb
atom 7.5959534666084503 5.4423344882077762 17.4812960254426351 O
atom 8.2840660175678025 10.3099081044931893 15.9537502268148081 Pb
atom 9.5595747740464443 11.2237251341622759 17.4811311039906521 O
atom 7.4103575291953838 0.9348875226552977 17.1939588294782233 Pb
atom 7.5960393885867505 1.0679561180258972 15.0005149310229378 O
atom 12.6119186732318003 10.7168736653375269 17.1942607933916278 O
atom 6.1343109906016897 2.7143346875546643 17.1943267559716588 O
atom 9.1878451899576650 2.2083806921059095 16.9062744880696307 O
atom 12.4259764517890137 4.5283647934188114 15.9540651450543862 Pb
atom 13.7016916933428305 5.4424256746713100 17.4811346941044548 O
atom 3.2679360552188457 6.7159033629415790 17.1935650629090553 Pb
atom 3.4543906335141012 6.8494411514149869 15.0000000000000000 O
atom 4.5427592331217888 4.9355780089035575 17.1942487966204141 O
atom 14.2032929633338565 8.4955915369514994 17.1941763464376756 O
atom 5.0453172553657621 7.9893828010220007 16.9067842673226210 O
atom 1.3043545928093774 0.9346878202767968 17.1941052460476484 Pb
atom 1.4904637539692021 1.0679070505895591 15.0006002895054635 O
atom 6.5064830195749428 10.7171034644703109 17.1940256435232754 O
atom 12.2399225334943598 2.7143454601917774 17.1942645305181330 O
atom 3.0818156648659110 2.2080794248041440 16.9068034297255352 O
atom 14.3894796777924743 10.3097206460915718 15.9540489681010023 Pb
atom 15.6649678880051120 11.2235695883878943 17.4814026207497477 O
atom 4.3567857985185547 3.1215623566809914 18.4348430345695604 Pb
atom 5.4465390888649310 3.9022414037024746 22.1550355039842231 Pb
atom 5.6325890128521960 4.0356435748555750 19.9618575659505808 O
atom 6.7215301362781874 2.1219224753190207 22.1556535798904903 O
atom 4.1709305585246401 5.6822751092467261 22.1554081992463381 O
atom 7.2240278361219037 5.1758790022945611 21.8681317444885792 O
atom 2.3932931519569158 1.7147790751484133 20.9155673927181311 Pb
atom 7.4103049772810055 5.3094389225470984 19.6747333316814377 Pb
atom 8.6850290744722916 3.5288817760796674 19.6749980396960424 O
atom 6.1345290450751229 7.0890977400648660 19.6747513100682951 O
atom 9.1878540280384424 6.5829009806064347 19.3869802542798908 O
atom 4.3570519619982546 7.4963214037402226 20.9152397643517034 Pb
atom 9.3734913641316986 11.0903817216362715 19.6743434391593937 Pb
atom 10.6484859158245477 9.3100849978726146 19.6750658038521422 O
atom 4.1706811176077530 1.3075923003695691 19.6750029823217858 O
atom 7.2240734444474883 0.8013972097686320 19.3873530888300110 O
atom 6.3205782237043291 8.9031286651145543 18.4344679314850737 Pb
atom 7.4102863012678055 9.6837913425279876 22.1554483670151185 Pb
atom 7.5959681606591714 9.8168599378985846 19.9620044685598330 O
atom 8.6849046176622533 7.9032869645845629 22.1557503309285195 O
atom 6.1342397626741105 11.4632385074273522 22.1558162935085576 O
atom 9.1877739620300858 10.9572845119785978 21.8677640256065331 O
atom 8.4989623962194631 1.7147780926658465 20.9155546825912850 Pb
atom 13.5159106938227431 5.3093576731533227 19.6747304349053351 Pb
atom 2.5793967436822607 3.5287489595303452 19.6750874321592732 O
atom 12.2399503208548524 7.0889642679152525 19.6751431386469449 O
atom 3.0819574662780562 6.5826949514187332 19.3873482505564390 O
atom 10.4625299901440467 3.1216175508230042 18.4347306363098085 Pb
atom 11.5520389628381359 3.9023166621886123 22.1550546004459505 Pb
atom 11.7384935411333871 4.0358544506620211 19.9614895375368988 O
atom 12.8268621407410741 2.1219913081505926 22.1557383341573129 O
atom 10.2762789077643042 5.6820048361985336 22.1556658839745708 O
atom 13.3294201629850484 5.1757961002690358 21.8682738048595198 O
atom 12.4258963325614360 8.9028743302249289 18.4348997026919967 Pb
atom 13.5154003280706156 9.6835916401494853 22.1555947835845402 Pb
atom 13.7015094892304443 9.8168108704622501 19.9620898270423623 O
atom 14.7905859271942219 7.9035167637173451 22.1555151810601743 O
atom 12.2398513055667859 11.4632492800644687 22.1557540680550318 O
atom 15.2928614001271654 10.9569832446768309 21.8682929672624269 O
atom 10.4624656222229344 7.4961339453386051 20.9155385056378975 Pb
atom 15.4789863667254135 11.0902229675744479 19.6748272861601876 Pb
atom 4.5430605884784860 9.3101920635663582 19.6747690300513796 O
atom 10.2763944511341432 1.3075797699940921 19.6750088925167219 O
atom 1.1182409084722278 0.8012380360483513 19.3876289747482247 O
