#===============================================================================
# Created using the Atomic Simulation Environment (ASE)

# Mon Mar 23 14:01:14 2026

#=======================================================
lattice_vector 12.2111169631888270 0.0000000000000000 0.0000000000000000 
lattice_vector -0.0000712279275758 10.0578176798185712 0.0000000000000000 
lattice_vector 0.0000000000000000 0.0000000000000000 43.1641810266823995 
atom 9.3736243723620483 2.5143765877356676 15.8778625253984131 Pb
atom 10.6486154197753002 0.9660513951612640 16.7566258421212240 O
atom 8.0980158420217521 4.0629424203450810 15.0001017414429718 O
atom 11.1511131196190156 3.4807356091306008 15.0000147358991285 O
atom 6.3203784354540344 0.0001626306650414 15.8787657196996044 Pb
atom 7.4103762052085838 2.5149752730214794 18.7299180848085314 Pb
atom 7.5960246945360321 1.5485602878306330 16.7563754518332573 O
atom 6.1346002730027012 4.0630400244308964 17.8520336775340560 O
atom 9.1879252559660145 3.4807626327175472 17.8514181003338166 O
atom 9.3735625920592724 7.5433998975032592 15.8778581986451286 Pb
atom 10.6485571437521234 5.9951454651900384 16.7567012786524856 O
atom 8.0976951731772946 9.0918179101067462 15.0005110060801137 O
atom 11.1510875000170273 8.5096017390438785 15.0000000000000000 O
atom 6.3206494516319083 5.0291670106667548 15.8783037814506898 Pb
atom 7.4103575291953865 7.5437829030849262 18.7299412989310667 Pb
atom 7.5960393885867523 6.5775151777792908 16.7563075766367540 O
atom 6.1343109906016906 9.0918361744162777 17.8524657054479228 O
atom 9.1878451899576667 8.5096312326155470 17.8514857580685984 O
atom 0.2149307165277563 0.0001555061764908 15.8787551483108764 Pb
atom 1.3048649585614935 2.5149031683682641 18.7299556450839013 Pb
atom 1.4906459580815712 1.5485600231462404 16.7561901339934352 O
atom 0.0289045855935916 4.0631172100012254 17.8524403553395743 O
atom 3.0820286942056416 3.4807649473477587 17.8518398395046560 O
atom 3.2680072831464244 2.5144514723851907 15.8778420118942698 Pb
atom 4.5428304610493617 0.9661530791710307 16.7566656115391872 O
atom 1.9922472280726014 4.0628344354068764 15.0004592161873411 O
atom 5.0453884832933316 3.4807335738179410 15.0001792039882282 O
atom 0.2148505973001886 5.0291587660192318 15.8788048249986957 Pb
atom 1.3043545928093798 7.5436814165937891 18.7301671735509245 Pb
atom 1.4904637539692061 6.5775146029962270 16.7564060314663550 O
atom 0.0288055703055372 9.0918148494949627 17.8524062638420560 O
atom 3.0818156648659176 8.5096300971649121 17.8520944780150543 O
atom 3.2679406314641652 7.5435004837185264 15.8783573911787386 Pb
atom 4.5431318164060626 5.9950921998925750 16.7563903115164692 O
atom 1.9922915435148609 9.0918099259016163 15.0005223283229228 O
atom 5.0452549640417788 8.5095993736726445 15.0003185023047223 O
atom 4.3568570264461330 0.0001927241110966 18.7306583780389957 Pb
atom 5.4466103167925048 2.5144341546299880 21.5816023994133630 Pb
atom 5.6326602407797779 1.5485877913356736 19.6080354738552209 O
atom 6.7216013642057586 0.9661089620555838 22.4603657161361809 O
atom 4.1710017864522060 4.0629999872394009 20.7038416154579288 O
atom 7.2240990640494740 3.4807931760249207 20.7037546099140854 O
atom 2.3933643798844986 0.0002201975593613 21.5825055937145578 Pb
atom 3.4833621496390470 2.5150328399157988 24.4336579588234883 Pb
atom 3.6690106389664905 1.5486178547249527 22.4601153258482071 O
atom 8.6851003023998690 0.9662685485557232 19.6084915327917528 O
atom 2.2075862174331617 4.0630975913252154 23.5557735515490094 O
atom 5.2609112003964817 3.4808201996118675 23.5551579743487700 O
atom 4.3571231899258418 5.0291970441124869 18.7302041227140350 Pb
atom 5.4465485364897335 7.5434574643975782 21.5815980726600785 Pb
atom 5.6326319464044845 6.5775430212647992 19.6080302118182175 O
atom 6.7215430881825853 5.9952030320843575 22.4604411526674426 O
atom 4.1706811176077574 9.0918754770010644 20.7042508800950671 O
atom 7.2240734444474848 8.5096593059381984 20.7037398740149499 O
atom 2.3936353960623631 5.0292245775610755 21.5820436554656432 Pb
atom 3.4833434736258497 7.5438404699792461 24.4336811729460166 Pb
atom 3.6690253330172133 6.5775727446736107 22.4600474506517109 O
atom 8.6849758455898396 5.9951404581193488 19.6085211238240298 O
atom 2.2072969350321570 9.0918937413105976 23.5562055794628762 O
atom 5.2608311343881251 8.5096887995098651 23.5552256320835518 O
atom 8.4990336241470459 0.0002130730708108 21.5824950223258334 Pb
atom 9.5889678661807789 2.5149607352625849 24.4336955190988512 Pb
atom 9.7747488657008610 1.5486175900405605 22.4599300080083921 O
atom 2.5794679716098399 0.9661971136314134 19.6086348097956495 O
atom 8.3130074932128828 4.0631747768955453 23.5561802293545277 O
atom 11.3661316018249288 3.4808225142420786 23.5555797135196059 O
atom 10.4626012180716152 0.0001852896404929 18.7305333800759968 Pb
atom 11.5521101907657133 2.5145090392795111 21.5815818859092232 Pb
atom 11.7385647690609680 1.5485896767371756 19.6076113159078957 O
atom 0.6158164054798272 0.9662106460653506 22.4604054855541442 O
atom 10.2763501356918887 4.0628920023011963 20.7041990902022945 O
atom 1.1183744277237944 3.4807911407122605 20.7039190780031817 O
atom 8.4989535049194735 5.0292163329135509 21.5825446990136456 Pb
atom 9.5884575004286710 7.5437389834881099 24.4339070475658815 Pb
atom 9.7745666615884907 6.5775721698905478 22.4601459054813084 O
atom 2.5795401919329679 5.9952243527499665 19.6082032169304874 O
atom 8.3129084779248217 9.0918724163892808 23.5561461378570129 O
atom 11.3659185724851994 8.5096876640592303 23.5558343520300113 O
atom 10.4625368501505136 5.0291813494792059 18.7305564587566167 Pb
atom 11.5520435390834493 7.5435580506128472 21.5820972651936955 Pb
atom 11.7380250603631495 6.5775416564100606 19.6083431239074208 O
atom 0.6161177608365254 5.9951497667868958 22.4601301855314262 O
atom 10.2763944511341450 9.0918674927959344 20.7042622023378726 O
atom 1.1182409084722371 8.5096569405669626 20.7040583763196793 O
atom 0.4298429708765906 0.0002502910054165 24.4343982520539527 Pb
atom 1.5195962612229685 2.5144917215243083 27.2853422734283129 Pb
atom 1.7056461852102360 1.5486453582299939 25.3117753478701779 O
atom 2.7945873086362272 0.9661665289499040 28.1641055901511379 O
atom 0.2439877308826692 4.0630575541337208 26.4075814894728751 O
atom 3.2970850084799292 3.4808507429192410 26.4074944839290353 O
atom 10.6774672875037826 0.0002777644536813 27.2862454677295148 Pb
atom 11.9531135465857794 1.5486754216192729 28.1638551998631641 O
atom 4.7580862468303291 0.9663261154500433 25.3122314068067098 O
atom 0.4301091343562991 5.0292546110068077 24.4339439967289884 Pb
atom 1.5195344809202020 7.5435150312918990 27.2853379466750354 Pb
atom 1.7056178908349451 6.5776005881591200 25.3117700858331709 O
atom 2.7945290326130428 5.9952605989786782 28.1641810266823995 O
atom 0.2436670620382156 9.0919330438953860 26.4079907541100170 O
atom 3.2970593888779431 8.5097168728325183 26.4074797480299068 O
atom 10.6777383036816591 5.0292821444553963 27.2857835294805966 Pb
atom 11.9531282406364934 6.5776303115679307 28.1637873246666572 O
atom 4.7579617900203024 5.9951980250136705 25.3122609978389868 O
atom 4.5720195685775042 0.0002706399651307 27.2862348963407868 Pb
atom 5.8477348101313114 1.5486751569348802 28.1636698820233420 O
atom 10.8635708792291261 0.9662546805257333 25.3123746838105994 O
atom 6.5355871625020816 0.0002428565348128 24.4342732540909502 Pb
atom 7.6250961351961726 2.5145666061738310 27.2853217599241731 Pb
atom 7.8115507134914237 1.5486472436314953 25.3113511899228527 O
atom 8.8999193130991063 0.9662682129596704 28.1641453595690905 O
atom 6.3493360801223444 4.0629495691955171 26.4079389642172444 O
atom 9.4024773353430788 3.4808487076065804 26.4076589520181386 O
atom 4.5719394493499319 5.0292738998078717 27.2862845730285954 Pb
atom 5.8475526060189464 6.5776297367848686 28.1638857794962689 O
atom 10.8636430995522648 5.9952819196442872 25.3119430909454373 O
atom 6.5355227945809711 5.0292389163735267 24.4342963327715701 Pb
atom 7.6250294835139112 7.5436156175071680 27.2858371392086525 Pb
atom 7.8110110047936070 6.5775992233043805 25.3120829979223707 O
atom 8.9002206684558001 5.9952073336812166 28.1638700595463760 O
atom 6.3493803955646095 9.0919250596902561 26.4080020763528296 O
atom 9.4023438160915216 8.5097145074612843 26.4077982503346220 O
