#===============================================================================
# Created using the Atomic Simulation Environment (ASE)

# Mon Mar 23 14:01:13 2026

#=======================================================
lattice_vector 10.0577835300710472 0.0000000000000000 0.0000000000000000 
lattice_vector -0.0000010998600674 10.0578176800707233 0.0000000000000000 
lattice_vector 0.0000000000000000 0.0000000000000000 45.5820397532747279 
atom 1.5486342554871846 1.5486345482708694 16.7314036666207535 O
atom 3.4808145498002792 3.4808288738763231 16.7313856666775784 O
atom 2.5148793955565059 2.5150095460822213 15.0000000000000000 Pb
atom 4.0630346930608150 0.9662939635506498 15.0007517313079077 O
atom 0.9662485024620230 4.0630831629543973 15.0004122928877486 O
atom 0.0002412663665902 5.0292526647962852 16.7317164290385598 Pb
atom 1.5486367505227252 6.5775897782745680 16.7313951814352855 O
atom 3.4808138748056647 8.5096950038448878 16.7313678618382653 O
atom 2.5149059606677673 7.5438171761547590 15.0000095152777639 Pb
atom 4.0629777484137533 5.9951658738633578 15.0008264866583936 O
atom 0.9662840194161467 9.0918793148662438 15.0009119881749342 O
atom 6.5775705855195703 1.5486355632702296 16.7314028464494591 O
atom 8.5096653097373061 3.4808294287757975 16.7313594668296055 O
atom 7.5433927756576233 2.5145145310999890 15.0000102532790365 Pb
atom 9.0917715437027802 0.9662072791427661 15.0009118322153014 O
atom 5.9950594240646460 4.0629063595045229 15.0008266938548296 O
atom 6.5775717315677786 6.5775901442846063 16.7316638012714982 O
atom 8.5096630359760237 8.5096945799752657 16.7316698119999785 O
atom 7.5436589323814429 7.5435635428083669 15.0004523467508513 Pb
atom 9.0918924172007110 5.9951463976172983 15.0004939866453704 O
atom 5.9951604991559790 9.0918818495704024 15.0008333482228728 O
atom 0.0002508633511806 0.0002483468069535 16.7322617143627319 Pb
atom 2.5146036684105821 2.5144823347504723 18.4624384230628102 Pb
atom 1.5487197611787800 1.5487199256878759 23.6562926860767462 O
atom 4.0630865159128176 0.9661482822555610 18.4631951517084545 O
atom 0.9661807653145910 4.0630570316598620 18.4628576032891694 O
atom 3.4809000554918743 3.4809142512933300 23.6562746861335746 O
atom 0.0002925760960646 0.0002897254146021 20.1946793540995557 Pb
atom 2.5149649012481006 2.5150949234992281 21.9248890194560033 Pb
atom 1.5486786192865767 1.5486785179313560 20.1941019263378969 O
atom 4.0631201987524097 0.9663793409676561 21.9256407507639004 O
atom 0.9663340081536178 4.0631685403714037 21.9253013123437484 O
atom 3.4808555905216538 3.4808698004641552 20.1932648864186142 O
atom 0.0003267720581851 5.0293380422132934 23.6566054484945560 Pb
atom 2.5145791135166635 7.5435056448268174 18.4624496977236170 Pb
atom 1.5487222562143197 6.5776751556915745 23.6562842008912853 O
atom 4.0631100812544689 5.9952423525735323 18.4632701359229650 O
atom 0.9661775222608061 9.0919325235660224 18.4633563484243943 O
atom 3.4808993804972599 8.5097803812618924 23.6562568812942651 O
atom 0.0002826190773457 5.0292941033698524 20.1941249887765082 Pb
atom 2.5149914663593615 7.5439025535717654 21.9248985347337637 Pb
atom 1.5486810140366944 6.5776334076501364 20.1940174911540815 O
atom 4.0630632541053471 5.9952512512803651 21.9257155061143898 O
atom 0.9663695251077415 9.0919646922832502 21.9258010076309340 O
atom 3.4808567958979966 8.5097384008032240 20.1933458215629713 O
atom 5.0292268230173880 0.0002399114424649 16.7321633240779484 Pb
atom 7.5438741184573663 2.5149801298095844 18.4624486597722246 Pb
atom 6.5776560912111650 1.5487209406872362 23.6562918659054553 O
atom 9.0919896365469555 0.9662652178600670 18.4633561312271155 O
atom 5.9953006368904296 4.0632030382177584 18.4632695718841688 O
atom 8.5097508154289017 3.4809148061928039 23.6562484862856017 O
atom 5.0292674554501700 0.0002835997386582 20.1944979538101634 Pb
atom 7.5434782813492181 2.5145999085169959 21.9248992727350362 Pb
atom 6.5776132563178837 1.5486791199350896 20.1933025761745029 O
atom 9.0918570493943758 0.9662926565597725 21.9258008516713012 O
atom 5.9951449297562407 4.0629917369215303 21.9257157133108294 O
atom 8.5097054835449519 3.4808695284440825 20.1940598665770104 O
atom 5.0292177883308185 5.0292431717255299 16.7322294787556380 Pb
atom 7.5436024952011040 7.5437583814936646 18.4628921162808801 Pb
atom 6.5776572372593742 6.5776755217016136 23.6565528207275015 O
atom 9.0918331500446143 5.9952924563239760 18.4629394963690139 O
atom 5.9952285320015415 9.0919006782787513 18.4632774479453694 O
atom 8.5097485416676193 8.5097799573922703 23.6565588314559783 O
atom 5.0292563106480905 5.0292796599059191 20.1945332685227932 Pb
atom 7.5437444380730350 7.5436489202253743 21.9253413662068546 Pb
atom 6.5776125147251960 6.5776311033039496 20.1941912010133890 O
atom 9.0919779228923048 5.9952317750343056 21.9253830061013630 O
atom 5.9952460048475738 9.0919672269874106 21.9257223676788691 O
atom 8.5097032892571374 8.5097353291180315 20.1942301217446492 O
atom 0.0003363690427755 0.0003337242239600 23.6571507338187246 Pb
atom 2.5146891741021777 2.5145677121674792 25.3873274425188065 Pb
atom 1.5488052668703745 1.5488053031048825 30.5811817055327531 O
atom 4.0631720216044123 0.9662336596725675 25.3880841711644507 O
atom 0.9662662710061859 4.0631424090768675 25.3877466227451656 O
atom 3.4809855611834690 3.4809996287103360 30.5811637055895709 O
atom 0.0003780817876595 0.0003751028316086 27.1195683735555519 Pb
atom 2.5150504069396962 2.5151803009162346 28.8497780389120031 Pb
atom 1.5487641249781716 1.5487638953483625 27.1189909457938931 O
atom 4.0632057044440053 0.9664647183846627 28.8505297702199037 O
atom 0.9664195138452126 4.0632539177884102 28.8501903317997481 O
atom 3.4809410962132481 3.4809551778811616 27.1181539058746104 O
atom 0.0004122777497800 5.0294234196302998 30.5814944679505594 Pb
atom 2.5146646192082591 7.5435910222438238 25.3873387171796132 Pb
atom 1.5488077619059148 6.5777605331085809 30.5811732203472779 O
atom 4.0631955869460636 5.9953277299905396 25.3881591553789647 O
atom 0.9662630279524010 9.0920179009830324 25.3882453678803905 O
atom 3.4809848861888550 8.5098657586789006 30.5811459007502684 O
atom 0.0003681247689406 5.0293794807868597 27.1190140082325044 Pb
atom 2.5150769720509567 7.5439879309887727 28.8497875541897564 Pb
atom 1.5487665197282892 6.5777187850671428 27.1189065106100777 O
atom 4.0631487597969418 5.9953366286973706 28.8506045255703860 O
atom 0.9664550307993363 9.0920500697002566 28.8506900270869231 O
atom 3.4809423015895913 8.5098237782202304 27.1182348410189675 O
atom 5.0293123287089827 0.0003252888594715 23.6570523435339446 Pb
atom 7.5439596241489619 2.5150655072265913 25.3873376792282208 Pb
atom 6.5777415969027597 1.5488063181042426 30.5811808853614586 O
atom 9.0920751422385475 0.9663505952770738 25.3882451506831153 O
atom 5.9953861425820243 4.0632884156347648 25.3881585913401651 O
atom 8.5098363211204973 3.4810001836098108 30.5811375057416051 O
atom 5.0293529611417656 0.0003689771556647 27.1193869732661597 Pb
atom 7.5435637870408145 2.5146852859340023 28.8497882921910325 Pb
atom 6.5776987620094776 1.5487644973520960 27.1181915956304991 O
atom 9.0919425550859714 0.9663780339767790 28.8506898711272974 O
atom 5.9952304354478363 4.0630771143385367 28.8506047327668291 O
atom 8.5097909892365475 3.4809549058610889 27.1189488860330101 O
atom 5.0293032940224141 5.0293285491425364 23.6571184982116307 Pb
atom 7.5436880008926996 7.5438437589106710 25.3877811357368728 Pb
atom 6.5777427429509672 6.5777608991186192 30.5814418401834978 O
atom 9.0919186557362099 5.9953778337409833 25.3878285158250137 O
atom 5.9953140376931362 9.0919860556957595 25.3881664674013656 O
atom 8.5098340473592149 8.5098653348092785 30.5814478509119745 O
atom 5.0293418163396861 5.0293650373229246 27.1194222879787930 Pb
atom 7.5438299437646306 7.5437342976423816 28.8502303856628508 Pb
atom 6.5776980204167890 6.5777164807209560 27.1190802204693853 O
atom 9.0920634285839004 5.9953171524513120 28.8502720255573628 O
atom 5.9953315105391694 9.0920526044044170 28.8506113871348724 O
atom 8.5097887949487330 8.5098207065350397 27.1191191412006454 O
atom 0.0004218747343704 0.0004191016409665 30.5820397532747243 Pb
atom 5.0293978344005765 0.0004106662764780 30.5819413629899479 Pb
atom 5.0293887997140088 5.0294139265595446 30.5820075176676376 Pb
