#===============================================================================
# Created using the Atomic Simulation Environment (ASE)

# Mon Mar 23 14:01:14 2026

#=======================================================
lattice_vector 10.0578176800707837 0.0000000000000000 0.0000000000000000 
lattice_vector 0.0000853774076561 6.9248890199838939 0.0000000000000000 
lattice_vector 0.0000000000000000 0.0000000000000000 41.9898787431539589 
atom 2.5148063503306766 1.7310532400595120 15.9662825422419061 Pb
atom 1.5485472668678972 6.9248845153299889 15.0000002779509813 O
atom 0.9660912690889331 1.7319798270102866 17.5143978796506019 O
atom 3.4807409210916522 6.9248649924291765 16.9320952138496992 O
atom 2.5144261290813739 5.1935038478707423 15.9658439521663880 Pb
atom 1.5485054461204348 3.4618952253341151 15.0000002026303179 O
atom 0.9661187078031371 5.1944245455533915 17.5142225396479745 O
atom 3.4806956433478891 3.4626763724247751 16.9320926316516349 O
atom 7.5435846020444322 1.7314966932210289 15.9660114634258008 Pb
atom 6.5774164704744624 0.0002564501890569 15.0000019707120629 O
atom 5.9951185075699245 1.7315631902267756 17.5142419482356928 O
atom 8.5095206948836815 0.0002863175943488 16.9320934861816568 O
atom 7.5434751407606182 5.1939459446357121 15.9661106533767594 Pb
atom 6.5774574294893462 3.4627838501705690 15.0000000000000000 O
atom 5.9950578262644214 5.1940067014827767 17.5143439682386202 O
atom 8.5095614440220473 3.4628466275720942 16.9320909851869104 O
atom 0.0000742923952093 0.0008973386026081 18.4804639056613951 Pb
atom 2.5143080053848084 1.7311050933755605 20.9947956219547720 Pb
atom 1.5484603245375881 0.0000584096684271 20.0288474775960239 O
atom 0.9659737835575022 1.7318809420527279 22.5432782906790408 O
atom 4.0628828716200394 1.7315051543104687 19.4463728831434111 O
atom 3.4806544388518721 0.0000642675008770 21.9610279832767574 O
atom 0.0001156709982966 3.4633149785905388 18.4804628658921217 Pb
atom 2.5149205940940624 5.1935556939651590 20.9951141019336376 Pb
atom 1.5485042941932230 3.4627566696693894 20.0288490854165531 O
atom 0.9662048422659141 5.1943265412601347 22.5432692206799885 O
atom 4.0629943803148230 5.1939488649932839 19.4464833731540381 O
atom 3.4806953654352153 3.4619434874847630 21.9610262781321097 O
atom 5.0290786103855627 0.0003520531667683 18.4804548653502536 Pb
atom 7.5433313154638100 1.7311163677399612 20.9947716168641918 Pb
atom 6.5774155545409849 0.0000499245205584 20.0288505226714335 O
atom 5.9950678538728663 1.7319559265650009 22.5433024050451039 O
atom 9.0917583635265249 1.7320038994124045 19.4463701838577094 O
atom 8.5095205688204807 0.0000464626600214 21.9610278584273431 O
atom 5.0291200489546064 3.4627606131513793 18.4804534656589610 Pb
atom 7.5437282241636670 5.1935652095777263 20.9951412168463634 Pb
atom 6.5774591839117136 3.4626722345219401 20.0288520311443108 O
atom 5.9950767525848212 5.1944012959142762 22.5432128250358801 O
atom 9.0917905322227561 5.1944485607257702 19.4465194338558405 O
atom 8.5095639657741238 3.4620244226507859 21.9610280324347329 O
atom 0.0000653070933473 0.0008610440587380 23.5094398661581749 Pb
atom 2.5148052504743426 1.7311774294621252 26.0240660715461729 Pb
atom 1.5484607896039080 0.0001196847487086 25.0577838072552552 O
atom 4.0630283282248234 1.7319792204233113 24.4754927492649870 O
atom 3.4806544438276630 0.0001001618478961 26.9898787431539589 O
atom 0.0001089953850973 3.4631956740287291 23.5094377471020124 Pb
atom 2.5144250292250407 5.1936280372733554 26.0236274814706618 Pb
atom 1.5485043462641019 3.4620194147367278 25.0577837319345917 O
atom 4.0628170269456225 5.1944253596634189 24.4752942892370982 O
atom 3.4806945434915555 3.4628005618273878 26.9898761609559017 O
atom 5.0290685673773723 0.0009271986316561 23.5094313805951174 Pb
atom 7.5435835021880999 1.7316208826236423 26.0237949927300676 Pb
atom 6.5774153706181320 0.0003806395916710 25.0577855000163296 O
atom 9.0917259682936731 1.7319870956009795 24.4754211941857918 O
atom 8.5095195950273510 0.0004105069969613 26.9898770154859307 O
atom 5.0291050555535470 3.4632309886105350 23.5094271518034645 Pb
atom 7.5434740409042869 5.1940701340383253 26.0238941826810262 Pb
atom 6.5774563296330140 3.4629080395731822 25.0577835293042739 O
atom 9.0917925170004192 5.1944320152862824 24.4753959141835722 O
atom 8.5095603441657151 3.4629708169747073 26.9898745144911700 O
