#===============================================================================
# Created using the Atomic Simulation Environment (ASE)

# Mon Mar 23 14:01:14 2026

#=======================================================
lattice_vector 10.0578176800707837 0.0000000000000000 0.0000000000000000 
lattice_vector 0.0000853774076561 6.9248890199838939 0.0000000000000000 
lattice_vector 0.0000000000000000 0.0000000000000000 59.5912232621145250 
atom 0.9660934688015991 1.7317314482050608 15.0001753400026345 O
atom 0.9661209075158032 5.1941761667481661 15.0000000000000000 O
atom 5.9951207072825907 1.7313148114215500 15.0000194085877254 O
atom 5.9950600259770885 5.1937583226775503 15.0001214285906528 O
atom 0.0000764921078753 0.0006489597973820 15.9662413660134348 Pb
atom 2.5143102050974742 1.7308567145703344 18.4805730823068046 Pb
atom 1.5485479016579105 6.9246990508470949 17.5146249379480494 O
atom 0.9659759832701681 1.7316325632475020 20.0290557510310769 O
atom 4.0628850713327038 1.7312567755052426 16.9321503434954437 O
atom 3.4807420159721940 6.9247049086795451 19.4468054436287900 O
atom 0.0001178707109626 3.4630665997853121 15.9662403262441543 Pb
atom 2.5149227938067282 5.1933073151599318 18.4808915622856667 Pb
atom 1.5485064939058890 3.4625082908641627 17.5146265457685857 O
atom 0.9662070419785800 5.1940781624549102 20.0290466810320211 O
atom 4.0629965800274892 5.1937004861880576 16.9322608335060778 O
atom 3.4806975651478815 3.4616951086795362 19.4468037384841423 O
atom 5.0290808100982280 0.0001036743615418 15.9662323257022791 Pb
atom 7.5433335151764762 1.7308679889347351 18.4805490772162244 Pb
atom 6.5775031316613068 6.9246905656992261 17.5146279830234697 O
atom 5.9950700535855317 1.7317075477597750 20.0290798653971436 O
atom 9.0917605632391929 1.7317555206071786 16.9321476442097421 O
atom 8.5096081459408026 6.9246871038386892 19.4468053187793828 O
atom 5.0291222486672726 3.4625122343461525 15.9662309260109936 Pb
atom 7.5437304238763323 5.1933168307724999 18.4809186771984031 Pb
atom 6.5774613836243780 3.4624238557167137 17.5146294914963434 O
atom 5.9950789522974883 5.1941529171090499 20.0289902853879092 O
atom 9.0917927319354224 5.1942001819205448 16.9322968942078731 O
atom 8.5095661654867900 3.4617760438455596 19.4468054927867655 O
atom 0.0000675068060133 0.0006126652535120 20.9952173265102076 Pb
atom 2.5148074501870088 1.7309290506568988 23.5098435318982091 Pb
atom 1.5485483667242301 6.9247603259273758 22.5435612676072807 O
atom 0.9660923689452660 1.7318556376076737 25.0579588693069013 O
atom 4.0630305279374896 1.7317308416180852 21.9612702096170196 O
atom 3.4807420209479853 6.9247408030265651 24.4756562035059986 O
atom 0.0001111950977633 3.4629472952235032 20.9952152074540521 Pb
atom 2.5144272289377070 5.1933796584681300 23.5094049418226874 Pb
atom 1.5485065459767682 3.4617710359315019 22.5435611922866137 O
atom 0.9661198076594701 5.1943003561507792 25.0577835293042668 O
atom 4.0628192266582879 5.1941769808581926 21.9610717495891308 O
atom 3.4806967432042222 3.4625521830221611 24.4756536213079343 O
atom 5.0290707670900385 0.0006788198264301 20.9952088409471429 Pb
atom 7.5435857019007653 1.7313725038184160 23.5095724530820966 Pb
atom 6.5774175703307964 0.0001322607864460 22.5435629603683658 O
atom 5.9951196074262585 1.7314390008241629 25.0578029378919886 O
atom 9.0917281680063393 1.7317387167957536 21.9611986545378208 O
atom 8.5095217947400155 0.0001621281917363 24.4756544758379562 O
atom 5.0291072552662133 3.4629826098053083 20.9952046121554936 Pb
atom 7.5434762406169513 5.1938217552330990 23.5096716430330588 Pb
atom 6.5774585293456793 3.4626596607679563 22.5435609896562994 O
atom 5.9950589261207554 5.1938825120801635 25.0579049578949231 O
atom 9.0917947167130855 5.1941836364810579 21.9611733745356084 O
atom 8.5095625438783813 3.4627224381694810 24.4756519748432062 O
atom 0.0000753922515423 0.0007731491999951 26.0240248953177016 Pb
atom 2.5143091052411415 1.7309809039729471 28.5383566116110714 Pb
atom 1.5485468018015773 6.9248232402497072 27.5724084672523198 O
atom 0.9659748834138352 1.7317567526501150 30.0868392803353473 O
atom 4.0628839714763716 1.7313809649078555 26.9899338727997105 O
atom 3.4807409161158613 6.9248290980821565 29.5045889729330568 O
atom 0.0001167708546296 3.4631907891879252 26.0240238555484247 Pb
atom 2.5149216939503956 5.1934315045625450 28.5386750915899334 Pb
atom 1.5485053940495561 3.4626324802667767 27.5724100750728525 O
atom 0.9662059421222470 5.1942023518575215 30.0868302103362879 O
atom 4.0629954801711552 5.1938246755906707 26.9900443628103410 O
atom 3.4806964652915484 3.4618192980821498 29.5045872677884091 O
atom 5.0290797102418958 0.0002278637641558 26.0240158550065424 Pb
atom 7.5433324153201422 1.7309921783373479 28.5383326065204912 Pb
atom 6.5775020318049737 6.9248147551018393 27.5724115123277400 O
atom 5.9950689537291986 1.7318317371623879 30.0868633947014033 O
atom 9.0917594633828571 1.7318797100097916 26.9899311735140124 O
atom 8.5096070460844686 6.9248112932413024 29.5045888480836496 O
atom 5.0291211488109395 3.4626364237487666 26.0240144553152639 Pb
atom 7.5437293240200001 5.1934410201751122 28.5387022065026699 Pb
atom 6.5774602837680449 3.4625480451193269 27.5724130208006137 O
atom 5.9950778524411534 5.1942771065116631 30.0867738146921866 O
atom 9.0917916320790884 5.1943243713231579 26.9900804235121399 O
atom 8.5095650656304560 3.4619002332481732 29.5045890220910323 O
atom 0.0000664069496803 0.0007368546561250 31.0530008558144743 Pb
atom 2.5148063503306766 1.7310532400595120 33.5676270612024723 Pb
atom 1.5485472668678972 6.9248845153299889 32.6013447969115475 O
atom 0.9660912690889331 1.7319798270102866 35.1157423986111681 O
atom 4.0630294280811565 1.7318550310206982 32.0190537389212864 O
atom 3.4807409210916522 6.9248649924291765 34.5334397328102654 O
atom 0.0001100952414303 3.4630714846261159 31.0529987367583189 Pb
atom 2.5144261290813739 5.1935038478707423 33.5671884711269541 Pb
atom 1.5485054461204348 3.4618952253341151 32.6013447215908840 O
atom 0.9661187078031371 5.1944245455533915 35.1155670586085407 O
atom 4.0628181268019548 5.1943011702608057 32.0188552788933904 O
atom 3.4806956433478891 3.4626763724247751 34.5334371506122011 O
atom 5.0290696672337045 0.0008030092290431 31.0529923702514097 Pb
atom 7.5435846020444322 1.7314966932210289 33.5673559823863670 Pb
atom 6.5774164704744624 0.0002564501890569 32.6013464896726290 O
atom 5.9951185075699245 1.7315631902267756 35.1155864671962590 O
atom 9.0917270681500053 1.7318629061983666 32.0189821838420912 O
atom 8.5095206948836815 0.0002863175943488 34.5334380051422229 O
atom 5.0291061554098802 3.4631067992079223 31.0529881414597568 Pb
atom 7.5434751407606182 5.1939459446357121 33.5674551723373256 Pb
atom 6.5774574294893462 3.4627838501705690 32.6013445189605662 O
atom 5.9950578262644214 5.1940067014827767 35.1156884871991863 O
atom 9.0917936168567515 5.1943078258836692 32.0189569038398787 O
atom 8.5095614440220473 3.4628466275720942 34.5334355041474765 O
atom 0.0000742923952093 0.0008973386026081 36.0818084246219613 Pb
atom 2.5143080053848084 1.7311050933755605 38.5961401409153382 Pb
atom 1.5484603245375881 0.0000584096684271 37.6301919965565901 O
atom 0.9659737835575022 1.7318809420527279 40.1446228096396069 O
atom 4.0628828716200394 1.7315051543104687 37.0477174021039772 O
atom 3.4806544388518721 0.0000642675008770 39.5623725022373236 O
atom 0.0001156709982966 3.4633149785905388 36.0818073848526879 Pb
atom 2.5149205940940624 5.1935556939651590 38.5964586208942038 Pb
atom 1.5485042941932230 3.4627566696693894 37.6301936043771192 O
atom 0.9662048422659141 5.1943265412601347 40.1446137396405547 O
atom 4.0629943803148230 5.1939488649932839 37.0478278921146043 O
atom 3.4806953654352153 3.4619434874847630 39.5623707970926759 O
atom 5.0290786103855627 0.0003520531667683 36.0817993843108198 Pb
atom 7.5433313154638100 1.7311163677399612 38.5961161358247580 Pb
atom 6.5774155545409849 0.0000499245205584 37.6301950416319997 O
atom 5.9950678538728663 1.7319559265650009 40.1446469240056700 O
atom 9.0917583635265249 1.7320038994124045 37.0477147028182756 O
atom 8.5095205688204807 0.0000464626600214 39.5623723773879092 O
atom 5.0291200489546064 3.4627606131513793 36.0817979846195271 Pb
atom 7.5437282241636670 5.1935652095777263 38.5964857358069295 Pb
atom 6.5774591839117136 3.4626722345219401 37.6301965501048770 O
atom 5.9950767525848212 5.1944012959142762 40.1445573439964463 O
atom 9.0917905322227561 5.1944485607257702 37.0478639528164067 O
atom 8.5095639657741238 3.4620244226507859 39.5623725513952991 O
atom 0.0000653070933473 0.0008610440587380 41.1107843851187411 Pb
atom 2.5148052504743426 1.7311774294621252 43.6254105905067391 Pb
atom 1.5484607896039080 0.0001196847487086 42.6591283262158214 O
atom 4.0630283282248234 1.7319792204233113 42.0768372682255531 O
atom 3.4806544438276630 0.0001001618478961 44.5912232621145250 O
atom 0.0001089953850973 3.4631956740287291 41.1107822660625786 Pb
atom 2.5144250292250407 5.1936280372733554 43.6249720004312280 Pb
atom 1.5485043462641019 3.4620194147367278 42.6591282508951579 O
atom 4.0628170269456225 5.1944253596634189 42.0766388081976643 O
atom 3.4806945434915555 3.4628005618273878 44.5912206799164679 O
atom 5.0290685673773723 0.0009271986316561 41.1107758995556836 Pb
atom 7.5435835021880999 1.7316208826236423 43.6251395116906338 Pb
atom 6.5774153706181320 0.0003806395916710 42.6591300189768958 O
atom 9.0917259682936731 1.7319870956009795 42.0767657131463579 O
atom 8.5095195950273510 0.0004105069969613 44.5912215344464968 O
atom 5.0291050555535470 3.4632309886105350 41.1107716707640307 Pb
atom 7.5434740409042869 5.1940701340383253 43.6252387016415923 Pb
atom 6.5774563296330140 3.4629080395731822 42.6591280482648401 O
atom 9.0917925170004192 5.1944320152862824 42.0767404331441384 O
atom 8.5095603441657151 3.4629708169747073 44.5912190334517362 O
