#===============================================================================
# Created using the Atomic Simulation Environment (ASE)

# Mon Mar 23 14:01:15 2026

#=======================================================
lattice_vector 14.2238788010732762 0.0000000000000000 0.0000000000000000 
lattice_vector -0.0000000905053021 6.9248890205102045 0.0000000000000000 
lattice_vector 0.0000000000000000 0.0000000000000000 32.7325254986677123 
atom 7.1119466390794903 5.1937532070490979 16.3659708367625853 Pb
atom 7.1118628805499391 6.9248117986225219 15.0000000000000000 O
atom 9.3017268689847494 5.1929964765049110 16.3660796353483136 O
atom 4.9220386346238207 5.1933340250127058 16.3660745658419060 O
atom 7.1118484693607176 6.9247821186428329 17.7325254986677123 O
atom 7.1117689024787820 1.7313025991676878 16.3665990159090668 Pb
atom 7.1118631591456127 3.4621135383426336 15.0000020404587389 O
atom 9.3015873028592839 1.7305508747100977 16.3662064193439249 O
atom 4.9220681448007921 1.7308903132186366 16.3662013572185714 O
atom 7.1118485499700972 3.4629028984174726 17.7325230518692578 O
atom 3.5558127802624209 6.9244751958786770 16.3662836420768798 Pb
atom 3.5558127194520668 3.4620666356463192 16.3662817686801318 Pb
atom 10.6678915904515303 6.9240283009710231 16.3662760885238328 Pb
atom 10.6678894295318205 3.4616936707255150 16.3662752978943260 Pb
atom 14.2237024776635028 5.1932995079726432 16.3663065758498618 Pb
atom 14.2238019309583397 6.9245516628241424 15.0000657683788887 O
atom 2.1895188278651321 5.1932521307245771 16.3661438114715452 O
atom 12.0341348324460551 5.1929141792293585 16.3661391587516221 O
atom 14.2237881563800759 6.9244979743798787 17.7324647794952028 O
atom 0.0000014461248549 1.7308502581729952 16.3662691277189154 Pb
atom 14.2238018065102150 3.4620242626008046 15.0000631510773133 O
atom 2.1896641057811830 1.7308086204817750 16.3661428571360901 O
atom 12.0341001304731812 1.7304692589862738 16.3661381545960296 O
atom 14.2237878056588283 3.4619376641628947 17.7324616385347298 O
