#===============================================================================
# Created using the Atomic Simulation Environment (ASE)

# Mon Mar 23 14:01:14 2026

#=======================================================
lattice_vector 10.0578176800707837 0.0000000000000000 0.0000000000000000 
lattice_vector 0.0000853774076561 6.9248890199838939 0.0000000000000000 
lattice_vector 0.0000000000000000 0.0000000000000000 62.1054458017624924 
atom 2.5148085500433419 1.7308048612542859 15.9662825422419061 Pb
atom 1.5485494665805630 6.9246361365247635 15.0000002779509813 O
atom 0.9660934688015991 1.7317314482050608 17.5143978796506019 O
atom 3.4807431208043185 6.9246166136239520 16.9320952138496992 O
atom 2.5144283287940397 5.1932554690655159 15.9658439521663880 Pb
atom 1.5485076458331006 3.4616468465288883 15.0000002026303125 O
atom 0.9661209075158032 5.1941761667481661 17.5142225396479674 O
atom 3.4806978430605544 3.4624279936195488 16.9320926316516349 O
atom 7.5435868017570984 1.7312483144158033 15.9660114634257990 Pb
atom 6.5774186701871296 0.0000080713838319 15.0000019707120611 O
atom 5.9951207072825907 1.7313148114215500 17.5142419482356928 O
atom 8.5095228945963495 0.0000379387891238 16.9320934861816568 O
atom 7.5434773404732862 5.1936975658304858 15.9661106533767558 Pb
atom 6.5774596292020124 3.4625354713653431 15.0000000000000000 O
atom 5.9950600259770885 5.1937583226775503 17.5143439682386202 O
atom 8.5095636437347135 3.4625982487668683 16.9320909851869033 O
atom 0.0000764921078753 0.0006489597973820 18.4804639056614022 Pb
atom 2.5143102050974742 1.7308567145703344 20.9947956219547720 Pb
atom 1.5485479016579105 6.9246990508470949 20.0288474775960168 O
atom 0.9659759832701681 1.7316325632475020 22.5432782906790443 O
atom 4.0628850713327038 1.7312567755052426 19.4463728831434111 O
atom 3.4807420159721940 6.9247049086795451 21.9610279832767574 O
atom 0.0001178707109626 3.4630665997853121 18.4804628658921217 Pb
atom 2.5149227938067282 5.1933073151599318 20.9951141019336340 Pb
atom 1.5485064939058890 3.4625082908641627 20.0288490854165531 O
atom 0.9662070419785800 5.1940781624549102 22.5432692206799885 O
atom 4.0629965800274892 5.1937004861880576 19.4464833731540452 O
atom 3.4806975651478815 3.4616951086795362 21.9610262781321097 O
atom 5.0290808100982280 0.0001036743615418 18.4804548653502465 Pb
atom 7.5433335151764762 1.7308679889347351 20.9947716168641918 Pb
atom 6.5775031316613068 6.9246905656992261 20.0288505226714371 O
atom 5.9950700535855317 1.7317075477597750 22.5433024050451110 O
atom 9.0917605632391929 1.7317555206071786 19.4463701838577094 O
atom 8.5096081459408026 6.9246871038386892 21.9610278584273502 O
atom 5.0291222486672726 3.4625122343461525 18.4804534656589610 Pb
atom 7.5437304238763323 5.1933168307724999 20.9951412168463705 Pb
atom 6.5774613836243780 3.4624238557167137 20.0288520311443108 O
atom 5.9950789522974883 5.1941529171090499 22.5432128250358765 O
atom 9.0917927319354224 5.1942001819205448 19.4465194338558405 O
atom 8.5095661654867900 3.4617760438455596 21.9610280324347329 O
atom 0.0000675068060133 0.0006126652535120 23.5094398661581749 Pb
atom 2.5148074501870088 1.7309290506568988 26.0240660715461765 Pb
atom 1.5485483667242301 6.9247603259273758 25.0577838072552481 O
atom 0.9660923689452660 1.7318556376076737 27.5721814089548687 O
atom 4.0630305279374896 1.7317308416180852 24.4754927492649870 O
atom 3.4807420209479853 6.9247408030265651 26.9898787431539660 O
atom 0.0001111950977633 3.4629472952235032 23.5094377471020195 Pb
atom 2.5144272289377070 5.1933796584681300 26.0236274814706547 Pb
atom 1.5485065459767682 3.4617710359315019 25.0577837319345811 O
atom 0.9661198076594701 5.1943003561507792 27.5720060689522342 O
atom 4.0628192266582879 5.1941769808581926 24.4752942892370982 O
atom 3.4806967432042222 3.4625521830221611 26.9898761609559017 O
atom 5.0290707670900385 0.0006788198264301 23.5094313805951103 Pb
atom 7.5435857019007653 1.7313725038184160 26.0237949927300640 Pb
atom 6.5774175703307964 0.0001322607864460 25.0577855000163332 O
atom 5.9951196074262585 1.7314390008241629 27.5720254775399560 O
atom 9.0917281680063393 1.7317387167957536 24.4754211941857882 O
atom 8.5095217947400155 0.0001621281917363 26.9898770154859236 O
atom 5.0291072552662133 3.4629826098053083 23.5094271518034610 Pb
atom 7.5434762406169513 5.1938217552330990 26.0238941826810262 Pb
atom 6.5774585293456793 3.4626596607679563 25.0577835293042668 O
atom 5.9950589261207554 5.1938825120801635 27.5721274975428905 O
atom 9.0917947167130855 5.1941836364810579 24.4753959141835757 O
atom 8.5095625438783813 3.4627224381694810 26.9898745144911736 O
atom 0.0000753922515423 0.0007731491999951 28.5382474349656690 Pb
atom 2.5143091052411415 1.7309809039729471 31.0525791512590388 Pb
atom 1.5485468018015773 6.9248232402497072 30.0866310069002871 O
atom 0.9659748834138352 1.7317567526501150 32.6010618199833146 O
atom 4.0628839714763716 1.7313809649078555 29.5041564124476778 O
atom 3.4807409161158613 6.9248290980821565 32.0188115125810242 O
atom 0.0001167708546296 3.4631907891879252 28.5382463951963921 Pb
atom 2.5149216939503956 5.1934315045625450 31.0528976312379008 Pb
atom 1.5485053940495561 3.4626324802667767 30.0866326147208198 O
atom 0.9662059421222470 5.1942023518575215 32.6010527499842553 O
atom 4.0629954801711552 5.1938246755906707 29.5042669024583084 O
atom 3.4806964652915484 3.4618192980821498 32.0188098074363765 O
atom 5.0290797102418958 0.0002278637641558 28.5382383946545097 Pb
atom 7.5433324153201422 1.7309921783373479 31.0525551461684586 Pb
atom 6.5775020318049737 6.9248147551018393 30.0866340519757074 O
atom 5.9950689537291986 1.7318317371623879 32.6010859343493706 O
atom 9.0917594633828571 1.7318797100097916 29.5041537131619798 O
atom 8.5096070460844686 6.9248112932413024 32.0188113877316169 O
atom 5.0291211488109395 3.4626364237487666 28.5382369949632313 Pb
atom 7.5437293240200001 5.1934410201751122 31.0529247461506372 Pb
atom 6.5774602837680449 3.4625480451193269 30.0866355604485811 O
atom 5.9950778524411534 5.1942771065116631 32.6009963543401540 O
atom 9.0917916320790884 5.1943243713231579 29.5043029631601073 O
atom 8.5095650656304560 3.4619002332481732 32.0188115617389997 O
atom 0.0000664069496803 0.0007368546561250 33.5672233954624417 Pb
atom 2.5148063503306766 1.7310532400595120 36.0818496008504397 Pb
atom 1.5485472668678972 6.9248845153299889 35.1155673365595149 O
atom 0.9660912690889331 1.7319798270102866 37.6299649382591355 O
atom 4.0630294280811565 1.7318550310206982 34.5332762785692537 O
atom 3.4807409210916522 6.9248649924291765 37.0476622724582327 O
atom 0.0001100952414303 3.4630714846261159 33.5672212764062863 Pb
atom 2.5144261290813739 5.1935038478707423 36.0814110107749215 Pb
atom 1.5485054461204348 3.4618952253341151 35.1155672612388514 O
atom 0.9661187078031371 5.1944245455533915 37.6297895982565080 O
atom 4.0628181268019548 5.1943011702608057 34.5330778185413578 O
atom 3.4806956433478891 3.4626763724247751 37.0476596902601685 O
atom 5.0290696672337045 0.0008030092290431 33.5672149098993771 Pb
atom 7.5435846020444322 1.7314966932210289 36.0815785220343344 Pb
atom 6.5774164704744624 0.0002564501890569 35.1155690293205964 O
atom 5.9951185075699245 1.7315631902267756 37.6298090068442264 O
atom 9.0917270681500053 1.7318629061983666 34.5332047234900585 O
atom 8.5095206948836815 0.0002863175943488 37.0476605447901903 O
atom 5.0291061554098802 3.4631067992079223 33.5672106811077242 Pb
atom 7.5434751407606182 5.1939459446357121 36.0816777119852929 Pb
atom 6.5774574294893462 3.4627838501705690 35.1155670586085336 O
atom 5.9950578262644214 5.1940067014827767 37.6299110268471537 O
atom 9.0917936168567515 5.1943078258836692 34.5331794434878461 O
atom 8.5095614440220473 3.4628466275720942 37.0476580437954439 O
atom 0.0000742923952093 0.0008973386026081 38.5960309642699286 Pb
atom 2.5143080053848084 1.7311050933755605 41.1103626805633056 Pb
atom 1.5484603245375881 0.0000584096684271 40.1444145362045575 O
atom 0.9659737835575022 1.7318809420527279 42.6588453492875743 O
atom 4.0628828716200394 1.7315051543104687 39.5619399417519446 O
atom 3.4806544388518721 0.0000642675008770 42.0765950418852910 O
atom 0.0001156709982966 3.4633149785905388 38.5960299245006553 Pb
atom 2.5149205940940624 5.1935556939651590 41.1106811605421711 Pb
atom 1.5485042941932230 3.4627566696693894 40.1444161440250866 O
atom 0.9662048422659141 5.1943265412601347 42.6588362792885221 O
atom 4.0629943803148230 5.1939488649932839 39.5620504317625716 O
atom 3.4806953654352153 3.4619434874847630 42.0765933367406433 O
atom 5.0290786103855627 0.0003520531667683 38.5960219239587872 Pb
atom 7.5433313154638100 1.7311163677399612 41.1103386754727254 Pb
atom 6.5774155545409849 0.0000499245205584 40.1444175812799671 O
atom 5.9950678538728663 1.7319559265650009 42.6588694636536374 O
atom 9.0917583635265249 1.7320038994124045 39.5619372424662430 O
atom 8.5095205688204807 0.0000464626600214 42.0765949170358766 O
atom 5.0291200489546064 3.4627606131513793 38.5960205242674945 Pb
atom 7.5437282241636670 5.1935652095777263 41.1107082754548969 Pb
atom 6.5774591839117136 3.4626722345219401 40.1444190897528443 O
atom 5.9950767525848212 5.1944012959142762 42.6587798836444136 O
atom 9.0917905322227561 5.1944485607257702 39.5620864924643740 O
atom 8.5095639657741238 3.4620244226507859 42.0765950910432665 O
atom 0.0000653070933473 0.0008610440587380 43.6250069247667085 Pb
atom 2.5148052504743426 1.7311774294621252 46.1396331301547065 Pb
atom 1.5484607896039080 0.0001196847487086 45.1733508658637888 O
atom 4.0630283282248234 1.7319792204233113 44.5910598078735205 O
atom 3.4806544438276630 0.0001001618478961 47.1054458017624924 O
atom 0.0001089953850973 3.4631956740287291 43.6250048057105460 Pb
atom 2.5144250292250407 5.1936280372733554 46.1391945400791954 Pb
atom 1.5485043462641019 3.4620194147367278 45.1733507905431253 O
atom 4.0628170269456225 5.1944253596634189 44.5908613478456317 O
atom 3.4806945434915555 3.4628005618273878 47.1054432195644353 O
atom 5.0290685673773723 0.0009271986316561 43.6249984392036509 Pb
atom 7.5435835021880999 1.7316208826236423 46.1393620513386011 Pb
atom 6.5774153706181320 0.0003806395916710 45.1733525586248632 O
atom 9.0917259682936731 1.7319870956009795 44.5909882527943253 O
atom 8.5095195950273510 0.0004105069969613 47.1054440740944642 O
atom 5.0291050555535470 3.4632309886105350 43.6249942104119981 Pb
atom 7.5434740409042869 5.1940701340383253 46.1394612412895597 Pb
atom 6.5774563296330140 3.4629080395731822 45.1733505879128074 O
atom 9.0917925170004192 5.1944320152862824 44.5909629727921057 O
atom 8.5095603441657151 3.4629708169747073 47.1054415730997036 O
