#===============================================================================
# Created using the Atomic Simulation Environment (ASE)

# Mon Mar 23 14:01:15 2026

#=======================================================
lattice_vector 14.2238788010732762 0.0000000000000000 0.0000000000000000 
lattice_vector -0.0000000905053021 6.9248890205102045 0.0000000000000000 
lattice_vector 0.0000000000000000 0.0000000000000000 54.0683413637550245 
atom 0.0000796816280587 5.1941254963672661 16.3659708367625853 Pb
atom 14.2238748146770906 0.0002950674304855 15.0000000000000000 O
atom 2.1898599115333206 5.1933687658230792 16.3660796353483065 O
atom 12.0340504782456748 5.1937063143308757 16.3660745658419096 O
atom 14.2238604034878744 0.0002653874507959 17.7325254986676981 O
atom 14.2237807461006405 1.7316748884858559 16.3665990159090668 Pb
atom 14.2238750027674588 3.4624858276608013 15.0000020404587371 O
atom 2.1897203454078586 1.7309231640282658 16.3662064193439214 O
atom 12.0340799884226417 1.7312626025368050 16.3662013572185678 O
atom 14.2238603935919468 3.4632751877356407 17.7325230518692578 O
atom 10.6678246238842824 6.9248474851968451 16.3662836420768834 Pb
atom 10.6678787918654141 5.1940521723705828 19.9220041157223307 Pb
atom 10.6678623909584225 0.0002415037863130 18.5560042667225780 O
atom 8.4780903805339189 5.1931455214207167 19.9220183830084281 O
atom 10.6678245630739195 3.4624389249644874 16.3662817686801283 Pb
atom 10.6678627487545707 3.4625082140204011 18.5560059969765696 O
atom 3.5560246330001046 6.9244005902891912 16.3662760885238328 Pb
atom 3.5559844344702012 0.0002338388197044 18.5560015408372045 O
atom 3.5560224720804001 3.4620659600436832 16.3662752978943224 Pb
atom 3.5559420423605572 1.7316025977634215 19.9219507397098958 Pb
atom 3.5559837174624787 3.4632231290679822 18.5560021060634739 O
atom 5.7456297262237772 1.7307010178821276 19.9220048911681289 O
atom 1.3662266680482003 1.7307861565290199 19.9219884770891085 O
atom 7.1118355202120780 5.1936717972908113 16.3663065758498618 Pb
atom 7.1119350640122185 0.0000349316321055 15.0000657683788905 O
atom 9.3015306714869794 5.1936244200427444 16.3661438114715487 O
atom 4.9222678749946276 5.1932864685475266 16.3661391587516150 O
atom 7.1119211989286528 6.9248702636980468 17.7324647794952028 O
atom 7.1120132897467103 1.7312225474911633 16.3662691277189154 Pb
atom 7.1119348490587901 3.4623965519189728 15.0000631510773168 O
atom 9.3016759494030339 1.7311809097999435 16.3661428571360901 O
atom 4.9222331730217581 1.7308415483044421 16.3661381545960225 O
atom 7.1119208482074061 3.4623099534810637 17.7324616385347333 O
atom 7.1119167602111784 6.9242401527194710 19.9221918276564338 Pb
atom 7.1119949344696254 5.1940013999278758 23.4779094584583561 Pb
atom 7.1119112664453823 0.0001709709910961 22.1119386216957707 O
atom 9.3017751643748916 5.1932446693836907 23.4780182570440772 O
atom 4.9220869300139656 5.1935822178914854 23.4780131875376803 O
atom 7.1118968552561679 0.0001412910114065 24.8444641203634724 O
atom 7.1119169963853484 3.4618225124845377 19.9221901662819931 Pb
atom 7.1118171978689269 1.7315507920464663 23.4785376376048376 Pb
atom 7.1119114545357478 3.4623617312214123 22.1119406621545060 O
atom 9.3016355982494296 1.7307990675888762 23.4781450410396886 O
atom 4.9221164401909281 1.7311385060974156 23.4781399789143386 O
atom 7.1118968453602358 3.4631510912962518 24.8444616735650285 O
atom 3.5558610756525755 6.9247233887574557 23.4782222637726541 Pb
atom 3.5559152436337067 5.1939280759311943 27.0339427374181014 Pb
atom 3.5558988427267124 0.0001174073469236 25.6679428884183451 O
atom 12.8576430127307564 5.1932317308059126 19.9221969743616434 O
atom 1.3661268323022067 5.1930214249813273 27.0339570047041988 O
atom 10.6679087415656273 0.0002211445989228 21.2884645208638759 O
atom 3.5558610148422116 3.4623148285250975 23.4782203903758955 Pb
atom 10.6678897115514726 1.7316033259026038 19.9225159337185502 Pb
atom 3.5558992005228629 3.4623841175810122 25.6679446186723439 O
atom 12.8576036086441849 1.7307863616095664 19.9221097385206463 O
atom 8.4782034000704627 1.7307008599753744 19.9221164801221526 O
atom 10.6679083144719655 3.4631322048464357 21.2884651487806167 O
atom 10.6679398858416690 6.9242764938498000 23.4782147102196035 Pb
atom 3.5559530835080180 5.1940532006238662 19.9225599122947123 Pb
atom 10.6678996873117651 0.0001097423803150 25.6679401625329788 O
atom 5.7457428814669331 5.1931457365018492 19.9221396588442730 O
atom 1.3661873566128435 5.1932322929003103 19.9223084075053585 O
atom 3.5559098415259824 0.0002295395781588 21.2884662073144391 O
atom 10.6679377249219627 3.4619418636042942 23.4782139195900932 Pb
atom 10.6678572952021220 1.7314785013240319 27.0338893614056630 Pb
atom 10.6678989703040497 3.4630990326285933 25.6679407277592482 O
atom 12.8575449790653416 1.7305769214427382 27.0339435128638996 O
atom 8.4781419208897741 1.7306620600896303 27.0339270987848792 O
atom 3.5559098033518621 3.4624181598776573 21.2884625484661569 O
atom 14.2238488950313702 6.9242723863315190 19.9223061636663736 Pb
atom 14.2237507730536468 5.1935477008514210 23.4782451975456325 Pb
atom 14.2238502263484818 6.9247998557029202 22.1120043900746595 O
atom 2.1895671232552743 5.1935003236033541 23.4780824331673159 O
atom 12.0341831278361955 5.1931623721081381 23.4780777804473857 O
atom 14.2238364517702180 6.9247461672586574 24.8444034011909736 O
atom 14.2238503332962090 3.4619685961659390 19.9222987902532012 Pb
atom 0.0000497415150000 1.7310984510517742 23.4782077494146861 Pb
atom 14.2238501019003571 3.4622724554795838 22.1120017727730840 O
atom 2.1897124011713247 1.7310568133605539 23.4780814788318608 O
atom 12.0341484258633251 1.7307174518650528 23.4780767762917932 O
atom 14.2238361010489722 3.4621858570416739 24.8444002602305041 O
atom 14.2238320130527409 6.9241160562800816 27.0341304493522046 Pb
atom 0.0000313862379168 5.1938773034884882 30.5898480801541304 Pb
atom 14.2238265192869466 0.0000468745517067 29.2238772433915415 O
atom 2.1898116161431758 5.1931205729443004 30.5899568787398515 O
atom 12.0340021828555326 5.1934581214520961 30.5899518092334510 O
atom 14.2238121080977269 0.0000171945720171 31.9564027420592396 O
atom 14.2238322492269127 3.4616984160451483 27.0341287879777603 Pb
atom 14.2237324507105001 1.7314266956070770 30.5904762593006083 Pb
atom 14.2238267073773219 3.4622376347820221 29.2238792838502839 O
atom 2.1896720500177165 1.7306749711494873 30.5900836627354593 O
atom 12.0340316930325013 1.7310144096580262 30.5900786006101129 O
atom 14.2238120982018046 3.4630269948568624 31.9564002952607957 O
atom 10.6677763284941403 6.9245992923180664 30.5901608854684284 Pb
atom 10.6678304964752737 5.1938039794918049 34.1458813591138792 Pb
atom 10.6678140050629811 6.9248823314177388 32.7798815101141230 O
atom 5.7456794644990437 5.1931076343665250 27.0341355960574141 O
atom 8.4780420851437732 5.1928973285419389 34.1458956263999767 O
atom 3.5559451933339199 0.0000970481595334 28.4004031425596430 O
atom 10.6677762676837755 3.4621907320857082 30.5901590120716662 Pb
atom 3.5559261633197665 1.7314792294632146 27.0344545554143245 Pb
atom 10.6678144533644339 3.4622600211416223 32.7798832403681217 O
atom 5.7456400604124740 1.7306622651701769 27.0340483602164170 O
atom 1.3662398518387544 1.7305767635359854 27.0340551018179269 O
atom 3.5559447662402519 3.4630081084070463 28.4004037704763874 O
atom 3.5559763376099625 6.9241523974104124 30.5901533319153742 Pb
atom 10.6678683363495850 5.1939291041844768 27.0344985339904795 Pb
atom 3.5559360485747602 6.9248746664511298 32.7798787842287496 O
atom 12.8576581343085010 5.1930216400624607 27.0340782805400472 O
atom 8.4781026094544103 5.1931081964609209 27.0342470292011292 O
atom 10.6678250943675526 0.0001054431387695 28.4004048290102098 O
atom 3.5559741766902579 3.4618177671649040 30.5901525412858604 Pb
atom 3.5558937469704124 1.7313544048846425 34.1458279831014337 Pb
atom 3.5559354220723303 3.4629749361892039 32.7798793494550154 O
atom 5.7455814308336350 1.7304528250033486 34.1458821345596704 O
atom 1.3661783726580581 1.7305379636502409 34.1458657204806570 O
atom 10.6678250561934327 3.4622940634382671 28.4004011701619277 O
atom 7.1118853467996619 6.9241482898921296 27.0342447853621408 Pb
atom 7.1117872248219358 5.1934236044120317 30.5901838192414033 Pb
atom 7.1118866781167771 6.9246757592635308 29.2239430117704337 O
atom 9.3014823760968373 5.1933762271639665 30.5900210548630902 O
atom 4.9222195796044828 5.1930382756687479 30.5900164021431564 O
atom 7.1118729035385106 6.9246220708192681 31.9563420228867514 O
atom 7.1118867850645016 3.4618444997265501 27.0342374119489719 Pb
atom 7.1119649943565673 1.7309743546123846 30.5901463711104640 Pb
atom 7.1118865536686444 3.4621483590401945 29.2239403944688583 O
atom 9.3016276540128917 1.7309327169211646 30.5900201005276351 O
atom 4.9221848776316142 1.7305933554256632 30.5900153979875640 O
atom 7.1118725528172657 3.4620617606022845 31.9563388819262784 O
atom 7.1118684648210335 6.9239919598406923 34.1460690710479682 Pb
atom 7.1119466390794903 5.1937532070490979 37.7017867018498976 Pb
atom 7.1118628805499391 6.9248117986225219 36.3358158650873122 O
atom 9.3017268689847494 5.1929964765049110 37.7018955004356258 O
atom 4.9220386346238207 5.1933340250127058 37.7018904309292182 O
atom 7.1118484693607176 6.9247821186428329 39.0683413637550245 O
atom 7.1118687009952035 3.4615743196057593 34.1460674096735346 Pb
atom 7.1117689024787820 1.7313025991676878 37.7024148809963791 Pb
atom 7.1118631591456127 3.4621135383426336 36.3358179055460511 O
atom 9.3015873028592839 1.7305508747100977 37.7020222844312372 O
atom 4.9220681448007921 1.7308903132186366 37.7020172223058836 O
atom 7.1118485499700972 3.4629028984174726 39.0683389169565700 O
atom 3.5558127802624209 6.9244751958786770 37.7020995071641920 Pb
atom 12.8575947173406107 5.1929835379271347 34.1460742177531813 O
atom 10.6678603556701841 6.9248619722303486 35.5123417642554173 O
atom 3.5558127194520668 3.4620666356463192 37.7020976337674441 Pb
atom 10.6678414161613304 1.7313551330238253 34.1463931771100917 Pb
atom 12.8575553132540445 1.7305381687307877 34.1459869819121877 O
atom 8.4781551046803170 1.7304526670965961 34.1459937235136977 O
atom 10.6678600190818234 3.4628840119676565 35.5123423921721582 O
atom 10.6678915904515303 6.9240283009710231 37.7020919536111450 Pb
atom 3.5559047881178829 5.1938050077450866 34.1464371556862574 Pb
atom 5.7456945860767910 5.1928975436230713 34.1460169022358215 O
atom 1.3661390612226982 5.1929841000215324 34.1461856508968964 O
atom 3.5558614556305481 6.9248703672095839 35.5123434507059841 O
atom 10.6678894295318205 3.4616936707255150 37.7020911629816382 Pb
atom 3.5558615079617204 3.4621699669988786 35.5123397918577055 O
atom 14.2238005996412280 6.9240241934527393 34.1461834070579187 Pb
atom 14.2237024776635028 5.1932995079726432 37.7021224409371740 Pb
atom 14.2238019309583397 6.9245516628241424 36.3358816334662009 O
atom 2.1895188278651321 5.1932521307245771 37.7019596765588574 O
atom 12.0341348324460551 5.1929141792293585 37.7019550238389343 O
atom 14.2237881563800759 6.9244979743798787 39.0682806445825150 O
atom 14.2238020379060686 3.4617204032871607 34.1461760336447497 Pb
atom 0.0000014461248549 1.7308502581729952 37.7020849928062276 Pb
atom 14.2238018065102150 3.4620242626008046 36.3358790161646255 O
atom 2.1896641057811830 1.7308086204817750 37.7019587222234023 O
atom 12.0341001304731812 1.7304692589862738 37.7019540196833418 O
atom 14.2237878056588283 3.4619376641628947 39.0682775036220420 O
