#===============================================================================
# Created using the Atomic Simulation Environment (ASE)

# Mon Mar 23 14:01:14 2026

#=======================================================
lattice_vector 12.2111169631888270 0.0000000000000000 0.0000000000000000 
lattice_vector -0.0000712279275758 10.0578176798185712 0.0000000000000000 
lattice_vector 0.0000000000000000 0.0000000000000000 40.3127629263485829 
atom 7.4103762052085838 2.5149752730214794 15.8784999844747148 Pb
atom 6.1346002730027012 4.0630400244308964 15.0006155772002394 O
atom 9.1879252559660145 3.4807626327175472 15.0000000000000000 O
atom 7.4103575291953865 7.5437829030849262 15.8785231985972501 Pb
atom 6.1343109906016906 9.0918361744162777 15.0010476051141062 O
atom 9.1878451899576667 8.5096312326155470 15.0000676577347818 O
atom 1.3048649585614935 2.5149031683682641 15.8785375447500847 Pb
atom 0.0289045855935916 4.0631172100012254 15.0010222550057577 O
atom 3.0820286942056416 3.4807649473477587 15.0004217391708394 O
atom 1.3043545928093798 7.5436814165937891 15.8787490732171079 Pb
atom 0.0288055703055372 9.0918148494949627 15.0009881635082394 O
atom 3.0818156648659176 8.5096300971649121 15.0006763776812377 O
atom 4.3568570264461330 0.0001927241110966 15.8792402777051791 Pb
atom 5.4466103167925048 2.5144341546299880 18.7301842990795464 Pb
atom 5.6326602407797779 1.5485877913356736 16.7566173735214043 O
atom 6.7216013642057586 0.9661089620555838 19.6089476158023643 O
atom 4.1710017864522060 4.0629999872394009 17.8524235151241122 O
atom 7.2240990640494740 3.4807931760249207 17.8523365095802689 O
atom 2.3933643798844986 0.0002201975593613 18.7310874933807412 Pb
atom 3.4833621496390470 2.5150328399157988 21.5822398584896717 Pb
atom 3.6690106389664905 1.5486178547249527 19.6086972255143905 O
atom 8.6851003023998690 0.9662685485557232 16.7570734324579362 O
atom 2.2075862174331617 4.0630975913252154 20.7043554512151928 O
atom 5.2609112003964817 3.4808201996118675 20.7037398740149534 O
atom 4.3571231899258418 5.0291970441124869 15.8787860223802184 Pb
atom 5.4465485364897335 7.5434574643975782 18.7301799723262619 Pb
atom 5.6326319464044845 6.5775430212647992 16.7566121114844009 O
atom 6.7215430881825853 5.9952030320843575 19.6090230523336260 O
atom 4.1706811176077574 9.0918754770010644 17.8528327797612505 O
atom 7.2240734444474848 8.5096593059381984 17.8523217736811333 O
atom 2.3936353960623631 5.0292245775610755 18.7306255551318266 Pb
atom 3.4833434736258497 7.5438404699792461 21.5822630726122000 Pb
atom 3.6690253330172133 6.5775727446736107 19.6086293503178943 O
atom 8.6849758455898396 5.9951404581193488 16.7571030234902132 O
atom 2.2072969350321570 9.0918937413105976 20.7047874791290596 O
atom 5.2608311343881251 8.5096887995098651 20.7038075317497352 O
atom 8.4990336241470459 0.0002130730708108 18.7310769219920168 Pb
atom 9.5889678661807789 2.5149607352625849 21.5822774187650346 Pb
atom 9.7747488657008610 1.5486175900405605 19.6085119076745755 O
atom 2.5794679716098399 0.9661971136314134 16.7572167094618329 O
atom 8.3130074932128828 4.0631747768955453 20.7047621290207111 O
atom 11.3661316018249288 3.4808225142420786 20.7041616131857893 O
atom 10.4626012180716152 0.0001852896404929 15.8791152797421802 Pb
atom 11.5521101907657133 2.5145090392795111 18.7301637855754066 Pb
atom 11.7385647690609680 1.5485896767371756 16.7561932155740791 O
atom 0.6158164054798272 0.9662106460653506 19.6089873852203276 O
atom 10.2763501356918887 4.0628920023011963 17.8527809898684779 O
atom 1.1183744277237944 3.4807911407122605 17.8525009776693651 O
atom 8.4989535049194735 5.0292163329135509 18.7311265986798290 Pb
atom 9.5884575004286710 7.5437389834881099 21.5824889472320649 Pb
atom 9.7745666615884907 6.5775721698905478 19.6087278051474918 O
atom 2.5795401919329679 5.9952243527499665 16.7567851165966708 O
atom 8.3129084779248217 9.0918724163892808 20.7047280375231963 O
atom 11.3659185724851994 8.5096876640592303 20.7044162516961947 O
atom 10.4625368501505136 5.0291813494792059 15.8791383584228001 Pb
atom 11.5520435390834493 7.5435580506128472 18.7306791648598789 Pb
atom 11.7380250603631495 6.5775416564100606 16.7569250235736042 O
atom 0.6161177608365254 5.9951497667868958 19.6087120851976096 O
atom 10.2763944511341450 9.0918674927959344 17.8528441020040560 O
atom 1.1182409084722371 8.5096569405669626 17.8526402759858627 O
atom 0.4298429708765906 0.0002502910054165 21.5829801517201361 Pb
atom 1.5195962612229685 2.5144917215243083 24.4339241730944963 Pb
atom 1.7056461852102360 1.5486453582299939 22.4603572475363613 O
atom 2.7945873086362272 0.9661665289499040 25.3126874898173213 O
atom 0.2439877308826692 4.0630575541337208 23.5561633891390585 O
atom 3.2970850084799292 3.4808507429192410 23.5560763835952187 O
atom 10.6774672875037826 0.0002777644536813 24.4348273673956982 Pb
atom 11.9531135465857794 1.5486754216192729 25.3124370995293475 O
atom 4.7580862468303291 0.9663261154500433 22.4608133064728932 O
atom 0.4301091343562991 5.0292546110068077 21.5825258963951718 Pb
atom 1.5195344809202020 7.5435150312918990 24.4339198463412188 Pb
atom 1.7056178908349451 6.5776005881591200 22.4603519854993543 O
atom 2.7945290326130428 5.9952605989786782 25.3127629263485829 O
atom 0.2436670620382156 9.0919330438953860 23.5565726537762004 O
atom 3.2970593888779431 8.5097168728325183 23.5560616476960902 O
atom 10.6777383036816591 5.0292821444553963 24.4343654291467800 Pb
atom 11.9531282406364934 6.5776303115679307 25.3123692243328406 O
atom 4.7579617900203024 5.9951980250136705 22.4608428975051702 O
atom 4.5720195685775042 0.0002706399651307 24.4348167960069702 Pb
atom 5.8477348101313114 1.5486751569348802 25.3122517816895254 O
atom 10.8635708792291261 0.9662546805257333 22.4609565834767828 O
atom 6.5355871625020816 0.0002428565348128 21.5828551537571336 Pb
atom 7.6250961351961726 2.5145666061738310 24.4339036595903565 Pb
atom 7.8115507134914237 1.5486472436314953 22.4599330895890361 O
atom 8.8999193130991063 0.9662682129596704 25.3127272592352739 O
atom 6.3493360801223444 4.0629495691955171 23.5565208638834278 O
atom 9.4024773353430788 3.4808487076065804 23.5562408516843220 O
atom 4.5719394493499319 5.0292738998078717 24.4348664726947788 Pb
atom 5.8475526060189464 6.5776297367848686 25.3124676791624523 O
atom 10.8636430995522648 5.9952819196442872 22.4605249906116207 O
atom 6.5355227945809711 5.0292389163735267 21.5828782324377535 Pb
atom 7.6250294835139112 7.5436156175071680 24.4344190388748359 Pb
atom 7.8110110047936070 6.5775992233043805 22.4606648975885541 O
atom 8.9002206684558001 5.9952073336812166 25.3124519592125594 O
atom 6.3493803955646095 9.0919250596902561 23.5565839760190130 O
atom 9.4023438160915216 8.5097145074612843 23.5563801500008054 O
