#===============================================================================
# Created using the Atomic Simulation Environment (ASE)

# Mon Mar 23 14:01:13 2026

#=======================================================
lattice_vector 12.2111169631888270 0.0000000000000000 0.0000000000000000 
lattice_vector 3.9269428276419625 11.5624905206256550 0.0000000000000000 
lattice_vector 0.0000000000000000 0.0000000000000000 34.9622703270612334 
atom 9.3735531444344673 6.7158281044554435 15.0000000000000000 Pb
atom 10.6485441918477193 4.9355091760719896 15.0006180759062637 O
atom 8.0979446140941711 8.4958618099996936 15.0003726952621186 O
atom 7.5959534666084503 5.4423344882077762 15.2877500589953144 O
atom 9.5595747740464443 11.2237251341622759 15.2875851375433314 O
atom 7.4103575291953838 0.9348875226552977 15.0004128630309026 Pb
atom 12.6119186732318003 10.7168736653375269 15.0007148269443071 O
atom 6.1343109906016897 2.7143346875546643 15.0007807895243381 O
atom 13.7016916933428305 5.4424256746713100 15.2875887276571341 O
atom 3.2679360552188457 6.7159033629415790 15.0000190964617346 Pb
atom 4.5427592331217888 4.9355780089035575 15.0007028301730934 O
atom 14.2032929633338565 8.4955915369514994 15.0006303799903549 O
atom 1.3043545928093774 0.9346878202767968 15.0005592796003278 Pb
atom 6.5064830195749428 10.7171034644703109 15.0004796770759548 O
atom 12.2399225334943598 2.7143454601917774 15.0007185640708123 O
atom 15.6649678880051120 11.2235695883878943 15.2878566543024270 O
atom 4.3567857985185547 3.1215623566809914 16.2412970681222397 Pb
atom 5.4465390888649310 3.9022414037024746 19.9614895375369024 Pb
atom 5.6325890128521960 4.0356435748555750 17.7683115995032601 O
atom 6.7215301362781874 2.1219224753190207 19.9621076134431696 O
atom 4.1709305585246401 5.6822751092467261 19.9618622327990174 O
atom 7.2240278361219037 5.1758790022945611 19.6745857780412585 O
atom 2.3932931519569158 1.7147790751484133 18.7220214262708105 Pb
atom 7.4103049772810055 5.3094389225470984 17.4811873652341170 Pb
atom 8.6850290744722916 3.5288817760796674 17.4814520732487217 O
atom 6.1345290450751229 7.0890977400648660 17.4812053436209744 O
atom 9.1878540280384424 6.5829009806064347 17.1934342878325701 O
atom 4.3570519619982546 7.4963214037402226 18.7216937979043827 Pb
atom 9.3734913641316986 11.0903817216362715 17.4807974727120730 Pb
atom 10.6484859158245477 9.3100849978726146 17.4815198374048215 O
atom 4.1706811176077530 1.3075923003695691 17.4814570158744651 O
atom 7.2240734444474883 0.8013972097686320 17.1938071223826903 O
atom 6.3205782237043291 8.9031286651145543 16.2409219650377530 Pb
atom 7.4102863012678055 9.6837913425279876 19.9619024005677979 Pb
atom 7.5959681606591714 9.8168599378985846 17.7684585021125123 O
atom 8.6849046176622533 7.9032869645845629 19.9622043644811988 O
atom 6.1342397626741105 11.4632385074273522 19.9622703270612369 O
atom 9.1877739620300858 10.9572845119785978 19.6742180591592124 O
atom 8.4989623962194631 1.7147780926658465 18.7220087161439643 Pb
atom 13.5159106938227431 5.3093576731533227 17.4811844684580144 Pb
atom 2.5793967436822607 3.5287489595303452 17.4815414657119526 O
atom 12.2399503208548524 7.0889642679152525 17.4815971721996242 O
atom 3.0819574662780562 6.5826949514187332 17.1938022841091183 O
atom 10.4625299901440467 3.1216175508230042 16.2411846698624878 Pb
atom 11.5520389628381359 3.9023166621886123 19.9615086339986298 Pb
atom 11.7384935411333871 4.0358544506620211 17.7679435710895781 O
atom 12.8268621407410741 2.1219913081505926 19.9621923677099922 O
atom 10.2762789077643042 5.6820048361985336 19.9621199175272501 O
atom 13.3294201629850484 5.1757961002690358 19.6747278384121991 O
atom 12.4258963325614360 8.9028743302249289 16.2413537362446760 Pb
atom 13.5154003280706156 9.6835916401494853 19.9620488171372195 Pb
atom 13.7015094892304443 9.8168108704622501 17.7685438605950417 O
atom 14.7905859271942219 7.9035167637173451 19.9619692146128536 O
atom 12.2398513055667859 11.4632492800644687 19.9622081016077111 O
atom 15.2928614001271654 10.9569832446768309 19.6747470008151062 O
atom 10.4624656222229344 7.4961339453386051 18.7219925391905768 Pb
atom 15.4789863667254135 11.0902229675744479 17.4812813197128669 Pb
atom 4.5430605884784860 9.3101920635663582 17.4812230636040589 O
atom 10.2763944511341432 1.3075797699940921 17.4814629260694012 O
atom 1.1182409084722278 0.8012380360483513 17.1940830083009040 O
