#===============================================================================
# Created using the Atomic Simulation Environment (ASE)

# Mon Mar 23 14:01:14 2026

#=======================================================
lattice_vector 12.2111169631888270 0.0000000000000000 0.0000000000000000 
lattice_vector -0.0000712279275758 10.0578176798185712 0.0000000000000000 
lattice_vector 0.0000000000000000 0.0000000000000000 31.7567012786524927 
atom 1.5195962612229685 2.5144917215243083 15.8778625253984060 Pb
atom 2.7945873086362272 0.9661665289499040 16.7566258421212311 O
atom 0.2439877308826692 4.0630575541337208 15.0001017414429683 O
atom 3.2970850084799292 3.4808507429192410 15.0000147358991285 O
atom 10.6774672875037826 0.0002777644536813 15.8787657196996079 Pb
atom 11.9531135465857794 1.5486754216192729 16.7563754518332573 O
atom 1.5195344809202020 7.5435150312918990 15.8778581986451286 Pb
atom 2.7945290326130428 5.9952605989786782 16.7567012786524927 O
atom 0.2436670620382156 9.0919330438953860 15.0005110060801101 O
atom 3.2970593888779431 8.5097168728325183 15.0000000000000000 O
atom 10.6777383036816591 5.0292821444553963 15.8783037814506898 Pb
atom 11.9531282406364934 6.5776303115679307 16.7563075766367504 O
atom 4.5720195685775042 0.0002706399651307 15.8787551483108800 Pb
atom 5.8477348101313114 1.5486751569348802 16.7561901339934352 O
atom 7.6250961351961726 2.5145666061738310 15.8778420118942662 Pb
atom 8.8999193130991063 0.9662682129596704 16.7566656115391837 O
atom 6.3493360801223444 4.0629495691955171 15.0004592161873376 O
atom 9.4024773353430788 3.4808487076065804 15.0001792039882318 O
atom 4.5719394493499319 5.0292738998078717 15.8788048249986886 Pb
atom 5.8475526060189464 6.5776297367848686 16.7564060314663621 O
atom 7.6250294835139112 7.5436156175071680 15.8783573911787457 Pb
atom 8.9002206684558001 5.9952073336812166 16.7563903115164692 O
atom 6.3493803955646095 9.0919250596902561 15.0005223283229228 O
atom 9.4023438160915216 8.5097145074612843 15.0003185023047152 O
