#===============================================================================
# Created using the Atomic Simulation Environment (ASE)

# Mon Mar 23 14:01:13 2026

#=======================================================
lattice_vector 10.0577835300710472 0.0000000000000000 0.0000000000000000 
lattice_vector -0.0000010998600674 10.0578176800707233 0.0000000000000000 
lattice_vector 0.0000000000000000 0.0000000000000000 30.0009022475331193 
atom 1.5488052668703745 1.5488053031048825 15.0000441997911480 O
atom 3.4809855611834690 3.4809996287103360 15.0000261998479658 O
atom 0.0004122777497800 5.0294234196302998 15.0003569622089543 Pb
atom 1.5488077619059148 6.5777605331085809 15.0000357146056729 O
atom 3.4809848861888550 8.5098657586789006 15.0000083950086633 O
atom 6.5777415969027597 1.5488063181042426 15.0000433796198536 O
atom 8.5098363211204973 3.4810001836098108 15.0000000000000000 O
atom 6.5777427429509672 6.5777608991186192 15.0003043344418927 O
atom 8.5098340473592149 8.5098653348092785 15.0003103451703694 O
atom 0.0004218747343704 0.0004191016409665 15.0009022475331193 Pb
atom 5.0293978344005765 0.0004106662764780 15.0008038572483429 Pb
atom 5.0293887997140088 5.0294139265595446 15.0008700119260325 Pb
