#===============================================================================
# Created using the Atomic Simulation Environment (ASE)

# Mon Mar 23 14:01:13 2026

#=======================================================
lattice_vector 12.2111169631888270 0.0000000000000000 0.0000000000000000 
lattice_vector 3.9269428276419625 11.5624905206256550 0.0000000000000000 
lattice_vector 0.0000000000000000 0.0000000000000000 32.1943267559716588 
atom 5.4465390888649310 3.9022414037024746 17.1935459664473242 Pb
atom 5.6325890128521960 4.0356435748555750 15.0003680284136820 O
atom 6.7215301362781874 2.1219224753190207 17.1941640423535915 O
atom 4.1709305585246401 5.6822751092467261 17.1939186617094393 O
atom 7.2240278361219037 5.1758790022945611 16.9066422069516804 O
atom 2.3932931519569158 1.7147790751484133 15.9540778551812323 Pb
atom 4.3570519619982546 7.4963214037402226 15.9537502268148046 Pb
atom 7.4102863012678055 9.6837913425279876 17.1939588294782197 Pb
atom 7.5959681606591714 9.8168599378985846 15.0005149310229342 O
atom 8.6849046176622533 7.9032869645845629 17.1942607933916207 O
atom 6.1342397626741105 11.4632385074273522 17.1943267559716588 O
atom 9.1877739620300858 10.9572845119785978 16.9062744880696343 O
atom 8.4989623962194631 1.7147780926658465 15.9540651450543862 Pb
atom 11.5520389628381359 3.9023166621886123 17.1935650629090517 Pb
atom 11.7384935411333871 4.0358544506620211 15.0000000000000000 O
atom 12.8268621407410741 2.1219913081505926 17.1942487966204141 O
atom 10.2762789077643042 5.6820048361985336 17.1941763464376720 O
atom 13.3294201629850484 5.1757961002690358 16.9067842673226210 O
atom 13.5154003280706156 9.6835916401494853 17.1941052460476413 Pb
atom 13.7015094892304443 9.8168108704622501 15.0006002895054635 O
atom 14.7905859271942219 7.9035167637173451 17.1940256435232754 O
atom 12.2398513055667859 11.4632492800644687 17.1942645305181330 O
atom 15.2928614001271654 10.9569832446768309 16.9068034297255281 O
atom 10.4624656222229344 7.4961339453386051 15.9540489681009987 Pb
