#===============================================================================
# Created using the Atomic Simulation Environment (ASE)

# Mon Mar 23 14:01:14 2026

#=======================================================
lattice_vector 12.2111169631888270 0.0000000000000000 0.0000000000000000 
lattice_vector -0.0000712279275758 10.0578176798185712 0.0000000000000000 
lattice_vector 0.0000000000000000 0.0000000000000000 37.4604411526674497 
atom 5.4466103167925048 2.5144341546299880 15.8778625253984131 Pb
atom 6.7216013642057586 0.9661089620555838 16.7566258421212311 O
atom 4.1710017864522060 4.0629999872394009 15.0001017414429789 O
atom 7.2240990640494740 3.4807931760249207 15.0000147358991356 O
atom 2.3933643798844986 0.0002201975593613 15.8787657196996079 Pb
atom 3.4833621496390470 2.5150328399157988 18.7299180848085385 Pb
atom 3.6690106389664905 1.5486178547249527 16.7563754518332573 O
atom 2.2075862174331617 4.0630975913252154 17.8520336775340596 O
atom 5.2609112003964817 3.4808201996118675 17.8514181003338201 O
atom 5.4465485364897335 7.5434574643975782 15.8778581986451286 Pb
atom 6.7215430881825853 5.9952030320843575 16.7567012786524927 O
atom 4.1706811176077574 9.0918754770010644 15.0005110060801172 O
atom 7.2240734444474848 8.5096593059381984 15.0000000000000000 O
atom 2.3936353960623631 5.0292245775610755 15.8783037814506933 Pb
atom 3.4833434736258497 7.5438404699792461 18.7299412989310667 Pb
atom 3.6690253330172133 6.5775727446736107 16.7563075766367611 O
atom 2.2072969350321570 9.0918937413105976 17.8524657054479263 O
atom 5.2608311343881251 8.5096887995098651 17.8514857580686019 O
atom 8.4990336241470459 0.0002130730708108 15.8787551483108835 Pb
atom 9.5889678661807789 2.5149607352625849 18.7299556450839013 Pb
atom 9.7747488657008610 1.5486175900405605 16.7561901339934423 O
atom 8.3130074932128828 4.0631747768955453 17.8524403553395778 O
atom 11.3661316018249288 3.4808225142420786 17.8518398395046560 O
atom 11.5521101907657133 2.5145090392795111 15.8778420118942734 Pb
atom 0.6158164054798272 0.9662106460653506 16.7566656115391943 O
atom 10.2763501356918887 4.0628920023011963 15.0004592161873447 O
atom 1.1183744277237944 3.4807911407122605 15.0001792039882318 O
atom 8.4989535049194735 5.0292163329135509 15.8788048249986957 Pb
atom 9.5884575004286710 7.5437389834881099 18.7301671735509316 Pb
atom 9.7745666615884907 6.5775721698905478 16.7564060314663585 O
atom 8.3129084779248217 9.0918724163892808 17.8524062638420631 O
atom 11.3659185724851994 8.5096876640592303 17.8520944780150614 O
atom 11.5520435390834493 7.5435580506128472 15.8783573911787457 Pb
atom 0.6161177608365254 5.9951497667868958 16.7563903115164763 O
atom 10.2763944511341450 9.0918674927959344 15.0005223283229228 O
atom 1.1182409084722371 8.5096569405669626 15.0003185023047294 O
atom 0.4298429708765906 0.0002502910054165 18.7306583780390028 Pb
atom 1.5195962612229685 2.5144917215243083 21.5816023994133630 Pb
atom 1.7056461852102360 1.5486453582299939 19.6080354738552280 O
atom 2.7945873086362272 0.9661665289499040 22.4603657161361880 O
atom 0.2439877308826692 4.0630575541337208 20.7038416154579252 O
atom 3.2970850084799292 3.4808507429192410 20.7037546099140854 O
atom 10.6774672875037826 0.0002777644536813 21.5825055937145649 Pb
atom 11.9531135465857794 1.5486754216192729 22.4601153258482142 O
atom 4.7580862468303291 0.9663261154500433 19.6084915327917599 O
atom 0.4301091343562991 5.0292546110068077 18.7302041227140386 Pb
atom 1.5195344809202020 7.5435150312918990 21.5815980726600856 Pb
atom 1.7056178908349451 6.5776005881591200 19.6080302118182210 O
atom 2.7945290326130428 5.9952605989786782 22.4604411526674497 O
atom 0.2436670620382156 9.0919330438953860 20.7042508800950671 O
atom 3.2970593888779431 8.5097168728325183 20.7037398740149570 O
atom 10.6777383036816591 5.0292821444553963 21.5820436554656467 Pb
atom 11.9531282406364934 6.5776303115679307 22.4600474506517074 O
atom 4.7579617900203024 5.9951980250136705 19.6085211238240369 O
atom 4.5720195685775042 0.0002706399651307 21.5824950223258369 Pb
atom 5.8477348101313114 1.5486751569348802 22.4599300080083921 O
atom 10.8635708792291261 0.9662546805257333 19.6086348097956495 O
atom 6.5355871625020816 0.0002428565348128 18.7305333800760003 Pb
atom 7.6250961351961726 2.5145666061738310 21.5815818859092232 Pb
atom 7.8115507134914237 1.5486472436314953 19.6076113159079028 O
atom 8.8999193130991063 0.9662682129596704 22.4604054855541406 O
atom 6.3493360801223444 4.0629495691955171 20.7041990902022945 O
atom 9.4024773353430788 3.4808487076065804 20.7039190780031888 O
atom 4.5719394493499319 5.0292738998078717 21.5825446990136456 Pb
atom 5.8475526060189464 6.5776297367848686 22.4601459054813191 O
atom 10.8636430995522648 5.9952819196442872 19.6082032169304874 O
atom 6.5355227945809711 5.0292389163735267 18.7305564587566202 Pb
atom 7.6250294835139112 7.5436156175071680 21.5820972651937026 Pb
atom 7.8110110047936070 6.5775992233043805 19.6083431239074208 O
atom 8.9002206684558001 5.9952073336812166 22.4601301855314262 O
atom 6.3493803955646095 9.0919250596902561 20.7042622023378797 O
atom 9.4023438160915216 8.5097145074612843 20.7040583763196722 O
