#===============================================================================
# Created using the Atomic Simulation Environment (ASE)

# Mon Mar 23 14:01:13 2026

#=======================================================
lattice_vector 10.0577835300710472 0.0000000000000000 0.0000000000000000 
lattice_vector -0.0000010998600674 10.0578176800707233 0.0000000000000000 
lattice_vector 0.0000000000000000 0.0000000000000000 47.3136638863121064 
atom 1.5486342554871846 1.5486345482708694 18.4630277996581356 O
atom 3.4808145498002792 3.4808288738763231 18.4630097997149605 O
atom 0.0002070704044697 0.0002043479975956 15.0014144676809380 Pb
atom 2.5148793955565059 2.5150095460822213 16.7316241330373821 Pb
atom 1.5485931135949818 1.5485931405143494 15.0008370399192827 O
atom 4.0630346930608150 0.9662939635506498 16.7323758643452898 O
atom 0.9662485024620230 4.0630831629543973 16.7320364259251306 O
atom 3.4807700848300582 3.4807844230471483 15.0000000000000000 O
atom 0.0002412663665902 5.0292526647962852 18.4633405620759419 Pb
atom 1.5486367505227252 6.5775897782745680 18.4630193144726675 O
atom 3.4808138748056647 8.5096950038448878 18.4629919948756474 O
atom 0.0001971133857509 5.0292087259528468 15.0008601023578905 Pb
atom 2.5149059606677673 7.5438171761547590 16.7316336483151460 Pb
atom 1.5485955083450995 6.5775480302331291 15.0007526047354673 O
atom 4.0629777484137533 5.9951658738633578 16.7324506196957756 O
atom 0.9662840194161467 9.0918793148662438 16.7325361212123163 O
atom 3.4807712902064019 8.5096530233862175 15.0000809351443536 O
atom 6.5775705855195703 1.5486355632702296 18.4630269794868411 O
atom 8.5096653097373061 3.4808294287757975 18.4629835998669876 O
atom 5.0291819497585752 0.0001982223216517 15.0012330673915493 Pb
atom 7.5433927756576233 2.5145145310999890 16.7316343863164185 Pb
atom 6.5775277506262881 1.5485937425180829 15.0000376897558851 O
atom 9.0917715437027802 0.9662072791427661 16.7325359652526835 O
atom 5.9950594240646460 4.0629063595045229 16.7324508268922116 O
atom 8.5096199778533563 3.4807841510270765 15.0007949801583962 O
atom 6.5775717315677786 6.5775901442846063 18.4632879343088803 O
atom 8.5096630359760237 8.5096945799752657 18.4632939450373605 O
atom 5.0291708049564958 5.0291942824889118 15.0012683821041790 Pb
atom 7.5436589323814429 7.5435635428083669 16.7320764797882333 Pb
atom 6.5775270090336004 6.5775457258869423 15.0009263145947713 O
atom 9.0918924172007110 5.9951463976172983 16.7321181196827524 O
atom 5.9951604991559790 9.0918818495704024 16.7324574812602549 O
atom 8.5096177835655418 8.5096499517010251 15.0009652353260314 O
atom 0.0002508633511806 0.0002483468069535 18.4638858474001140 Pb
atom 2.5146036684105821 2.5144823347504723 20.1940625561001923 Pb
atom 1.5487197611787800 1.5487199256878759 25.3879168191141282 O
atom 4.0630865159128176 0.9661482822555610 20.1948192847458365 O
atom 0.9661807653145910 4.0630570316598620 20.1944817363265514 O
atom 3.4809000554918743 3.4809142512933300 25.3878988191709567 O
atom 0.0002925760960646 0.0002897254146021 21.9263034871369378 Pb
atom 2.5149649012481006 2.5150949234992281 23.6565131524933854 Pb
atom 1.5486786192865767 1.5486785179313560 21.9257260593752790 O
atom 4.0631201987524097 0.9663793409676561 23.6572648838012825 O
atom 0.9663340081536178 4.0631685403714037 23.6569254453811304 O
atom 3.4808555905216538 3.4808698004641552 21.9248890194559962 O
atom 0.0003267720581851 5.0293380422132934 25.3882295815319381 Pb
atom 2.5145791135166635 7.5435056448268174 20.1940738307609990 Pb
atom 1.5487222562143197 6.5776751556915745 25.3879083339286673 O
atom 4.0631100812544689 5.9952423525735323 20.1948942689603470 O
atom 0.9661775222608061 9.0919325235660224 20.1949804814617764 O
atom 3.4808993804972599 8.5097803812618924 25.3878810143316471 O
atom 0.0002826190773457 5.0292941033698524 21.9257491218138902 Pb
atom 2.5149914663593615 7.5439025535717654 23.6565226677711458 Pb
atom 1.5486810140366944 6.5776334076501364 21.9256416241914636 O
atom 4.0630632541053471 5.9952512512803651 23.6573396391517718 O
atom 0.9663695251077415 9.0919646922832502 23.6574251406683160 O
atom 3.4808567958979966 8.5097384008032240 21.9249699546003534 O
atom 5.0292268230173880 0.0002399114424649 18.4637874571153304 Pb
atom 7.5438741184573663 2.5149801298095844 20.1940727928096067 Pb
atom 6.5776560912111650 1.5487209406872362 25.3879159989428373 O
atom 9.0919896365469555 0.9662652178600670 20.1949802642644975 O
atom 5.9953006368904296 4.0632030382177584 20.1948937049215509 O
atom 8.5097508154289017 3.4809148061928039 25.3878726193229838 O
atom 5.0292674554501700 0.0002835997386582 21.9261220868475455 Pb
atom 7.5434782813492181 2.5145999085169959 23.6565234057724183 Pb
atom 6.5776132563178837 1.5486791199350896 21.9249267092118849 O
atom 9.0918570493943758 0.9662926565597725 23.6574249847086833 O
atom 5.9951449297562407 4.0629917369215303 23.6573398463482114 O
atom 8.5097054835449519 3.4808695284440825 21.9256839996143924 O
atom 5.0292177883308185 5.0292431717255299 18.4638536117930201 Pb
atom 7.5436024952011040 7.5437583814936646 20.1945162493182622 Pb
atom 6.5776572372593742 6.5776755217016136 25.3881769537648836 O
atom 9.0918331500446143 5.9952924563239760 20.1945636294063959 O
atom 5.9952285320015415 9.0919006782787513 20.1949015809827515 O
atom 8.5097485416676193 8.5097799573922703 25.3881829644933603 O
atom 5.0292563106480905 5.0292796599059191 21.9261574015601752 Pb
atom 7.5437444380730350 7.5436489202253743 23.6569654992442366 Pb
atom 6.5776125147251960 6.5776311033039496 21.9258153340507711 O
atom 9.0919779228923048 5.9952317750343056 23.6570071391387451 O
atom 5.9952460048475738 9.0919672269874106 23.6573465007162511 O
atom 8.5097032892571374 8.5097353291180315 21.9258542547820312 O
atom 0.0003363690427755 0.0003337242239600 25.3887748668561066 Pb
atom 2.5146891741021777 2.5145677121674792 27.1189515755561885 Pb
atom 1.5488052668703745 1.5488053031048825 32.3128058385701351 O
atom 4.0631720216044123 0.9662336596725675 27.1197083042018328 O
atom 0.9662662710061859 4.0631424090768675 27.1193707557825476 O
atom 3.4809855611834690 3.4809996287103360 32.3127878386269529 O
atom 0.0003780817876595 0.0003751028316086 28.8511925065929340 Pb
atom 2.5150504069396962 2.5151803009162346 30.5814021719493851 Pb
atom 1.5487641249781716 1.5487638953483625 28.8506150788312752 O
atom 4.0632057044440053 0.9664647183846627 30.5821539032572858 O
atom 0.9664195138452126 4.0632539177884102 30.5818144648371302 O
atom 3.4809410962132481 3.4809551778811616 28.8497780389119924 O
atom 0.0004122777497800 5.0294234196302998 32.3131186009879414 Pb
atom 2.5146646192082591 7.5435910222438238 27.1189628502169953 Pb
atom 1.5488077619059148 6.5777605331085809 32.3127973533846600 O
atom 4.0631955869460636 5.9953277299905396 27.1197832884163468 O
atom 0.9662630279524010 9.0920179009830324 27.1198695009177726 O
atom 3.4809848861888550 8.5098657586789006 32.3127700337876504 O
atom 0.0003681247689406 5.0293794807868597 28.8506381412698865 Pb
atom 2.5150769720509567 7.5439879309887727 30.5814116872271384 Pb
atom 1.5487665197282892 6.5777187850671428 28.8505306436474598 O
atom 4.0631487597969418 5.9953366286973706 30.5822286586077681 O
atom 0.9664550307993363 9.0920500697002566 30.5823141601243051 O
atom 3.4809423015895913 8.5098237782202304 28.8498589740563496 O
atom 5.0293123287089827 0.0003252888594715 25.3886764765713266 Pb
atom 7.5439596241489619 2.5150655072265913 27.1189618122656029 Pb
atom 6.5777415969027597 1.5488063181042426 32.3128050183988407 O
atom 9.0920751422385475 0.9663505952770738 27.1198692837204973 O
atom 5.9953861425820243 4.0632884156347648 27.1197827243775471 O
atom 8.5098363211204973 3.4810001836098108 32.3127616387789871 O
atom 5.0293529611417656 0.0003689771556647 28.8510111063035417 Pb
atom 7.5435637870408145 2.5146852859340023 30.5814124252284145 Pb
atom 6.5776987620094776 1.5487644973520960 28.8498157286678811 O
atom 9.0919425550859714 0.9663780339767790 30.5823140041646795 O
atom 5.9952304354478363 4.0630771143385367 30.5822288658042112 O
atom 8.5097909892365475 3.4809549058610889 28.8505730190703922 O
atom 5.0293032940224141 5.0293285491425364 25.3887426312490128 Pb
atom 7.5436880008926996 7.5438437589106710 27.1194052687742548 Pb
atom 6.5777427429509672 6.5777608991186192 32.3130659732208798 O
atom 9.0919186557362099 5.9953778337409833 27.1194526488623957 O
atom 5.9953140376931362 9.0919860556957595 27.1197906004387477 O
atom 8.5098340473592149 8.5098653348092785 32.3130719839493565 O
atom 5.0293418163396861 5.0293650373229246 28.8510464210161750 Pb
atom 7.5438299437646306 7.5437342976423816 30.5818545187002329 Pb
atom 6.5776980204167890 6.5777164807209560 28.8507043535067673 O
atom 9.0920634285839004 5.9953171524513120 30.5818961585947449 O
atom 5.9953315105391694 9.0920526044044170 30.5822355201722544 O
atom 8.5097887949487330 8.5098207065350397 28.8507432742380274 O
atom 0.0004218747343704 0.0004191016409665 32.3136638863121064 Pb
atom 5.0293978344005765 0.0004106662764780 32.3135654960273300 Pb
atom 5.0293887997140088 5.0294139265595446 32.3136316507050196 Pb
