#===============================================================================
# Created using the Atomic Simulation Environment (ASE)

# Mon Mar 23 14:01:13 2026

#=======================================================
lattice_vector 10.0577835300710472 0.0000000000000000 0.0000000000000000 
lattice_vector -0.0000010998600674 10.0578176800707233 0.0000000000000000 
lattice_vector 0.0000000000000000 0.0000000000000000 33.4638858474001140 
atom 1.5488052668703745 1.5488053031048825 18.4630277996581427 O
atom 3.4809855611834690 3.4809996287103360 18.4630097997149605 O
atom 0.0003780817876595 0.0003751028316086 15.0014144676809416 Pb
atom 2.5150504069396962 2.5151803009162346 16.7316241330373927 Pb
atom 1.5487641249781716 1.5487638953483625 15.0008370399192827 O
atom 4.0632057044440053 0.9664647183846627 16.7323758643452933 O
atom 0.9664195138452126 4.0632539177884102 16.7320364259251377 O
atom 3.4809410962132481 3.4809551778811616 15.0000000000000000 O
atom 0.0004122777497800 5.0294234196302998 18.4633405620759490 Pb
atom 1.5488077619059148 6.5777605331085809 18.4630193144726675 O
atom 3.4809848861888550 8.5098657586789006 18.4629919948756580 O
atom 0.0003681247689406 5.0293794807868597 15.0008601023578940 Pb
atom 2.5150769720509567 7.5439879309887727 16.7316336483151460 Pb
atom 1.5487665197282892 6.5777187850671428 15.0007526047354673 O
atom 4.0631487597969418 5.9953366286973706 16.7324506196957756 O
atom 0.9664550307993363 9.0920500697002566 16.7325361212123127 O
atom 3.4809423015895913 8.5098237782202304 15.0000809351443571 O
atom 6.5777415969027597 1.5488063181042426 18.4630269794868482 O
atom 8.5098363211204973 3.4810001836098108 18.4629835998669947 O
atom 5.0293529611417656 0.0003689771556647 15.0012330673915493 Pb
atom 7.5435637870408145 2.5146852859340023 16.7316343863164221 Pb
atom 6.5776987620094776 1.5487644973520960 15.0000376897558887 O
atom 9.0919425550859714 0.9663780339767790 16.7325359652526870 O
atom 5.9952304354478363 4.0630771143385367 16.7324508268922187 O
atom 8.5097909892365475 3.4809549058610889 15.0007949801583997 O
atom 6.5777427429509672 6.5777608991186192 18.4632879343088874 O
atom 8.5098340473592149 8.5098653348092785 18.4632939450373641 O
atom 5.0293418163396861 5.0293650373229246 15.0012683821041826 Pb
atom 7.5438299437646306 7.5437342976423816 16.7320764797882404 Pb
atom 6.5776980204167890 6.5777164807209560 15.0009263145947749 O
atom 9.0920634285839004 5.9953171524513120 16.7321181196827524 O
atom 5.9953315105391694 9.0920526044044170 16.7324574812602620 O
atom 8.5097887949487330 8.5098207065350397 15.0009652353260350 O
atom 0.0004218747343704 0.0004191016409665 18.4638858474001140 Pb
atom 5.0293978344005765 0.0004106662764780 18.4637874571153375 Pb
atom 5.0293887997140088 5.0294139265595446 18.4638536117930272 Pb
