#===============================================================================
# Created using the Atomic Simulation Environment (ASE)

# Mon Mar 23 14:01:14 2026

#=======================================================
lattice_vector 12.2111169631888270 0.0000000000000000 0.0000000000000000 
lattice_vector -0.0000712279275758 10.0578176798185712 0.0000000000000000 
lattice_vector 0.0000000000000000 0.0000000000000000 48.8679209006973565 
atom 1.0895214647427598 2.5143190208413482 15.8778625253984131 Pb
atom 2.3645125121560131 0.9659938282669441 16.7566258421212275 O
atom 12.0250298975912884 4.0628848534507611 15.0001017414429736 O
atom 2.8670102119997281 3.4806780422362813 15.0000147358991320 O
atom 10.2473924910235734 0.0001050637707215 15.8787657196996079 Pb
atom 11.3373902607781218 2.5149177061271599 18.7299180848085314 Pb
atom 11.5230387501055738 1.5485027209363131 16.7563754518332573 O
atom 10.0616143285722437 4.0629824575365765 17.8520336775340596 O
atom 0.9038223483467310 3.4807050658232286 17.8514181003338201 O
atom 1.0894596844399906 7.5433423306089384 15.8778581986451286 Pb
atom 2.3644542361328367 5.9950878982957185 16.7567012786524892 O
atom 12.0247092287468380 9.0917603432124263 15.0005110060801137 O
atom 2.8669845923977411 8.5095441721495586 15.0000000000000000 O
atom 10.2476635072014481 5.0291094437724349 15.8783037814506898 Pb
atom 11.3373715847649255 7.5437253361906071 18.7299412989310667 Pb
atom 11.5230534441562931 6.5774576108849701 16.7563075766367575 O
atom 10.0613250461712322 9.0917786075219595 17.8524657054479263 O
atom 0.9037422823383795 8.5095736657212253 17.8514857580686019 O
atom 4.1419447720972986 0.0000979392821709 15.8787551483108800 Pb
atom 5.2318790141310361 2.5148456014739446 18.7299556450839013 Pb
atom 5.4176600136511119 1.5485024562519203 16.7561901339934387 O
atom 3.9559186411631364 4.0630596431069064 17.8524403553395743 O
atom 7.0090427497751806 3.4807073804534392 17.8518398395046560 O
atom 7.1950213387159661 2.5143939054908713 15.8778420118942734 Pb
atom 8.4698445166189025 0.9660955122767106 16.7566656115391908 O
atom 5.9192612836421423 4.0627768685125565 15.0004592161873429 O
atom 8.9724025388628750 3.4806760069236207 15.0001792039882282 O
atom 4.1418646528697280 5.0291011991249110 15.8788048249986939 Pb
atom 5.2313686483789219 7.5436238496994692 18.7301671735509281 Pb
atom 5.4174778095387435 6.5774570361019071 16.7564060314663585 O
atom 3.9558196258750762 9.0917572826006410 17.8524062638420595 O
atom 7.0088297204354557 8.5095725302705905 17.8520944780150614 O
atom 7.1949546870337056 7.5434429168242065 15.8783573911787439 Pb
atom 8.4701458719756051 5.9950346329982569 16.7563903115164727 O
atom 5.9193055990844003 9.0917523590072946 15.0005223283229228 O
atom 8.9722690196113177 8.5095418067783228 15.0003185023047241 O
atom 8.2838710820156667 0.0001351572167767 18.7306583780390028 Pb
atom 9.3736243723620483 2.5143765877356676 21.5816023994133701 Pb
atom 9.5596742963493160 1.5485302244413537 19.6080354738552245 O
atom 10.6486154197753002 0.9660513951612640 22.4603657161361809 O
atom 8.0980158420217521 4.0629424203450810 20.7038416154579288 O
atom 11.1511131196190156 3.4807356091306008 20.7037546099140854 O
atom 6.3203784354540344 0.0001626306650414 21.5825055937145613 Pb
atom 7.4103762052085838 2.5149752730214794 24.4336579588234883 Pb
atom 7.5960246945360321 1.5485602878306330 22.4601153258482142 O
atom 0.4009973947805836 0.9662109816614033 19.6084915327917564 O
atom 6.1346002730027012 4.0630400244308964 23.5557735515490130 O
atom 9.1879252559660145 3.4807626327175472 23.5551579743487736 O
atom 8.2841372454953817 5.0291394772181670 18.7302041227140421 Pb
atom 9.3735625920592724 7.5433998975032592 21.5815980726600856 Pb
atom 9.5596460019740253 6.5774854543704793 19.6080302118182210 O
atom 10.6485571437521234 5.9951454651900384 22.4604411526674426 O
atom 8.0976951731772946 9.0918179101067462 20.7042508800950706 O
atom 11.1510875000170273 8.5096017390438785 20.7037398740149570 O
atom 6.3206494516319083 5.0291670106667548 21.5820436554656467 Pb
atom 7.4103575291953865 7.5437829030849262 24.4336811729460237 Pb
atom 7.5960393885867523 6.5775151777792908 22.4600474506517109 O
atom 0.4008729379705522 5.9950828912250316 19.6085211238240333 O
atom 6.1343109906016906 9.0918361744162777 23.5562055794628797 O
atom 9.1878451899576667 8.5096312326155470 23.5552256320835554 O
atom 0.2149307165277563 0.0001555061764908 21.5824950223258334 Pb
atom 1.3048649585614935 2.5149031683682641 24.4336955190988583 Pb
atom 1.4906459580815712 1.5485600231462404 22.4599300080083921 O
atom 6.5064820271793771 0.9661395467370933 19.6086348097956531 O
atom 0.0289045855935916 4.0631172100012254 23.5561802293545313 O
atom 3.0820286942056416 3.4807649473477587 23.5555797135196130 O
atom 2.1784983104523308 0.0001277227461729 18.7305333800760039 Pb
atom 3.2680072831464244 2.5144514723851907 21.5815818859092268 Pb
atom 3.4544618614416800 1.5485321098428555 19.6076113159078957 O
atom 4.5428304610493617 0.9661530791710307 22.4604054855541442 O
atom 1.9922472280726014 4.0628344354068764 20.7041990902022981 O
atom 5.0453884832933316 3.4807335738179410 20.7039190780031852 O
atom 0.2148505973001886 5.0291587660192318 21.5825446990136527 Pb
atom 1.3043545928093798 7.5436814165937891 24.4339070475658815 Pb
atom 1.4904637539692061 6.5775146029962270 22.4601459054813120 O
atom 6.5065542475025122 5.9951667858556466 19.6082032169304910 O
atom 0.0288055703055372 9.0918148494949627 23.5561461378570129 O
atom 3.0818156648659176 8.5096300971649121 23.5558343520300113 O
atom 2.1784339425312256 5.0291237825848878 18.7305564587566202 Pb
atom 3.2679406314641652 7.5435004837185264 21.5820972651936955 Pb
atom 3.4539221527438611 6.5774840895157398 19.6083431239074244 O
atom 4.5431318164060626 5.9950921998925750 22.4601301855314262 O
atom 1.9922915435148609 9.0918099259016163 20.7042622023378797 O
atom 5.0452549640417788 8.5095993736726445 20.7040583763196793 O
atom 4.3568570264461330 0.0001927241110966 24.4343982520539527 Pb
atom 5.4466103167925048 2.5144341546299880 27.2853422734283200 Pb
atom 5.6326602407797779 1.5485877913356736 25.3117753478701779 O
atom 6.7216013642057586 0.9661089620555838 28.1641055901511379 O
atom 4.1710017864522060 4.0629999872394009 26.4075814894728857 O
atom 7.2240990640494740 3.4807931760249207 26.4074944839290424 O
atom 2.3933643798844986 0.0002201975593613 27.2862454677295148 Pb
atom 3.4833621496390470 2.5150328399157988 30.1373978328384453 Pb
atom 3.6690106389664905 1.5486178547249527 28.1638551998631641 O
atom 8.6851003023998690 0.9662685485557232 25.3122314068067098 O
atom 2.2075862174331617 4.0630975913252154 29.2595134255639664 O
atom 5.2609112003964817 3.4808201996118675 29.2588978483637270 O
atom 4.3571231899258418 5.0291970441124869 24.4339439967289920 Pb
atom 5.4465485364897335 7.5434574643975782 27.2853379466750354 Pb
atom 5.6326319464044845 6.5775430212647992 25.3117700858331744 O
atom 6.7215430881825853 5.9952030320843575 28.1641810266823995 O
atom 4.1706811176077574 9.0918754770010644 26.4079907541100241 O
atom 7.2240734444474848 8.5096593059381984 26.4074797480299068 O
atom 2.3936353960623631 5.0292245775610755 27.2857835294806002 Pb
atom 3.4833434736258497 7.5438404699792461 30.1374210469609736 Pb
atom 3.6690253330172133 6.5775727446736107 28.1637873246666679 O
atom 8.6849758455898396 5.9951404581193488 25.3122609978389868 O
atom 2.2072969350321570 9.0918937413105976 29.2599454534778332 O
atom 5.2608311343881251 8.5096887995098651 29.2589655060985088 O
atom 8.4990336241470459 0.0002130730708108 27.2862348963407904 Pb
atom 9.5889678661807789 2.5149607352625849 30.1374353931138081 Pb
atom 9.7747488657008610 1.5486175900405605 28.1636698820233491 O
atom 2.5794679716098399 0.9661971136314134 25.3123746838106065 O
atom 8.3130074932128828 4.0631747768955453 29.2599201033694847 O
atom 11.3661316018249288 3.4808225142420786 29.2593195875345629 O
atom 10.4626012180716152 0.0001852896404929 24.4342732540909537 Pb
atom 11.5521101907657133 2.5145090392795111 27.2853217599241802 Pb
atom 11.7385647690609680 1.5485896767371756 25.3113511899228527 O
atom 0.6158164054798272 0.9662106460653506 28.1641453595691011 O
atom 10.2763501356918887 4.0628920023011963 26.4079389642172515 O
atom 1.1183744277237944 3.4807911407122605 26.4076589520181386 O
atom 8.4989535049194735 5.0292163329135509 27.2862845730286026 Pb
atom 9.5884575004286710 7.5437389834881099 30.1376469215808385 Pb
atom 9.7745666615884907 6.5775721698905478 28.1638857794962654 O
atom 2.5795401919329679 5.9952243527499665 25.3119430909454444 O
atom 8.3129084779248217 9.0918724163892808 29.2598860118719699 O
atom 11.3659185724851994 8.5096876640592303 29.2595742260449683 O
atom 10.4625368501505136 5.0291813494792059 24.4342963327715736 Pb
atom 11.5520435390834493 7.5435580506128472 27.2858371392086525 Pb
atom 11.7380250603631495 6.5775416564100606 25.3120829979223778 O
atom 0.6161177608365254 5.9951497667868958 28.1638700595463831 O
atom 10.2763944511341450 9.0918674927959344 26.4080020763528296 O
atom 1.1182409084722371 8.5096569405669626 26.4077982503346362 O
atom 0.4298429708765906 0.0002502910054165 30.1381381260689096 Pb
atom 1.5195962612229685 2.5144917215243083 32.9890821474432698 Pb
atom 1.7056461852102360 1.5486453582299939 31.0155152218851349 O
atom 2.7945873086362272 0.9661665289499040 33.8678454641660949 O
atom 0.2439877308826692 4.0630575541337208 32.1113213634878321 O
atom 3.2970850084799292 3.4808507429192410 32.1112343579439923 O
atom 10.6774672875037826 0.0002777644536813 32.9899853417444717 Pb
atom 11.9531135465857794 1.5486754216192729 33.8675950738781211 O
atom 4.7580862468303291 0.9663261154500433 31.0159712808216668 O
atom 0.4301091343562991 5.0292546110068077 30.1376838707439454 Pb
atom 1.5195344809202020 7.5435150312918990 32.9890778206899924 Pb
atom 1.7056178908349451 6.5776005881591200 31.0155099598481279 O
atom 2.7945290326130428 5.9952605989786782 33.8679209006973565 O
atom 0.2436670620382156 9.0919330438953860 32.1117306281249739 O
atom 3.2970593888779431 8.5097168728325183 32.1112196220448638 O
atom 10.6777383036816591 5.0292821444553963 32.9895234034955536 Pb
atom 11.9531282406364934 6.5776303115679307 33.8675271986816142 O
atom 4.7579617900203024 5.9951980250136705 31.0160008718539437 O
atom 4.5720195685775042 0.0002706399651307 32.9899747703557438 Pb
atom 5.8477348101313114 1.5486751569348802 33.8674097560382990 O
atom 10.8635708792291261 0.9662546805257333 31.0161145578255564 O
atom 6.5355871625020816 0.0002428565348128 30.1380131281059072 Pb
atom 7.6250961351961726 2.5145666061738310 32.9890616339391300 Pb
atom 7.8115507134914237 1.5486472436314953 31.0150910639378097 O
atom 8.8999193130991063 0.9662682129596704 33.8678852335840475 O
atom 6.3493360801223444 4.0629495691955171 32.1116788382322014 O
atom 9.4024773353430788 3.4808487076065804 32.1113988260330956 O
atom 4.5719394493499319 5.0292738998078717 32.9900244470435524 Pb
atom 5.8475526060189464 6.5776297367848686 33.8676256535112259 O
atom 10.8636430995522648 5.9952819196442872 31.0156829649603942 O
atom 6.5355227945809711 5.0292389163735267 30.1380362067865271 Pb
atom 7.6250294835139112 7.5436156175071680 32.9895770132236095 Pb
atom 7.8110110047936070 6.5775992233043805 31.0158228719373277 O
atom 8.9002206684558001 5.9952073336812166 33.8676099335613330 O
atom 6.3493803955646095 9.0919250596902561 32.1117419503677866 O
atom 9.4023438160915216 8.5097145074612843 32.1115381243495790 O
