#===============================================================================
# Created using the Atomic Simulation Environment (ASE)

# Mon Mar 23 14:01:13 2026

#=======================================================
lattice_vector 12.2111169631888270 0.0000000000000000 0.0000000000000000 
lattice_vector 3.9269428276419625 11.5624905206256550 0.0000000000000000 
lattice_vector 0.0000000000000000 0.0000000000000000 39.6361747270548079 
atom 11.5229675221779964 8.2559211889607429 15.0001649214519901 O
atom 9.5596460019740217 2.4748213142895885 15.0000000000000000 O
atom 5.4175887857235345 8.2560123754242767 15.0000035901138062 O
atom 3.4539221527438553 2.4746657685152087 15.0002715167590992 O
atom 8.2837998540880911 5.9351490574339580 15.9537119305789119 Pb
atom 9.3735531444344673 6.7158281044554435 19.6739043999935710 Pb
atom 9.5596030684217386 6.8492302756085417 17.4807264619599287 O
atom 10.6485441918477193 4.9355091760719896 19.6745224758998347 O
atom 8.0979446140941711 8.4958618099996936 19.6742770952556896 O
atom 11.1510418916914453 7.9894657030475242 19.3870006404979307 O
atom 6.3203072075264624 4.5283657759013787 18.4344362887274933 Pb
atom 11.3373190328505498 8.1230256233000659 17.1936022276907927 Pb
atom 7.5959534666084503 5.4423344882077762 19.9616544589888854 O
atom 12.6120431300418296 6.3424684768326349 17.1938669357053939 O
atom 10.0615431006446574 9.9026844408178327 17.1936202060776502 O
atom 13.1148680836079787 9.3964876813594014 16.9058491502892423 O
atom 8.2840660175678025 10.3099081044931893 18.4341086603610584 Pb
atom 9.3735625920592742 2.3414779017635823 17.1932123351687487 Pb
atom 9.5595747740464443 11.2237251341622759 19.9614895375369024 O
atom 10.6485571437521234 0.5611811779999270 17.1939346998614866 O
atom 8.0976951731772999 4.1211790011225355 17.1938718783311373 O
atom 11.1510875000170202 3.6149839105215986 16.9062219848393624 O
atom 6.3206494516319029 0.1542248452418687 15.9533368274944252 Pb
atom 7.4103575291953838 0.9348875226552977 19.6743172630244736 Pb
atom 7.5960393885867505 1.0679561180258972 17.4808733645691881 O
atom 12.6119186732318003 10.7168736653375269 19.6746192269378781 O
atom 6.1343109906016897 2.7143346875546643 19.6746851895179091 O
atom 9.1878451899576650 2.2083806921059095 19.3866329216158810 O
atom 12.4259764517890137 4.5283647934188114 18.4344235786006365 Pb
atom 5.2318077862034578 8.1229443739062894 17.1935993309146937 Pb
atom 13.7016916933428305 5.4424256746713100 19.9614931276507050 O
atom 6.5064107992518014 6.3423356602833110 17.1939563281686247 O
atom 3.9558474132355603 9.9025509686682192 17.1940120346562892 O
atom 7.0089715218475996 9.3962816521717052 16.9062171465657869 O
atom 2.1784270825247556 5.9352042515759731 15.9535995323191599 Pb
atom 3.2679360552188457 6.7159033629415790 19.6739234964553056 Pb
atom 3.4543906335141012 6.8494411514149869 17.4803584335462503 O
atom 4.5427592331217888 4.9355780089035575 19.6746072301666644 O
atom 14.2032929633338565 8.4955915369514994 19.6745347799839259 O
atom 5.0453172553657621 7.9893828010220007 19.3871427008688713 O
atom 0.2148505973001887 0.1539705103522397 15.9537685987013518 Pb
atom 1.3043545928093774 0.9346878202767968 19.6744636795938987 Pb
atom 1.4904637539692021 1.0679070505895591 17.4809587230517138 O
atom 6.5064830195749428 10.7171034644703109 19.6743840770695257 O
atom 12.2399225334943598 2.7143454601917774 19.6746229640643833 O
atom 3.0818156648659110 2.2080794248041440 19.3871618632717855 O
atom 14.3894796777924743 10.3097206460915718 18.4344074016472526 Pb
atom 3.2679406314641590 2.3413191477017565 17.1936961821695427 Pb
atom 15.6649678880051120 11.2235695883878943 19.9617610542959980 O
atom 4.5431318164060643 0.5612882436936683 17.1936379260607275 O
atom 1.9922915435148572 4.1211664707470579 17.1938777885260734 O
atom 5.0452549640417743 3.6148247368013173 16.9064978707575762 O
atom 4.3567857985185547 3.1215623566809914 20.9152014681158107 Pb
atom 5.4465390888649310 3.9022414037024746 24.6353939375304734 Pb
atom 5.6325890128521960 4.0356435748555750 22.4422159994968311 O
atom 6.7215301362781874 2.1219224753190207 24.6360120134367406 O
atom 4.1709305585246401 5.6822751092467261 24.6357666327925884 O
atom 7.2240278361219037 5.1758790022945611 24.3484901780348295 O
atom 2.3932931519569158 1.7147790751484133 23.3959258262643814 Pb
atom 7.4103049772810055 5.3094389225470984 22.1550917652276880 Pb
atom 8.6850290744722916 3.5288817760796674 22.1553564732422927 O
atom 6.1345290450751229 7.0890977400648660 22.1551097436145454 O
atom 9.1878540280384424 6.5829009806064347 21.8673386878261411 O
atom 4.3570519619982546 7.4963214037402226 23.3955981978979537 Pb
atom 9.3734913641316986 11.0903817216362715 22.1547018727056440 Pb
atom 10.6484859158245477 9.3100849978726146 22.1554242373983925 O
atom 4.1706811176077530 1.3075923003695691 22.1553614158680361 O
atom 7.2240734444474883 0.8013972097686320 21.8677115223762613 O
atom 6.3205782237043291 8.9031286651145543 20.9148263650313240 Pb
atom 7.4102863012678055 9.6837913425279876 24.6358068005613688 Pb
atom 7.5959681606591714 9.8168599378985846 22.4423629021060833 O
atom 8.6849046176622533 7.9032869645845629 24.6361087644747698 O
atom 6.1342397626741105 11.4632385074273522 24.6361747270548079 O
atom 9.1877739620300858 10.9572845119785978 24.3481224591527834 O
atom 8.4989623962194631 1.7147780926658465 23.3959131161375353 Pb
atom 13.5159106938227431 5.3093576731533227 22.1550888684515854 Pb
atom 2.5793967436822607 3.5287489595303452 22.1554458657055235 O
atom 12.2399503208548524 7.0889642679152525 22.1555015721931952 O
atom 3.0819574662780562 6.5826949514187332 21.8677066841026893 O
atom 10.4625299901440467 3.1216175508230042 20.9150890698560588 Pb
atom 11.5520389628381359 3.9023166621886123 24.6354130339922008 Pb
atom 11.7384935411333871 4.0358544506620211 22.4418479710831491 O
atom 12.8268621407410741 2.1219913081505926 24.6360967677035632 O
atom 10.2762789077643042 5.6820048361985336 24.6360243175208211 O
atom 13.3294201629850484 5.1757961002690358 24.3486322384057701 O
atom 12.4258963325614360 8.9028743302249289 20.9152581362382470 Pb
atom 13.5154003280706156 9.6835916401494853 24.6359532171307904 Pb
atom 13.7015094892304443 9.8168108704622501 22.4424482605886126 O
atom 14.7905859271942219 7.9035167637173451 24.6358736146064246 O
atom 12.2398513055667859 11.4632492800644687 24.6361125016012821 O
atom 15.2928614001271654 10.9569832446768309 24.3486514008086772 O
atom 10.4624656222229344 7.4961339453386051 23.3958969391841478 Pb
atom 15.4789863667254135 11.0902229675744479 22.1551857197064379 Pb
atom 4.5430605884784860 9.3101920635663582 22.1551274635976299 O
atom 10.2763944511341432 1.3075797699940921 22.1553673260629722 O
atom 1.1182409084722278 0.8012380360483513 21.8679874082944750 O
