#===============================================================================
# Created using the Atomic Simulation Environment (ASE)

# Mon Mar 23 14:01:13 2026

#=======================================================
lattice_vector 10.0577835300710472 0.0000000000000000 0.0000000000000000 
lattice_vector -0.0000010998600674 10.0578176800707233 0.0000000000000000 
lattice_vector 0.0000000000000000 0.0000000000000000 36.9257912669891226 
atom 1.5487197611787800 1.5487199256878759 15.0000441997911445 O
atom 3.4809000554918743 3.4809142512933300 15.0000261998479729 O
atom 0.0003267720581851 5.0293380422132934 15.0003569622089543 Pb
atom 1.5487222562143197 6.5776751556915745 15.0000357146056835 O
atom 3.4808993804972599 8.5097803812618924 15.0000083950086633 O
atom 6.5776560912111650 1.5487209406872362 15.0000433796198536 O
atom 8.5097508154289017 3.4809148061928039 15.0000000000000000 O
atom 6.5776572372593742 6.5776755217016136 15.0003043344418998 O
atom 8.5097485416676193 8.5097799573922703 15.0003103451703765 O
atom 0.0003363690427755 0.0003337242239600 15.0009022475331228 Pb
atom 2.5146891741021777 2.5145677121674792 16.7310789562332047 Pb
atom 1.5488052668703745 1.5488053031048825 21.9249332192471513 O
atom 4.0631720216044123 0.9662336596725675 16.7318356848788490 O
atom 0.9662662710061859 4.0631424090768675 16.7314981364595639 O
atom 3.4809855611834690 3.4809996287103360 21.9249152193039691 O
atom 0.0003780817876595 0.0003751028316086 18.4633198872699502 Pb
atom 2.5150504069396962 2.5151803009162346 20.1935295526264014 Pb
atom 1.5487641249781716 1.5487638953483625 18.4627424595082914 O
atom 4.0632057044440053 0.9664647183846627 20.1942812839343020 O
atom 0.9664195138452126 4.0632539177884102 20.1939418455141464 O
atom 3.4809410962132481 3.4809551778811616 18.4619054195890087 O
atom 0.0004122777497800 5.0294234196302998 21.9252459816649576 Pb
atom 2.5146646192082591 7.5435910222438238 16.7310902308940115 Pb
atom 1.5488077619059148 6.5777605331085809 21.9249247340616762 O
atom 4.0631955869460636 5.9953277299905396 16.7319106690933630 O
atom 0.9662630279524010 9.0920179009830324 16.7319968815947888 O
atom 3.4809848861888550 8.5098657586789006 21.9248974144646667 O
atom 0.0003681247689406 5.0293794807868597 18.4627655219469027 Pb
atom 2.5150769720509567 7.5439879309887727 20.1935390679041546 Pb
atom 1.5487665197282892 6.5777187850671428 18.4626580243244760 O
atom 4.0631487597969418 5.9953366286973706 20.1943560392847843 O
atom 0.9664550307993363 9.0920500697002566 20.1944415408013214 O
atom 3.4809423015895913 8.5098237782202304 18.4619863547333658 O
atom 5.0293123287089827 0.0003252888594715 15.0008038572483429 Pb
atom 7.5439596241489619 2.5150655072265913 16.7310891929426191 Pb
atom 6.5777415969027597 1.5488063181042426 21.9249323990758569 O
atom 9.0920751422385475 0.9663505952770738 16.7319966643975135 O
atom 5.9953861425820243 4.0632884156347648 16.7319101050545633 O
atom 8.5098363211204973 3.4810001836098108 21.9248890194560033 O
atom 5.0293529611417656 0.0003689771556647 18.4631384869805579 Pb
atom 7.5435637870408145 2.5146852859340023 20.1935398059054307 Pb
atom 6.5776987620094776 1.5487644973520960 18.4619431093448974 O
atom 9.0919425550859714 0.9663780339767790 20.1944413848416957 O
atom 5.9952304354478363 4.0630771143385367 20.1943562464812274 O
atom 8.5097909892365475 3.4809549058610889 18.4627003997474084 O
atom 5.0293032940224141 5.0293285491425364 15.0008700119260290 Pb
atom 7.5436880008926996 7.5438437589106710 16.7315326494512711 Pb
atom 6.5777427429509672 6.5777608991186192 21.9251933538978960 O
atom 9.0919186557362099 5.9953778337409833 16.7315800295394119 O
atom 5.9953140376931362 9.0919860556957595 16.7319179811157639 O
atom 8.5098340473592149 8.5098653348092785 21.9251993646263728 O
atom 5.0293418163396861 5.0293650373229246 18.4631738016931912 Pb
atom 7.5438299437646306 7.5437342976423816 20.1939818993772491 Pb
atom 6.5776980204167890 6.5777164807209560 18.4628317341837835 O
atom 9.0920634285839004 5.9953171524513120 20.1940235392717611 O
atom 5.9953315105391694 9.0920526044044170 20.1943629008492707 O
atom 8.5097887949487330 8.5098207065350397 18.4628706549150436 O
atom 0.0004218747343704 0.0004191016409665 21.9257912669891226 Pb
atom 5.0293978344005765 0.0004106662764780 21.9256928767043462 Pb
atom 5.0293887997140088 5.0294139265595446 21.9257590313820359 Pb
