#===============================================================================
# Created using the Atomic Simulation Environment (ASE)

# Mon Mar 23 14:01:13 2026

#=======================================================
lattice_vector 12.2111169631888270 0.0000000000000000 0.0000000000000000 
lattice_vector 3.9269428276419625 11.5624905206256550 0.0000000000000000 
lattice_vector 0.0000000000000000 0.0000000000000000 34.6746851895179020 
atom 7.5959534666084503 5.4423344882077762 15.0001649214519830 O
atom 9.5595747740464443 11.2237251341622759 15.0000000000000000 O
atom 13.7016916933428305 5.4424256746713100 15.0000035901138027 O
atom 15.6649678880051120 11.2235695883878943 15.0002715167590956 O
atom 4.3567857985185547 3.1215623566809914 15.9537119305789084 Pb
atom 5.4465390888649310 3.9022414037024746 19.6739043999935710 Pb
atom 5.6325890128521960 4.0356435748555750 17.4807264619599287 O
atom 6.7215301362781874 2.1219224753190207 19.6745224758998383 O
atom 4.1709305585246401 5.6822751092467261 19.6742770952556860 O
atom 7.2240278361219037 5.1758790022945611 19.3870006404979272 O
atom 2.3932931519569158 1.7147790751484133 18.4344362887274791 Pb
atom 7.4103049772810055 5.3094389225470984 17.1936022276907856 Pb
atom 8.6850290744722916 3.5288817760796674 17.1938669357053904 O
atom 6.1345290450751229 7.0890977400648660 17.1936202060776431 O
atom 9.1878540280384424 6.5829009806064347 16.9058491502892387 O
atom 4.3570519619982546 7.4963214037402226 18.4341086603610513 Pb
atom 9.3734913641316986 11.0903817216362715 17.1932123351687416 Pb
atom 10.6484859158245477 9.3100849978726146 17.1939346998614901 O
atom 4.1706811176077530 1.3075923003695691 17.1938718783311337 O
atom 7.2240734444474883 0.8013972097686320 16.9062219848393589 O
atom 6.3205782237043291 8.9031286651145543 15.9533368274944216 Pb
atom 7.4102863012678055 9.6837913425279876 19.6743172630244665 Pb
atom 7.5959681606591714 9.8168599378985846 17.4808733645691809 O
atom 8.6849046176622533 7.9032869645845629 19.6746192269378675 O
atom 6.1342397626741105 11.4632385074273522 19.6746851895179056 O
atom 9.1877739620300858 10.9572845119785978 19.3866329216158810 O
atom 8.4989623962194631 1.7147780926658465 18.4344235786006330 Pb
atom 13.5159106938227431 5.3093576731533227 17.1935993309146831 Pb
atom 2.5793967436822607 3.5287489595303452 17.1939563281686212 O
atom 12.2399503208548524 7.0889642679152525 17.1940120346562928 O
atom 3.0819574662780562 6.5826949514187332 16.9062171465657869 O
atom 10.4625299901440467 3.1216175508230042 15.9535995323191564 Pb
atom 11.5520389628381359 3.9023166621886123 19.6739234964552985 Pb
atom 11.7384935411333871 4.0358544506620211 17.4803584335462467 O
atom 12.8268621407410741 2.1219913081505926 19.6746072301666608 O
atom 10.2762789077643042 5.6820048361985336 19.6745347799839188 O
atom 13.3294201629850484 5.1757961002690358 19.3871427008688677 O
atom 12.4258963325614360 8.9028743302249289 15.9537685987013447 Pb
atom 13.5154003280706156 9.6835916401494853 19.6744636795938881 Pb
atom 13.7015094892304443 9.8168108704622501 17.4809587230517103 O
atom 14.7905859271942219 7.9035167637173451 19.6743840770695222 O
atom 12.2398513055667859 11.4632492800644687 19.6746229640643797 O
atom 15.2928614001271654 10.9569832446768309 19.3871618632717748 O
atom 10.4624656222229344 7.4961339453386051 18.4344074016472455 Pb
atom 15.4789863667254135 11.0902229675744479 17.1936961821695355 Pb
atom 4.5430605884784860 9.3101920635663582 17.1936379260607275 O
atom 10.2763944511341432 1.3075797699940921 17.1938777885260698 O
atom 1.1182409084722278 0.8012380360483513 16.9064978707575726 O
