#===============================================================================
# Created using the Atomic Simulation Environment (ASE)

# Mon Mar 23 14:01:14 2026

#=======================================================
lattice_vector 12.2111169631888270 0.0000000000000000 0.0000000000000000 
lattice_vector -0.0000712279275758 10.0578176798185712 0.0000000000000000 
lattice_vector 0.0000000000000000 0.0000000000000000 34.6090230523336260 
atom 3.4833621496390470 2.5150328399157988 15.8784999844747183 Pb
atom 2.2075862174331617 4.0630975913252154 15.0006155772002394 O
atom 5.2609112003964817 3.4808201996118675 15.0000000000000000 O
atom 3.4833434736258497 7.5438404699792461 15.8785231985972466 Pb
atom 2.2072969350321570 9.0918937413105976 15.0010476051141062 O
atom 5.2608311343881251 8.5096887995098651 15.0000676577347818 O
atom 9.5889678661807789 2.5149607352625849 15.8785375447500812 Pb
atom 8.3130074932128828 4.0631747768955453 15.0010222550057577 O
atom 11.3661316018249288 3.4808225142420786 15.0004217391708359 O
atom 9.5884575004286710 7.5437389834881099 15.8787490732171115 Pb
atom 8.3129084779248217 9.0918724163892808 15.0009881635082429 O
atom 11.3659185724851994 8.5096876640592303 15.0006763776812413 O
atom 0.4298429708765906 0.0002502910054165 15.8792402777051826 Pb
atom 1.5195962612229685 2.5144917215243083 18.7301842990795429 Pb
atom 1.7056461852102360 1.5486453582299939 16.7566173735214079 O
atom 2.7945873086362272 0.9661665289499040 19.6089476158023679 O
atom 0.2439877308826692 4.0630575541337208 17.8524235151241051 O
atom 3.2970850084799292 3.4808507429192410 17.8523365095802653 O
atom 10.6774672875037826 0.0002777644536813 18.7310874933807447 Pb
atom 11.9531135465857794 1.5486754216192729 19.6086972255143941 O
atom 4.7580862468303291 0.9663261154500433 16.7570734324579398 O
atom 0.4301091343562991 5.0292546110068077 15.8787860223802184 Pb
atom 1.5195344809202020 7.5435150312918990 18.7301799723262654 Pb
atom 1.7056178908349451 6.5776005881591200 16.7566121114844009 O
atom 2.7945290326130428 5.9952605989786782 19.6090230523336295 O
atom 0.2436670620382156 9.0919330438953860 17.8528327797612469 O
atom 3.2970593888779431 8.5097168728325183 17.8523217736811368 O
atom 10.6777383036816591 5.0292821444553963 18.7306255551318266 Pb
atom 11.9531282406364934 6.5776303115679307 19.6086293503178872 O
atom 4.7579617900203024 5.9951980250136705 16.7571030234902167 O
atom 4.5720195685775042 0.0002706399651307 18.7310769219920168 Pb
atom 5.8477348101313114 1.5486751569348802 19.6085119076745720 O
atom 10.8635708792291261 0.9662546805257333 16.7572167094618294 O
atom 6.5355871625020816 0.0002428565348128 15.8791152797421802 Pb
atom 7.6250961351961726 2.5145666061738310 18.7301637855754031 Pb
atom 7.8115507134914237 1.5486472436314953 16.7561932155740827 O
atom 8.8999193130991063 0.9662682129596704 19.6089873852203205 O
atom 6.3493360801223444 4.0629495691955171 17.8527809898684744 O
atom 9.4024773353430788 3.4808487076065804 17.8525009776693686 O
atom 4.5719394493499319 5.0292738998078717 18.7311265986798254 Pb
atom 5.8475526060189464 6.5776297367848686 19.6087278051474989 O
atom 10.8636430995522648 5.9952819196442872 16.7567851165966673 O
atom 6.5355227945809711 5.0292389163735267 15.8791383584228001 Pb
atom 7.6250294835139112 7.5436156175071680 18.7306791648598825 Pb
atom 7.8110110047936070 6.5775992233043805 16.7569250235736007 O
atom 8.9002206684558001 5.9952073336812166 19.6087120851976060 O
atom 6.3493803955646095 9.0919250596902561 17.8528441020040596 O
atom 9.4023438160915216 8.5097145074612843 17.8526402759858520 O
