#===============================================================================
# Created using the Atomic Simulation Environment (ASE)

# Mon Mar 23 14:01:13 2026

#=======================================================
lattice_vector 10.0577835300710472 0.0000000000000000 0.0000000000000000 
lattice_vector -0.0000010998600674 10.0578176800707233 0.0000000000000000 
lattice_vector 0.0000000000000000 0.0000000000000000 40.3887748668561102 
atom 1.5487197611787800 1.5487199256878759 18.4630277996581320 O
atom 3.4809000554918743 3.4809142512933300 18.4630097997149605 O
atom 0.0002925760960646 0.0002897254146021 15.0014144676809416 Pb
atom 2.5149649012481006 2.5150949234992281 16.7316241330373892 Pb
atom 1.5486786192865767 1.5486785179313560 15.0008370399192827 O
atom 4.0631201987524097 0.9663793409676561 16.7323758643452862 O
atom 0.9663340081536178 4.0631685403714037 16.7320364259251342 O
atom 3.4808555905216538 3.4808698004641552 15.0000000000000000 O
atom 0.0003267720581851 5.0293380422132934 18.4633405620759419 Pb
atom 1.5487222562143197 6.5776751556915745 18.4630193144726711 O
atom 3.4808993804972599 8.5097803812618924 18.4629919948756509 O
atom 0.0002826190773457 5.0292941033698524 15.0008601023578940 Pb
atom 2.5149914663593615 7.5439025535717654 16.7316336483151495 Pb
atom 1.5486810140366944 6.5776334076501364 15.0007526047354673 O
atom 4.0630632541053471 5.9952512512803651 16.7324506196957756 O
atom 0.9663695251077415 9.0919646922832502 16.7325361212123198 O
atom 3.4808567958979966 8.5097384008032240 15.0000809351443571 O
atom 6.5776560912111650 1.5487209406872362 18.4630269794868411 O
atom 8.5097508154289017 3.4809148061928039 18.4629835998669876 O
atom 5.0292674554501700 0.0002835997386582 15.0012330673915493 Pb
atom 7.5434782813492181 2.5145999085169959 16.7316343863164221 Pb
atom 6.5776132563178837 1.5486791199350896 15.0000376897558887 O
atom 9.0918570493943758 0.9662926565597725 16.7325359652526870 O
atom 5.9951449297562407 4.0629917369215303 16.7324508268922152 O
atom 8.5097054835449519 3.4808695284440825 15.0007949801583962 O
atom 6.5776572372593742 6.5776755217016136 18.4632879343088874 O
atom 8.5097485416676193 8.5097799573922703 18.4632939450373641 O
atom 5.0292563106480905 5.0292796599059191 15.0012683821041790 Pb
atom 7.5437444380730350 7.5436489202253743 16.7320764797882404 Pb
atom 6.5776125147251960 6.5776311033039496 15.0009263145947749 O
atom 9.0919779228923048 5.9952317750343056 16.7321181196827489 O
atom 5.9952460048475738 9.0919672269874106 16.7324574812602549 O
atom 8.5097032892571374 8.5097353291180315 15.0009652353260350 O
atom 0.0003363690427755 0.0003337242239600 18.4638858474001104 Pb
atom 2.5146891741021777 2.5145677121674792 20.1940625561001923 Pb
atom 1.5488052668703745 1.5488053031048825 25.3879168191141389 O
atom 4.0631720216044123 0.9662336596725675 20.1948192847458365 O
atom 0.9662662710061859 4.0631424090768675 20.1944817363265514 O
atom 3.4809855611834690 3.4809996287103360 25.3878988191709567 O
atom 0.0003780817876595 0.0003751028316086 21.9263034871369378 Pb
atom 2.5150504069396962 2.5151803009162346 23.6565131524933889 Pb
atom 1.5487641249781716 1.5487638953483625 21.9257260593752790 O
atom 4.0632057044440053 0.9664647183846627 23.6572648838012896 O
atom 0.9664195138452126 4.0632539177884102 23.6569254453811340 O
atom 3.4809410962132481 3.4809551778811616 21.9248890194559962 O
atom 0.0004122777497800 5.0294234196302998 25.3882295815319452 Pb
atom 2.5146646192082591 7.5435910222438238 20.1940738307609990 Pb
atom 1.5488077619059148 6.5777605331085809 25.3879083339286638 O
atom 4.0631955869460636 5.9953277299905396 20.1948942689603506 O
atom 0.9662630279524010 9.0920179009830324 20.1949804814617764 O
atom 3.4809848861888550 8.5098657586789006 25.3878810143316542 O
atom 0.0003681247689406 5.0293794807868597 21.9257491218138902 Pb
atom 2.5150769720509567 7.5439879309887727 23.6565226677711422 Pb
atom 1.5487665197282892 6.5777187850671428 21.9256416241914636 O
atom 4.0631487597969418 5.9953366286973706 23.6573396391517718 O
atom 0.9664550307993363 9.0920500697002566 23.6574251406683089 O
atom 3.4809423015895913 8.5098237782202304 21.9249699546003534 O
atom 5.0293123287089827 0.0003252888594715 18.4637874571153304 Pb
atom 7.5439596241489619 2.5150655072265913 20.1940727928096067 Pb
atom 6.5777415969027597 1.5488063181042426 25.3879159989428445 O
atom 9.0920751422385475 0.9663505952770738 20.1949802642645011 O
atom 5.9953861425820243 4.0632884156347648 20.1948937049215509 O
atom 8.5098363211204973 3.4810001836098108 25.3878726193229909 O
atom 5.0293529611417656 0.0003689771556647 21.9261220868475455 Pb
atom 7.5435637870408145 2.5146852859340023 23.6565234057724183 Pb
atom 6.5776987620094776 1.5487644973520960 21.9249267092118849 O
atom 9.0919425550859714 0.9663780339767790 23.6574249847086833 O
atom 5.9952304354478363 4.0630771143385367 23.6573398463482150 O
atom 8.5097909892365475 3.4809549058610889 21.9256839996143960 O
atom 5.0293032940224141 5.0293285491425364 18.4638536117930165 Pb
atom 7.5436880008926996 7.5438437589106710 20.1945162493182586 Pb
atom 6.5777427429509672 6.5777608991186192 25.3881769537648836 O
atom 9.0919186557362099 5.9953778337409833 20.1945636294063995 O
atom 5.9953140376931362 9.0919860556957595 20.1949015809827515 O
atom 8.5098340473592149 8.5098653348092785 25.3881829644933603 O
atom 5.0293418163396861 5.0293650373229246 21.9261574015601788 Pb
atom 7.5438299437646306 7.5437342976423816 23.6569654992442366 Pb
atom 6.5776980204167890 6.5777164807209560 21.9258153340507711 O
atom 9.0920634285839004 5.9953171524513120 23.6570071391387486 O
atom 5.9953315105391694 9.0920526044044170 23.6573465007162582 O
atom 8.5097887949487330 8.5098207065350397 21.9258542547820312 O
atom 0.0004218747343704 0.0004191016409665 25.3887748668561102 Pb
atom 5.0293978344005765 0.0004106662764780 25.3886764765713338 Pb
atom 5.0293887997140088 5.0294139265595446 25.3887426312490234 Pb
