#===============================================================================
# Created using the Atomic Simulation Environment (ASE)

# Mon Mar 23 14:01:14 2026

#=======================================================
lattice_vector 10.0578176800707837 0.0000000000000000 0.0000000000000000 
lattice_vector 0.0000853774076561 6.9248890199838939 0.0000000000000000 
lattice_vector 0.0000000000000000 0.0000000000000000 44.5044494474223384 
atom 0.9659748834138352 1.7317567526501150 15.0000654656431607 O
atom 0.9662059421222470 5.1942023518575215 15.0000563956441013 O
atom 5.9950689537291986 1.7318317371623879 15.0000895800092167 O
atom 5.9950778524411534 5.1942771065116631 15.0000000000000000 O
atom 0.0000664069496803 0.0007368546561250 15.9662270411222877 Pb
atom 2.5148063503306766 1.7310532400595120 18.4808532465102857 Pb
atom 1.5485472668678972 6.9248845153299889 17.5145709822193609 O
atom 0.9660912690889331 1.7319798270102866 20.0289685839189815 O
atom 4.0630294280811565 1.7318550310206982 16.9322799242290998 O
atom 3.4807409210916522 6.9248649924291765 19.4466659181180788 O
atom 0.0001100952414303 3.4630714846261159 15.9662249220661323 Pb
atom 2.5144261290813739 5.1935038478707423 18.4804146564347676 Pb
atom 1.5485054461204348 3.4618952253341151 17.5145709068986974 O
atom 0.9661187078031371 5.1944245455533915 20.0287932439163541 O
atom 4.0628181268019548 5.1943011702608057 16.9320814642012039 O
atom 3.4806956433478891 3.4626763724247751 19.4466633359200145 O
atom 5.0290696672337045 0.0008030092290431 15.9662185555592231 Pb
atom 7.5435846020444322 1.7314966932210289 18.4805821676941804 Pb
atom 6.5774164704744624 0.0002564501890569 17.5145726749804425 O
atom 5.9951185075699245 1.7315631902267756 20.0288126525040724 O
atom 9.0917270681500053 1.7318629061983666 16.9322083691499046 O
atom 8.5095206948836815 0.0002863175943488 19.4466641904500364 O
atom 5.0291061554098802 3.4631067992079223 15.9662143267675702 Pb
atom 7.5434751407606182 5.1939459446357121 18.4806813576451390 Pb
atom 6.5774574294893462 3.4627838501705690 17.5145707042683796 O
atom 5.9950578262644214 5.1940067014827767 20.0289146725069998 O
atom 9.0917936168567515 5.1943078258836692 16.9321830891476921 O
atom 8.5095614440220473 3.4628466275720942 19.4466616894552899 O
atom 0.0000742923952093 0.0008973386026081 20.9950346099297747 Pb
atom 2.5143080053848084 1.7311050933755605 23.5093663262231516 Pb
atom 1.5484603245375881 0.0000584096684271 22.5434181818644035 O
atom 0.9659737835575022 1.7318809420527279 25.0578489949474204 O
atom 4.0628828716200394 1.7315051543104687 21.9609435874117906 O
atom 3.4806544388518721 0.0000642675008770 24.4755986875451370 O
atom 0.0001156709982966 3.4633149785905388 20.9950335701605013 Pb
atom 2.5149205940940624 5.1935556939651590 23.5096848062020172 Pb
atom 1.5485042941932230 3.4627566696693894 22.5434197896849327 O
atom 0.9662048422659141 5.1943265412601347 25.0578399249483681 O
atom 4.0629943803148230 5.1939488649932839 21.9610540774224177 O
atom 3.4806953654352153 3.4619434874847630 24.4755969824004893 O
atom 5.0290786103855627 0.0003520531667683 20.9950255696186332 Pb
atom 7.5433313154638100 1.7311163677399612 23.5093423211325714 Pb
atom 6.5774155545409849 0.0000499245205584 22.5434212269398131 O
atom 5.9950678538728663 1.7319559265650009 25.0578731093134834 O
atom 9.0917583635265249 1.7320038994124045 21.9609408881260890 O
atom 8.5095205688204807 0.0000464626600214 24.4755985626957226 O
atom 5.0291200489546064 3.4627606131513793 20.9950241699273406 Pb
atom 7.5437282241636670 5.1935652095777263 23.5097119211147429 Pb
atom 6.5774591839117136 3.4626722345219401 22.5434227354126904 O
atom 5.9950767525848212 5.1944012959142762 25.0577835293042597 O
atom 9.0917905322227561 5.1944485607257702 21.9610901381242201 O
atom 8.5095639657741238 3.4620244226507859 24.4755987367031125 O
atom 0.0000653070933473 0.0008610440587380 26.0240105704265545 Pb
atom 2.5148052504743426 1.7311774294621252 28.5386367758145525 Pb
atom 1.5484607896039080 0.0001196847487086 27.5723545115236348 O
atom 4.0630283282248234 1.7319792204233113 26.9900634535333666 O
atom 3.4806544438276630 0.0001001618478961 29.5044494474223384 O
atom 0.0001089953850973 3.4631956740287291 26.0240084513703920 Pb
atom 2.5144250292250407 5.1936280372733554 28.5381981857390414 Pb
atom 1.5485043462641019 3.4620194147367278 27.5723544362029713 O
atom 4.0628170269456225 5.1944253596634189 26.9898649935054777 O
atom 3.4806945434915555 3.4628005618273878 29.5044468652242813 O
atom 5.0290685673773723 0.0009271986316561 26.0240020848634970 Pb
atom 7.5435835021880999 1.7316208826236423 28.5383656969984472 Pb
atom 6.5774153706181320 0.0003806395916710 27.5723562042847092 O
atom 9.0917259682936731 1.7319870956009795 26.9899918984541713 O
atom 8.5095195950273510 0.0004105069969613 29.5044477197543102 O
atom 5.0291050555535470 3.4632309886105350 26.0239978560718441 Pb
atom 7.5434740409042869 5.1940701340383253 28.5384648869494058 Pb
atom 6.5774563296330140 3.4629080395731822 27.5723542335726535 O
atom 9.0917925170004192 5.1944320152862824 26.9899666184519518 O
atom 8.5095603441657151 3.4629708169747073 29.5044452187595496 O
