#===============================================================================
# Created using the Atomic Simulation Environment (ASE)

# Mon Mar 23 14:01:18 2026

#=======================================================
lattice_vector 12.9570191147451741 0.0000000000000000 0.0000000000000000 
lattice_vector 0.0000000000000000 6.4256598000000000 0.0000000000000000 
lattice_vector 0.0000000000000000 0.0000000000000000 38.9637156065244881 
atom 3.2392155894841443 6.4256574100000012 15.0000084074939934 O
atom 3.2391972117791412 3.2128313900000003 15.0000053457201830 O
atom 9.7177809742821282 4.8192422100000014 16.2426031447820520 Pd
atom 11.7144177730861276 4.8192473800000011 16.2425869250956865 O
atom 7.7211108071129955 4.8192461100000008 16.2425701993312970 O
atom 9.7177969252667449 6.4256584800000009 15.0000000000000000 O
atom 11.7144161255273271 1.6064149500000011 16.2425869463087622 O
atom 7.7211086221530616 1.6064131200000005 16.2425699094173410 O
atom 9.7178135634890328 3.2128304100000005 15.0000035143220103 O
atom 6.4785039429454407 6.4256591900000002 16.2426030104300132 Pd
atom 6.4785040277982464 3.2128300699999999 16.2426031518513767 Pd
atom 0.0000135269537312 4.8192422200000014 19.4818538222487661 Pd
atom 0.0000017606964189 0.0000025199999997 16.2426051246798693 Pd
atom 1.9966437143094091 4.8192479500000012 19.4818365489727796 O
atom 10.9603690081961336 4.8192457800000010 19.4818246668908728 O
atom 0.0000340246344983 6.4256586599999999 18.2392564828137509 O
atom 0.0000311352571634 6.4256573700000015 20.7244542941698242 O
atom 0.0000111510748273 1.6064164200000008 19.4818553637413672 Pd
atom 0.0000016617014703 3.2128302800000013 16.2426051246798622 Pd
atom 1.9966421869587534 1.6064143800000010 19.4818366479676115 O
atom 10.9603670565814539 1.6064132700000004 19.4818242002002435 O
atom 0.0000513699635999 3.2128303400000013 18.2392595445874761 O
atom 0.0000505241248800 3.2128312600000015 20.7244570801720585 O
atom 3.2392336149808316 4.8192423700000004 16.2426055630842754 Pd
atom 9.7177628652772157 6.4256591100000016 19.4818610418078180 Pd
atom 5.2358988748289690 4.8192460900000009 16.2426377307171848 O
atom 1.2426024235334270 4.8192472800000008 16.2426240667259769 O
atom 9.7177241286232778 6.4256574100000012 21.4785139484999732 O
atom 3.2392166457630953 6.4256586000000020 17.4852004488590360 O
atom 3.2392364080527232 1.6064164500000009 16.2426041983684044 Pd
atom 9.7177627238558717 3.2128299000000000 19.4818609286707272 Pd
atom 5.2359011446417307 1.6064131700000002 16.2426377377884315 O
atom 1.2426041347318364 1.6064150500000005 16.2426241232946538 O
atom 9.7177057509182756 3.2128313900000003 21.4785108867261698 O
atom 3.2392000853225551 3.2128305700000008 17.4851969274659673 O
atom 3.2392703986760911 4.8192422100000014 22.7211086857880389 Pd
atom 3.2392510451636594 0.0000024899999997 19.4818517645666844 Pd
atom 5.2359071974800893 4.8192473800000011 22.7210924661016804 O
atom 1.2426002315069551 4.8192461100000008 22.7210757403372838 O
atom 3.2392863496607083 6.4256584800000009 21.4785055410059869 O
atom 9.7177997563825418 6.4256572900000002 17.4852070956685601 O
atom 9.7177783367737263 1.6064163000000009 16.2426045377821993 Pd
atom 3.2392510098083198 3.2128303200000006 19.4818517857798810 Pd
atom 5.2359055499212861 1.6064149500000011 22.7210924873147562 O
atom 1.2425980465470219 1.6064131200000005 22.7210754504233279 O
atom 3.2393029878829949 3.2128304100000005 21.4785090553280043 O
atom 9.7178183532906512 3.2128312100000009 17.4852100655185012 O
atom 6.4784910948151646 4.8192420900000013 19.4818586022880993 Pd
atom 12.9570124820845809 6.4256591900000002 22.7211085514360036 Pd
atom 8.4751560435361490 4.8192458300000007 19.4818929336677371 O
atom 4.4818591679773343 4.8192478999999997 19.4818691721916579 O
atom 6.4784689539573836 6.4256572000000016 18.2392567090820563 O
atom 6.4784756246633943 6.4256583400000000 20.7244587489374297 O
atom 6.4784937818210313 1.6064163300000005 19.4818573577803704 Pd
atom 12.9570125669373795 3.2128300699999999 22.7211086928573636 Pd
atom 8.4751582497093008 1.6064131700000004 19.4818929760943149 O
atom 4.4818607801807691 1.6064144000000005 19.4818695116030369 O
atom 6.4784497560084819 3.2128312700000010 18.2392540715722546 O
atom 6.4784586258166126 3.2128304999999999 20.7244556942347984 O
atom 6.4785102998355555 0.0000025199999997 22.7211106656858561 Pd
atom 6.4785102008406072 3.2128302800000013 22.7211106656858490 Pd
atom 9.7177421541199696 4.8192423700000004 22.7211111040902622 Pd
atom 11.7144074139681091 4.8192460900000009 22.7211432717231716 O
atom 7.7211109626725696 4.8192472800000008 22.7211296077319673 O
atom 9.7177251849022355 6.4256586000000020 23.9637059898650264 O
atom 9.7177449471918607 1.6064164500000009 22.7211097393743913 Pd
atom 11.7144096837808700 1.6064131700000002 22.7211432787944219 O
atom 7.7211126738709730 1.6064150500000005 22.7211296643006406 O
atom 9.7177086244616948 3.2128305700000008 23.9637024684719506 O
atom 3.2392891807765065 6.4256572900000002 23.9637126366745505 O
atom 3.2392677611676866 1.6064163000000009 22.7211100787881932 Pd
atom 3.2393077776846115 3.2128312100000009 23.9637156065244881 O
