#===============================================================================
# Created using the Atomic Simulation Environment (ASE)

# Mon Mar 23 14:01:18 2026

#=======================================================
lattice_vector 12.9570191147451741 0.0000000000000000 0.0000000000000000 
lattice_vector 0.0000000000000000 6.4256598000000000 0.0000000000000000 
lattice_vector 0.0000000000000000 0.0000000000000000 35.7244615349522334 
atom 0.0000135269537312 4.8192422200000014 16.2425997506765114 Pd
atom 1.9966437143094091 4.8192479500000012 16.2425824774005250 O
atom 10.9603690081961336 4.8192457800000010 16.2425705953186181 O
atom 0.0000340246344983 6.4256586599999999 15.0000024112414962 O
atom 0.0000311352571634 6.4256573700000015 17.4852002225975696 O
atom 0.0000111510748273 1.6064164200000008 16.2426012921691125 Pd
atom 1.9966421869587534 1.6064143800000010 16.2425825763953569 O
atom 10.9603670565814539 1.6064132700000004 16.2425701286279889 O
atom 0.0000513699635999 3.2128303400000013 15.0000054730152215 O
atom 0.0000505241248800 3.2128312600000015 17.4852030085998038 O
atom 9.7177628652772157 6.4256591100000016 16.2426069702355633 Pd
atom 9.7177241286232778 6.4256574100000012 18.2392598769277186 O
atom 9.7177627238558717 3.2128299000000000 16.2426068570984725 Pd
atom 9.7177057509182756 3.2128313900000003 18.2392568151539152 O
atom 3.2392703986760911 4.8192422100000014 19.4818546142157842 Pd
atom 3.2392510451636594 0.0000024899999997 16.2425976929944298 Pd
atom 5.2359071974800893 4.8192473800000011 19.4818383945294258 O
atom 1.2426002315069551 4.8192461100000008 19.4818216687650292 O
atom 3.2392863496607083 6.4256584800000009 18.2392514694337322 O
atom 3.2392510098083198 3.2128303200000006 16.2425977142076263 Pd
atom 5.2359055499212861 1.6064149500000011 19.4818384157425015 O
atom 1.2425980465470219 1.6064131200000005 19.4818213788510732 O
atom 3.2393029878829949 3.2128304100000005 18.2392549837557496 O
atom 6.4784910948151646 4.8192420900000013 16.2426045307158446 Pd
atom 12.9570124820845809 6.4256591900000002 19.4818544798637490 Pd
atom 8.4751560435361490 4.8192458300000007 16.2426388620954825 O
atom 4.4818591679773343 4.8192478999999997 16.2426151006194033 O
atom 6.4784689539573836 6.4256572000000016 15.0000026375098017 O
atom 6.4784756246633943 6.4256583400000000 17.4852046773651750 O
atom 6.4784937818210313 1.6064163300000005 16.2426032862081158 Pd
atom 12.9570125669373795 3.2128300699999999 19.4818546212851089 Pd
atom 8.4751582497093008 1.6064131700000004 16.2426389045220603 O
atom 4.4818607801807691 1.6064144000000005 16.2426154400307823 O
atom 6.4784497560084819 3.2128312700000010 15.0000000000000000 O
atom 6.4784586258166126 3.2128304999999999 17.4852016226625437 O
atom 6.4785102998355555 0.0000025199999997 19.4818565941136015 Pd
atom 6.4785102008406072 3.2128302800000013 19.4818565941135944 Pd
atom 9.7177421541199696 4.8192423700000004 19.4818570325180076 Pd
atom 11.7144074139681091 4.8192460900000009 19.4818892001509170 O
atom 7.7211109626725696 4.8192472800000008 19.4818755361597127 O
atom 9.7177251849022355 6.4256586000000020 20.7244519182927718 O
atom 9.7177449471918607 1.6064164500000009 19.4818556678021366 Pd
atom 11.7144096837808700 1.6064131700000002 19.4818892072221672 O
atom 7.7211126738709730 1.6064150500000005 19.4818755927283860 O
atom 9.7177086244616948 3.2128305700000008 20.7244483968996960 O
atom 3.2392891807765065 6.4256572900000002 20.7244585651022959 O
atom 3.2392677611676866 1.6064163000000009 19.4818560072159386 Pd
atom 3.2393077776846115 3.2128312100000009 20.7244615349522334 O
