#===============================================================================
# Created using the Atomic Simulation Environment (ASE)

# Mon Mar 23 14:01:15 2026

#=======================================================
lattice_vector 11.1906751718508950 0.0000000000000000 0.0000000000000000 
lattice_vector 3.6895943445015020 10.5649482138552457 0.0000000000000000 
lattice_vector 0.0000000000000000 0.0000000000000000 32.0156201422056128 
atom 4.7643468179447055 3.3826550380116815 17.0155949112044098 Pd
atom 5.9202297681388325 1.7546296356981350 17.0155786789948422 O
atom 3.6084229609308585 5.0106924154909915 17.0155718522648058 O
atom 4.9673948513568149 3.5267933802725495 15.0000013109190853 O
atom 6.4061231261179579 4.5482895861072903 16.7500911984526013 O
atom 1.9666761100249095 1.3963319680516337 15.8750464827678286 Pd
atom 3.8114729708082691 6.6788090711763024 15.8750494583335424 Pd
atom 6.6091294223772552 8.6651585459259746 17.0155941947861464 Pd
atom 7.7650566167866204 7.0371221851448915 17.0156201422056128 O
atom 5.4532492859449269 10.2931885042624156 17.0156092200160600 O
atom 6.8121411604240851 8.8093443281959161 15.0000005938832643 O
atom 8.2508694348837892 9.8308334660797296 16.7500857607950380 O
atom 7.5620085297046886 1.3963342924322093 15.8750406674638178 Pd
atom 10.3596886868450415 3.3826581222713945 17.0155945403025584 Pd
atom 11.5155717881119148 1.7546235047447321 17.0155831107926758 O
atom 9.2037542708233211 5.0106954608663905 17.0155724126206493 O
atom 10.5627417765571732 3.5267819905695137 15.0000000000000000 O
atom 12.0014807566920503 4.5482763793205834 16.7500945582808001 O
atom 12.2044657493595281 8.6651571404282723 17.0155983696320376 Pd
atom 13.3603975559254042 7.0371237941021638 17.0156198905773479 O
atom 11.0485845376689724 10.2931859104023697 17.0156016879317562 O
atom 12.4074856985059707 8.8093278355228080 15.0000025068534200 O
atom 13.8462233510561514 9.8308189749220194 16.7500936468259596 O
atom 9.4068054423345107 6.6788110421246891 15.8750452425912414 Pd
