#===============================================================================
# Created using the Atomic Simulation Environment (ASE)

# Mon Mar 23 14:01:16 2026

#=======================================================
lattice_vector 9.1619925200004406 0.0000000000000000 0.0000000000000000 
lattice_vector -0.0000056800004464 9.1619939599986804 0.0000000000000000 
lattice_vector 0.0000000000000000 0.0000000000000000 30.0000033299999984 
atom 2.2905054800032838 2.2904878900023888 15.0000000300000025 Pd
atom 3.7023239176415266 0.8786436376324930 15.0000020700000078 O
atom 0.8786290223689234 3.7023196223543002 15.0000031800000073 O
atom 2.2904825399961268 6.8715072399954993 15.0000000000000000 Pd
atom 3.7023617576303010 5.4596761076444444 15.0000032800000014 O
atom 0.8786640823573487 8.2833532223653883 15.0000014000000021 O
atom 6.8715047700035905 2.2904876100033285 15.0000001500000053 Pd
atom 8.2833287776430673 0.8786393776351586 15.0000014999999962 O
atom 5.4596212623685618 3.7023214923530543 15.0000033299999984 O
atom 6.8714812699969414 6.8715053199962659 15.0000001200000028 Pd
atom 8.2833617676306037 5.4596758476456051 15.0000032800000014 O
atom 5.4596568023597065 8.2833463223642916 15.0000020500000062 O
