#===============================================================================
# Created using the Atomic Simulation Environment (ASE)

# Mon Mar 23 14:01:15 2026

#=======================================================
lattice_vector 11.1906751718508950 0.0000000000000000 0.0000000000000000 
lattice_vector 3.6895943445015020 10.5649482138552457 0.0000000000000000 
lattice_vector 0.0000000000000000 0.0000000000000000 34.2967206304420884 
atom 3.8114768935244636 2.7061347446105071 15.8750471325560483 Pd
atom 6.8122070700798627 4.8365831246288193 15.0000045144220735 O
atom 8.6569508416911383 10.1191310048441192 15.0000076739677652 O
atom 12.4075285564665716 4.8365953514095033 15.0000009936712644 O
atom 9.4068068303346202 2.7061354709305765 15.8750443212761887 Pd
atom 11.2516043608719869 7.9886127200399786 15.8750478659798944 Pd
atom 14.2522748344884640 10.1191460084565747 15.0000000000000000 O
atom 4.7643468179447055 3.3826550380116815 19.2966953994408854 Pd
atom 5.9202297681388325 1.7546296356981350 19.2966791672313178 O
atom 3.6084229609308585 5.0106924154909915 19.2966723405012814 O
atom 4.9673948513568149 3.5267933802725495 17.2811017991555609 O
atom 6.4061231261179579 4.5482895861072903 19.0311916866890769 O
atom 6.6091481865180128 4.6924612651954378 17.0155952549262395 Pd
atom 1.9666761100249095 1.3963319680516337 18.1561469710043042 Pd
atom 7.7650263313355135 3.0644314104307933 17.0155835235759945 O
atom 5.4532195596754187 6.3204947357866352 17.0155755458909681 O
atom 8.2509376372141716 5.8580784518134843 16.7500926386634070 O
atom 8.4539258075721815 9.9749617465784350 17.0156001507934498 Pd
atom 3.8114729708082691 6.6788090711763024 18.1561499465700180 Pd
atom 9.6098565301356924 8.3469272490427233 17.0156201622172176 O
atom 3.6084547533342124 1.0380445971764651 17.0156096950689744 O
atom 6.4060851398182557 0.5756744189932899 16.7500917374526068 O
atom 6.6091294223772552 8.6651585459259746 19.2966946830226220 Pd
atom 5.6562727170419942 7.9886114061299445 15.8750510579451216 Pd
atom 7.7650566167866204 7.0371221851448915 19.2967206304420884 O
atom 5.4532492859449269 10.2931885042624156 19.2967097082525356 O
atom 6.8121411604240851 8.8093443281959161 17.2811010821197399 O
atom 8.2508694348837892 9.8308334660797296 19.0311862490315136 O
atom 12.2044866136740158 4.6924557573299666 17.0155985614121477 Pd
atom 7.5620085297046886 1.3963342924322093 18.1561411557002934 Pd
atom 2.1696985079119964 3.0644251689045676 17.0155834687438663 O
atom 11.0485569752550443 6.3204970430208558 17.0155725920709671 O
atom 2.6555904033800095 5.8580907497566965 16.7500973482653137 O
atom 10.3596886868450415 3.3826581222713945 19.2966950285390340 Pd
atom 11.5155717881119148 1.7546235047447321 19.2966835990291514 O
atom 9.2037542708233211 5.0106954608663905 19.2966729008571249 O
atom 10.5627417765571732 3.5267819905695137 17.2811004882364756 O
atom 12.0014807566920503 4.5482763793205834 19.0311950465172757 O
atom 12.2044657493595281 8.6651571404282723 19.2966988578685132 Pd
atom 13.3603975559254042 7.0371237941021638 19.2967203788138235 O
atom 11.0485845376689724 10.2931859104023697 19.2967021761682318 O
atom 12.4074856985059707 8.8093278355228080 17.2811029950898956 O
atom 13.8462233510561514 9.8308189749220194 19.0311941350624352 O
atom 14.0492684590359982 9.9749581105894389 17.0155967230383709 Pd
atom 9.4068054423345107 6.6788110421246891 18.1561457308277170 Pd
atom 4.0145215984551434 8.3469228723148241 17.0156240492259450 O
atom 9.2037887532913789 1.0380370386933513 17.0156066521157072 O
atom 0.8107429055521764 0.5756861907420102 16.7500922022767398 O
