#===============================================================================
# Created using the Atomic Simulation Environment (ASE)

# Mon Mar 23 14:01:15 2026

#=======================================================
lattice_vector 11.1906751718508950 0.0000000000000000 0.0000000000000000 
lattice_vector 3.6895943445015020 10.5649482138552457 0.0000000000000000 
lattice_vector 0.0000000000000000 0.0000000000000000 41.4055413145932079 
atom 12.1435448075700272 8.6218629773940254 17.2811228073699148 Pd
atom 7.5010758883371231 5.3257387143016777 18.4216711785961245 Pd
atom 13.2994277577641551 6.9938375750804767 17.2811065751603472 O
atom 10.9876209505561668 10.2499003548733345 17.2810997484303002 O
atom 12.3465928409821277 8.7660013196548903 15.2655292070845867 O
atom 13.7853211157432654 9.7874975254896341 17.0156190946181063 O
atom 13.9883461761433256 9.9316692045777799 15.0000226628552653 Pd
atom 9.3458740996502154 6.6355399074339765 16.1405743789333300 Pd
atom 3.9535491491099317 8.3036393498131371 15.0000109315050238 O
atom 9.1428232047992264 0.9947544613137330 15.0000029538199975 O
atom 10.5018060648925253 7.4561870943199899 17.5466285604621461 O
atom 12.1435294526959883 4.6492214721055332 15.0000275587224827 Pd
atom 7.5010766159320825 1.3530687967034012 16.1405773544990474 Pd
atom 2.1087850034086060 3.0211869745698197 15.0000475701462435 O
atom 10.9876527429595221 6.2772525365588070 15.0000371029980002 O
atom 8.6569554920022984 2.1737867606800445 17.5466317200078414 O
atom 10.2987330675010629 3.3394182714530722 17.2811220909516443 Pd
atom 11.4546602619104334 1.7113819106719881 17.2811480383711213 O
atom 9.1428529310687363 4.9674482297895093 17.2811371161815615 O
atom 10.5017448055479026 3.4836040537230120 15.2655284900487693 O
atom 11.9404730800076031 4.5050931916068251 17.0156136569605501 O
atom 8.3930094314484300 9.9316636967123095 15.0000259693411842 Pd
atom 3.7505313474791078 6.6355422318145498 16.1405685636293228 Pd
atom 9.5488964975373047 8.3036331082869097 15.0000108766728921 O
atom 3.5474854485279632 0.9947567685479499 15.0000000000000000 O
atom 4.9064523794283295 7.4561993211006747 17.5466250397113370 O
atom 6.5482115046194647 8.6218660616537388 17.2811224364680633 Pd
atom 1.9057306532963922 5.3257394406217475 18.4216683673162613 Pd
atom 7.7040946058863353 6.9938314441270748 17.2811110069581808 O
atom 5.3922770885977398 10.2499034002487335 17.2811003087861472 O
atom 6.7512645943315928 8.7659899299518553 15.2655278961655085 O
atom 8.1900035744664645 9.7874843187029263 17.0156224544463122 O
atom 4.7033942226324470 3.3394168659553665 17.2811262657975497 Pd
atom 0.0609338393322445 0.0432684758759028 18.4216719120199706 Pd
atom 5.8593260291983258 1.7113835196292606 17.2811477867428565 O
atom 3.5475130109418869 4.9674456359294652 17.2811295840972647 O
atom 4.9064141717788852 3.4835875610499061 15.2655304030189249 O
atom 6.3451518243290721 4.5050787004491140 17.0156215429914646 O
atom 6.5481969323089206 4.6492178361165344 15.0000241309674003 Pd
atom 1.9057339156074269 1.3530707676517850 16.1405731387567428 Pd
atom 7.7041252435789591 3.0211825978419196 15.0000514571549743 O
atom 5.3923115710657976 6.2772449780756912 15.0000340600447402 O
atom 3.0616043129487331 2.1738017642924996 17.5466240460400762 O
atom 8.4539458127573663 6.0022590077028530 21.8433194454809687 Pd
atom 3.8114768935244636 2.7061347446105071 22.9838678167071713 Pd
atom 9.6098287629514996 4.3742336053893061 21.8433032132713940 O
atom 7.2980219557435149 7.6302963851821630 21.8432963865413505 O
atom 8.6569938461694669 6.1463973499637206 19.8277258451956335 O
atom 10.0957221209306045 7.1678935557984644 21.5778157327291531 O
atom 10.2987471813306648 7.3120652348866102 19.5622193009663121 Pd
atom 5.6562751048375564 4.0159359377428068 20.7027710170443768 Pd
atom 11.4546253261481716 5.6840353801219656 19.5622075696160707 O
atom 9.1428185544880751 8.9400987054778067 19.5621995919310443 O
atom 6.8122070700798627 4.8365831246288193 22.1088251985731965 O
atom 11.9405366320268271 8.4776824215046567 19.2967166847034868 O
atom 8.4539304578833345 2.0296175024143617 19.5622241968335260 Pd
atom 7.5010719656209313 9.2984130408674748 20.7027739926100942 Pd
atom 9.6098611804468419 0.4015830048786485 19.5622442082572903 O
atom 7.2980537481468595 3.6576485668676386 19.5622337411090435 O
atom 8.6569508416911383 10.1191310048441192 22.1088283581188882 O
atom 10.0956841346309130 3.1952783886844611 19.2967157834926830 O
atom 6.6091340726884065 0.7198143017619025 21.8433187290626911 Pd
atom 5.6562773673531499 0.0432671619658724 18.4216751039851978 Pd
atom 11.4546556115992768 9.6567261548360612 21.8433446764821646 O
atom 5.4532539362560808 2.3478442600983396 21.8433337542926083 O
atom 6.8121458107352444 0.8640000840318399 19.8277251281598161 O
atom 8.2508740851949476 1.8854892219156529 21.5778102950715969 O
atom 4.7034104366357754 7.3120597270211363 19.5622226074522274 Pd
atom 11.2516075245173468 4.0159382621233801 20.7027652017403696 Pd
atom 5.8592975027246439 5.6840291385957400 19.5622075147839389 O
atom 3.5474807982168084 8.9401010127120237 19.5621966381110504 O
atom 12.4075285564665716 4.8365953514095033 22.1088216778223874 O
atom 6.3451893981926659 8.4776947194478680 19.2967213943053899 O
atom 2.8586125098068078 6.0022620919625655 21.8433190745791102 Pd
atom 9.4068068303346202 2.7061354709305765 22.9838650054273117 Pd
atom 4.0144956110736763 4.3742274744359024 21.8433076450692276 O
atom 12.8933532656359766 7.6302994305575629 21.8432969468971940 O
atom 3.0616655995189346 6.1463859602606856 19.8277245342765518 O
atom 4.5004045796538055 7.1678803490117540 21.5778190925573625 O
atom 1.0137952278197857 0.7198128962641953 21.8433229039085930 Pd
atom 11.2516043608719869 7.9886127200399786 22.9838685501310174 Pd
atom 5.8593213788871719 9.6567277637933344 21.8433444248539033 O
atom 11.0485891879801166 2.3478416662382959 21.8433262222083080 O
atom 1.2168151769662261 0.8639835913587356 19.8277270411299682 O
atom 2.6555528295164113 1.8854747307579431 21.5778181811025114 O
atom 2.8585979374962620 2.0296138664253642 19.5622207690784435 Pd
atom 13.0964044371471662 9.2984150118158588 20.7027697768677861 Pd
atom 4.0145262487663027 0.4015786281507487 19.5622480952660247 O
atom 1.7027125762531388 3.6576410083845214 19.5622306981557905 O
atom 14.2522748344884640 10.1191460084565747 22.1088206841511230 O
atom 4.5003419003648322 3.1952901604331796 19.2967162483168160 O
atom 4.7643468179447055 3.3826550380116815 26.4055160835920084 Pd
atom 5.9202297681388325 1.7546296356981350 26.4054998513824408 O
atom 3.6084229609308585 5.0106924154909915 26.4054930246524044 O
atom 4.9673948513568149 3.5267933802725495 24.3899224833066839 O
atom 6.4061231261179579 4.5482895861072903 26.1400123708401999 O
atom 6.6091481865180128 4.6924612651954378 24.1244159390773625 Pd
atom 1.9666761100249095 1.3963319680516337 25.2649676551554272 Pd
atom 7.7650263313355135 3.0644314104307933 24.1244042077271175 O
atom 5.4532195596754187 6.3204947357866352 24.1243962300420911 O
atom 8.2509376372141716 5.8580784518134843 23.8589133228145300 O
atom 8.4539258075721815 9.9749617465784350 24.1244208349445728 Pd
atom 3.8114729708082691 6.6788090711763024 25.2649706307211410 Pd
atom 9.6098565301356924 8.3469272490427233 24.1244408463683406 O
atom 3.6084547533342124 1.0380445971764651 24.1244303792200974 O
atom 6.4060851398182557 0.5756744189932899 23.8589124216037298 O
atom 6.6091294223772552 8.6651585459259746 26.4055153671737450 Pd
atom 5.6562727170419942 7.9886114061299445 22.9838717420962446 Pd
atom 7.7650566167866204 7.0371221851448915 26.4055413145932114 O
atom 5.4532492859449269 10.2931885042624156 26.4055303924036586 O
atom 6.8121411604240851 8.8093443281959161 24.3899217662708629 O
atom 8.2508694348837892 9.8308334660797296 26.1400069331826366 O
atom 12.2044866136740158 4.6924557573299666 24.1244192455632707 Pd
atom 7.5620085297046886 1.3963342924322093 25.2649618398514164 Pd
atom 2.1696985079119964 3.0644251689045676 24.1244041528949893 O
atom 11.0485569752550443 6.3204970430208558 24.1243932762220901 O
atom 2.6555904033800095 5.8580907497566965 23.8589180324164367 O
atom 10.3596886868450415 3.3826581222713945 26.4055157126901570 Pd
atom 11.5155717881119148 1.7546235047447321 26.4055042831802744 O
atom 9.2037542708233211 5.0106954608663905 26.4054935850082479 O
atom 10.5627417765571732 3.5267819905695137 24.3899211723875986 O
atom 12.0014807566920503 4.5482763793205834 26.1400157306683987 O
atom 12.2044657493595281 8.6651571404282723 26.4055195420196362 Pd
atom 13.3603975559254042 7.0371237941021638 26.4055410629649465 O
atom 11.0485845376689724 10.2931859104023697 26.4055228603193548 O
atom 12.4074856985059707 8.8093278355228080 24.3899236792410186 O
atom 13.8462233510561514 9.8308189749220194 26.1400148192135582 O
atom 14.0492684590359982 9.9749581105894389 24.1244174071894939 Pd
atom 9.4068054423345107 6.6788110421246891 25.2649664149788400 Pd
atom 4.0145215984551434 8.3469228723148241 24.1244447333770680 O
atom 9.2037887532913789 1.0380370386933513 24.1244273362668302 O
atom 0.8107429055521764 0.5756861907420102 23.8589128864278628 O
