#===============================================================================
# Created using the Atomic Simulation Environment (ASE)

# Mon Mar 23 14:01:16 2026

#=======================================================
lattice_vector 9.1619925200004406 0.0000000000000000 0.0000000000000000 
lattice_vector -0.0000056800004464 9.1619939599986804 0.0000000000000000 
lattice_vector 0.0000000000000000 0.0000000000000000 31.6064182699999954 
atom 2.2905054800032838 2.2904878900023888 16.6064149699999994 Pd
atom -0.0000021899999070 9.1619922199997639 15.0000011099999995 Pd
atom 3.7023239176415266 0.8786436376324930 16.6064170100000048 O
atom 0.8786290223689234 3.7023196223543002 16.6064181200000043 O
atom 1.4118861923721027 1.4118113176512423 15.0000010500000016 O
atom 3.1691852176506181 3.1691123523722737 15.0000001300000001 O
atom 2.2904825399961268 6.8715072399954993 16.6064149399999970 Pd
atom 0.0000008399990453 4.5809993400004814 15.0000014899999989 Pd
atom 3.7023617576303010 5.4596761076444444 16.6064182199999983 O
atom 0.8786640823573487 8.2833532223653883 16.6064163399999991 O
atom 1.4118049523482039 5.9928846776262814 15.0000000000000000 O
atom 3.1691023976288393 7.7501788723468223 15.0000008200000003 O
atom 6.8715047700035905 2.2904876100033285 16.6064150900000023 Pd
atom 4.5809862700005732 9.1619913799973443 15.0000010699999997 Pd
atom 8.2833287776430673 0.8786393776351586 16.6064164399999932 O
atom 5.4596212623685618 3.7023214923530543 16.6064182699999954 O
atom 5.9928782723724563 1.4118108876499467 15.0000009799999958 O
atom 7.7501876576502315 3.1691143123741887 15.0000001800000007 O
atom 6.8714812699969414 6.8715053199962659 16.6064150599999998 Pd
atom 4.5809904299993924 4.5809989299984153 15.0000013199999955 Pd
atom 8.2833617676306037 5.4596758476456051 16.6064182199999983 O
atom 5.4596568023597065 8.2833463223642916 16.6064169900000032 O
atom 5.9927971323489313 5.9928830376250177 15.0000001199999993 O
atom 7.7501059176286811 7.7501800923490736 15.0000008899999990 O
