#===============================================================================
# Created using the Atomic Simulation Environment (ASE)

# Mon Mar 23 14:01:16 2026

#=======================================================
lattice_vector 9.1619925200004406 0.0000000000000000 0.0000000000000000 
lattice_vector -0.0000056800004464 9.1619939599986804 0.0000000000000000 
lattice_vector 0.0000000000000000 0.0000000000000000 33.2128348299999914 
atom 2.2905060700041426 2.2904851200025718 15.0000057299999980 Pd
atom 3.7023249276418824 0.8786424876328058 15.0000000000000000 O
atom 0.8786307323692488 3.7023185723548306 15.0000021699999984 O
atom 2.2905054800032838 2.2904878900023888 18.2128315299999990 Pd
atom -0.0000021899999070 9.1619922199997639 16.6064176699999990 Pd
atom 3.7023239176415266 0.8786436376324930 18.2128335700000044 O
atom 0.8786290223689234 3.7023196223543002 18.2128346800000038 O
atom 1.4118861923721027 1.4118113176512423 16.6064176100000012 O
atom 3.1691852176506181 3.1691123523722737 16.6064166899999996 O
atom 2.2904815299952155 6.8715101799951874 15.0000055799999998 Pd
atom 3.7023601476298058 5.4596777076439436 15.0000018599999976 O
atom 0.8786628323569862 8.2833543923650037 15.0000006699999986 O
atom 2.2904825399961268 6.8715072399954993 18.2128314999999965 Pd
atom 0.0000008399990453 4.5809993400004814 16.6064180499999985 Pd
atom 3.7023617576303010 5.4596761076444444 18.2128347799999979 O
atom 0.8786640823573487 8.2833532223653883 18.2128328999999987 O
atom 1.4118049523482039 5.9928846776262814 16.6064165599999995 O
atom 3.1691023976288393 7.7501788723468223 16.6064173799999999 O
atom 6.8715056500044742 2.2904847600036007 15.0000057399999989 Pd
atom 8.2833299276434325 0.8786381976355150 15.0000005699999974 O
atom 5.4596230123689775 3.7023201523535967 15.0000018399999995 O
atom 6.8715047700035905 2.2904876100033285 18.2128316500000018 Pd
atom 4.5809862700005732 9.1619913799973443 16.6064176299999993 Pd
atom 8.2833287776430673 0.8786393776351586 18.2128329999999927 O
atom 5.4596212623685618 3.7023214923530543 18.2128348299999949 O
atom 5.9928782723724563 1.4118108876499467 16.6064175399999954 O
atom 7.7501876576502315 3.1691143123741887 16.6064167400000002 O
atom 6.8714802499960799 6.8715080999959479 15.0000058599999981 Pd
atom 8.2833601776301293 5.4596773776451117 15.0000021199999978 O
atom 5.4596554223594280 8.2833472223638633 15.0000000500000006 O
atom 6.8714812699969414 6.8715053199962659 18.2128316199999993 Pd
atom 4.5809904299993924 4.5809989299984153 16.6064178799999951 Pd
atom 8.2833617676306037 5.4596758476456051 18.2128347799999979 O
atom 5.4596568023597065 8.2833463223642916 18.2128335500000027 O
atom 5.9927971323489313 5.9928830376250177 16.6064166799999988 O
atom 7.7501059176286811 7.7501800923490736 16.6064174499999986 O
