#===============================================================================
# Created using the Atomic Simulation Environment (ASE)

# Mon Mar 23 14:01:17 2026

#=======================================================
lattice_vector 11.1906751718508950 0.0000000000000000 0.0000000000000000 
lattice_vector -0.0000046503111567 9.1619939599992613 0.0000000000000000 
lattice_vector 0.0000000000000000 0.0000000000000000 31.6214016821371402 
atom 1.0747524734432075 2.2904785655052335 15.8107072815034329 Pd
atom 2.2306354236373336 0.8786356445612178 16.6213652102390625 O
atom 11.1095037882802412 3.7023123064459948 15.0000093162027639 O
atom 2.7165287816164487 3.1691178264493178 15.0000352329371296 O
atom 9.4677522870631350 9.1619856655049379 15.8107014466278457 Pd
atom 10.6236889026165944 1.4118044745667049 16.6214016821371402 O
atom 1.0747324682580177 6.8715036255026174 15.8106946986111154 Pd
atom 2.2306631908215144 5.4596708645643250 16.6213885870228779 O
atom 11.1095309303724452 8.2833481264497539 15.0000281506018283 O
atom 2.7164861450055962 7.7501633864440196 15.0000054586201372 O
atom 9.4677545495787285 4.5809927855052166 15.8107018668384853 Pd
atom 10.6236229929608186 5.9928778345583646 16.6213558053995527 O
atom 3.8724095348920233 9.1619847855047301 15.8106952461355021 Pd
atom 5.0283352171523985 1.4118133245642464 16.6213925406167178 O
atom 6.6700943423435408 2.2904810555066519 15.8107054240538218 Pd
atom 7.8259774436104061 0.8786325345611156 16.6213721064206936 O
atom 5.5141599263218133 3.7023152264445858 15.0000082857086099 O
atom 8.3118864121905389 3.1691080464527164 15.0000447228964191 O
atom 3.8724110215578098 4.5809923355043178 15.8106984444853751 Pd
atom 5.0282923591918021 5.9928644845583712 16.6213656768341522 O
atom 6.6700751197218464 6.8714987655041107 15.8106935365717902 Pd
atom 7.8260034309918769 5.4596690045640095 16.6213941372465470 O
atom 5.5141897584787110 8.2833400564486439 15.0000292754634259 O
atom 8.3118190825904108 7.7501738264438114 15.0000000000000000 O
