#===============================================================================
# Created using the Atomic Simulation Environment (ASE)

# Mon Mar 23 14:01:15 2026

#=======================================================
lattice_vector 11.1906751718508950 0.0000000000000000 0.0000000000000000 
lattice_vector 3.6895943445015020 10.5649482138552457 0.0000000000000000 
lattice_vector 0.0000000000000000 0.0000000000000000 34.5622449280518609 
atom 8.4539458127573663 6.0022590077028530 15.0000230589396182 Pd
atom 3.8114768935244636 2.7061347446105071 16.1405714301658207 Pd
atom 9.6098287629514996 4.3742336053893061 15.0000068267300435 O
atom 7.2980219557435149 7.6302963851821630 15.0000000000000000 O
atom 6.8122070700798627 4.8365831246288193 15.2655288120318460 O
atom 8.6569508416911383 10.1191310048441192 15.2655319715775377 O
atom 6.6091340726884065 0.7198143017619025 15.0000223425213406 Pd
atom 11.4546556115992768 9.6567261548360612 15.0000482899408141 O
atom 5.4532539362560808 2.3478442600983396 15.0000373677512577 O
atom 12.4075285564665716 4.8365953514095033 15.2655252912810369 O
atom 2.8586125098068078 6.0022620919625655 15.0000226880377596 Pd
atom 9.4068068303346202 2.7061354709305765 16.1405686188859612 Pd
atom 4.0144956110736763 4.3742274744359024 15.0000112585278771 O
atom 12.8933532656359766 7.6302994305575629 15.0000005603558435 O
atom 1.0137952278197857 0.7198128962641953 15.0000265173672425 Pd
atom 11.2516043608719869 7.9886127200399786 16.1405721635896668 Pd
atom 5.8593213788871719 9.6567277637933344 15.0000480383125527 O
atom 11.0485891879801166 2.3478416662382959 15.0000298356669575 O
atom 14.2522748344884640 10.1191460084565747 15.2655242976097725 O
atom 4.7643468179447055 3.3826550380116815 19.5622196970506579 Pd
atom 5.9202297681388325 1.7546296356981350 19.5622034648410903 O
atom 3.6084229609308585 5.0106924154909915 19.5621966381110539 O
atom 4.9673948513568149 3.5267933802725495 17.5466260967653334 O
atom 6.4061231261179579 4.5482895861072903 19.2967159842988494 O
atom 6.6091481865180128 4.6924612651954378 17.2811195525360120 Pd
atom 1.9666761100249095 1.3963319680516337 18.4216712686140767 Pd
atom 7.7650263313355135 3.0644314104307933 17.2811078211857669 O
atom 5.4532195596754187 6.3204947357866352 17.2810998435007406 O
atom 8.2509376372141716 5.8580784518134843 17.0156169362731795 O
atom 8.4539258075721815 9.9749617465784350 17.2811244484032223 Pd
atom 3.8114729708082691 6.6788090711763024 18.4216742441797905 Pd
atom 9.6098565301356924 8.3469272490427233 17.2811444598269901 O
atom 3.6084547533342124 1.0380445971764651 17.2811339926787468 O
atom 6.4060851398182557 0.5756744189932899 17.0156160350623793 O
atom 6.6091294223772552 8.6651585459259746 19.5622189806323945 Pd
atom 5.6562727170419942 7.9886114061299445 16.1405753555548941 Pd
atom 7.7650566167866204 7.0371221851448915 19.5622449280518609 O
atom 5.4532492859449269 10.2931885042624156 19.5622340058623081 O
atom 6.8121411604240851 8.8093443281959161 17.5466253797295124 O
atom 8.2508694348837892 9.8308334660797296 19.2967105466412860 O
atom 12.2044866136740158 4.6924557573299666 17.2811228590219201 Pd
atom 7.5620085297046886 1.3963342924322093 18.4216654533100659 Pd
atom 2.1696985079119964 3.0644251689045676 17.2811077663536388 O
atom 11.0485569752550443 6.3204970430208558 17.2810968896807395 O
atom 2.6555904033800095 5.8580907497566965 17.0156216458750862 O
atom 10.3596886868450415 3.3826581222713945 19.5622193261488064 Pd
atom 11.5155717881119148 1.7546235047447321 19.5622078966389239 O
atom 9.2037542708233211 5.0106954608663905 19.5621971984668974 O
atom 10.5627417765571732 3.5267819905695137 17.5466247858462481 O
atom 12.0014807566920503 4.5482763793205834 19.2967193441270481 O
atom 12.2044657493595281 8.6651571404282723 19.5622231554782857 Pd
atom 13.3603975559254042 7.0371237941021638 19.5622446764235960 O
atom 11.0485845376689724 10.2931859104023697 19.5622264737780043 O
atom 12.4074856985059707 8.8093278355228080 17.5466272926996680 O
atom 13.8462233510561514 9.8308189749220194 19.2967184326722077 O
atom 14.0492684590359982 9.9749581105894389 17.2811210206481434 Pd
atom 9.4068054423345107 6.6788110421246891 18.4216700284374895 Pd
atom 4.0145215984551434 8.3469228723148241 17.2811483468357174 O
atom 9.2037887532913789 1.0380370386933513 17.2811309497254797 O
atom 0.8107429055521764 0.5756861907420102 17.0156164998865123 O
