#===============================================================================
# Created using the Atomic Simulation Environment (ASE)

# Mon Mar 23 14:01:16 2026

#=======================================================
lattice_vector 9.1619939600004408 0.0000000000000000 0.0000000000000000 
lattice_vector 0.0000000000000000 6.4256598000000000 0.0000000000000000 
lattice_vector 0.0000000000000000 0.0000000000000000 43.2098457899866801 
atom 2.2904723399982130 1.6064175800000002 15.8786988223441554 Pd
atom 0.8786288323681830 1.6064118500000002 17.2905168047063533 O
atom 1.4118091823540571 0.0000011400000000 15.0000639699794576 O
atom 3.1691107676333310 0.0000024300000000 16.7573628347011940 O
atom 2.2904751099983960 4.8192433800000005 15.8786982323450161 Pd
atom 0.8786299823684963 4.8192454200000006 17.2905157947067067 O
atom 1.4117990823495838 3.2128294600000005 15.0000783999763279 O
atom 3.1690990276284703 3.2128285399999994 16.7573785146975531 O
atom 6.8714974000051594 1.6064174299999998 15.8786771223528618 Pd
atom 5.4596640523566053 1.6064137100000000 17.2905548647182030 O
atom 5.9928616123694081 0.0000023900000000 15.0000151599966465 O
atom 7.7501563276490808 0.0000012000000000 16.7573127347162512 O
atom 6.8714944600048460 4.8192433499999998 15.8786781323519541 Pd
atom 5.4596624523561079 4.8192466300000012 17.2905564747177110 O
atom 5.9928724423741064 3.2128284100000006 15.0000000000000000 O
atom 7.7501655476534825 3.2128292299999996 16.7572985347191121 O
atom 2.2904691399974073 1.6064175900000004 20.4596984023433848 Pd
atom 9.1619771400028895 6.4256573100000001 18.1691832923471637 Pd
atom 0.8786217023656969 1.6064124199999998 21.8715218047043649 O
atom 3.7023054076472075 1.6064136899999999 19.0478166399789544 O
atom 1.4118050923555201 0.0000013200000000 19.5810562299784081 O
atom 3.1691091976315056 0.0000025100000000 21.3383657047009265 O
atom 2.2904719899976800 4.8192434999999998 20.4596975223442712 Pd
atom 9.1619771800028929 3.2128294799999999 18.1691832823471735 Pd
atom 0.8786228823660536 4.8192448500000005 21.8715206547047316 O
atom 3.7023067476477509 4.8192466800000009 19.0478148899793567 O
atom 1.4117958123511025 3.2128293900000005 19.5810704799755300 O
atom 3.1690981476267766 3.2128285900000004 21.3383809546975058 O
atom 6.8714924800046218 1.6064177100000003 20.4596758423515581 Pd
atom 4.5809846900023130 0.0000006100000000 18.1691844423485662 Pd
atom 5.4596608823556600 1.6064139700000002 21.8715548947174483 O
atom 8.2833324776365025 1.6064119000000001 19.0478518899882729 O
atom 5.9928562523708049 0.0000026000000000 19.5810076199952050 O
atom 7.7501540676470588 0.0000014600000000 21.3383162347157693 O
atom 6.8714897000043056 4.8192434700000009 20.4596768623506975 Pd
atom 4.5809847300022648 3.2128297300000006 18.1691846023485795 Pd
atom 5.4596593523551666 4.8192466300000012 21.8715564847169688 O
atom 8.2833315776360763 4.8192453999999998 19.0478532699879892 O
atom 5.9928679623755947 3.2128285299999999 19.5809921799988302 O
atom 7.7501639276514549 3.2128293000000006 21.3383020547188309 O
atom 2.2904666599986596 1.6064175800000002 25.0406913423428463 Pd
atom 9.1619751100006752 6.4256572800000011 22.7501874123467545 Pd
atom 0.8786231523686295 1.6064118500000002 26.4525093247050336 O
atom 3.7023009876461970 1.6064140200000003 23.6288168799777978 O
atom 1.4118035023545032 0.0000011400000000 24.1620564899781485 O
atom 3.1691050876337772 0.0000024300000000 25.9193553546998814 O
atom 2.2904694299988422 4.8192433800000005 25.0406907523436999 Pd
atom 9.1619751800006970 3.2128295200000001 22.7501873423467700 Pd
atom 0.8786243023689426 4.8192454200000006 26.4525083147053905 O
atom 3.7023020376467271 4.8192465300000009 23.6288151699781324 O
atom 1.4117934023500303 3.2128294600000005 24.1620709199750010 O
atom 3.1690933476289169 3.2128285399999994 25.9193710346962334 O
atom 6.8714917200056069 1.6064174299999998 25.0406696423515456 Pd
atom 4.5809822800003657 0.0000006900000000 22.7501877123480440 Pd
atom 5.4596583723570511 1.6064137100000000 26.4525473847168868 O
atom 8.2833368076355889 1.6064125200000001 23.6288518199898405 O
atom 5.9928559323698547 0.0000023900000000 24.1620076799953267 O
atom 7.7501506476495283 0.0000012000000000 25.9193052547149350 O
atom 6.8714887800052935 4.8192433499999998 25.0406706523506344 Pd
atom 4.5809823000004188 3.2128299000000009 22.7501875323480434 Pd
atom 5.4596567723565537 4.8192466300000012 26.4525489947163948 O
atom 8.2833356376351990 4.8192447500000002 23.6288530699894821 O
atom 5.9928667623745540 3.2128284100000006 24.1619925199986838 O
atom 7.7501598676539301 3.2128292299999996 25.9192910547177959 O
atom 9.1619714600033344 6.4256573100000001 27.3311758123458404 Pd
atom 3.7022997276476532 1.6064136899999999 28.2098091599776311 O
atom 9.1619715000033377 3.2128294799999999 27.3311758023458609 Pd
atom 3.7023010676481971 4.8192466800000009 28.2098074099780476 O
atom 4.5809790100027596 0.0000006100000000 27.3311769623472500 Pd
atom 8.2833267976369491 1.6064119000000001 28.2098444099869639 O
atom 4.5809790500027114 3.2128297300000006 27.3311771223472633 Pd
atom 8.2833258976365212 4.8192453999999998 28.2098457899866801 O
