#===============================================================================
# Created using the Atomic Simulation Environment (ASE)

# Mon Mar 23 14:01:16 2026

#=======================================================
lattice_vector 9.1619939600004408 0.0000000000000000 0.0000000000000000 
lattice_vector 0.0000000000000000 6.4256598000000000 0.0000000000000000 
lattice_vector 0.0000000000000000 0.0000000000000000 50.0813225152786572 
atom 0.8786345123677368 1.6064118500000002 15.0000010099996430 O
atom 0.8786356623680500 4.8192454200000006 15.0000000000000000 O
atom 5.4596697323561596 1.6064137100000000 15.0000390700115034 O
atom 5.4596681323556622 4.8192466300000012 15.0000406800110042 O
atom 2.2904748199969611 1.6064175900000004 18.1691826076366851 Pd
atom 9.1619828200024411 6.4256573100000001 15.8786674976404569 Pd
atom 0.8786273823652507 1.6064124199999998 19.5810060099976582 O
atom 3.7023110876467604 1.6064136899999999 16.7573008452722405 O
atom 1.4118107723550735 0.0000013200000000 17.2905404352717014 O
atom 3.1691148776310589 0.0000025100000000 19.0478499099942233 O
atom 2.2904776699972338 4.8192434999999998 18.1691817276375716 Pd
atom 9.1619828600024444 3.2128294799999999 15.8786674876404668 Pd
atom 0.8786285623656073 4.8192448500000005 19.5810048599980249 O
atom 3.7023124276473047 4.8192466800000009 16.7572990952726570 O
atom 1.4118014923506561 3.2128293900000005 17.2905546852688303 O
atom 3.1691038276263308 3.2128285900000004 19.0478651599907991 O
atom 6.8714981600041760 1.6064177100000003 18.1691600476448585 Pd
atom 4.5809903700018673 0.0000006100000000 15.8786686476418595 Pd
atom 5.4596665623552134 1.6064139700000002 19.5810391000107380 O
atom 8.2833381576360559 1.6064119000000001 16.7573360952815733 O
atom 5.9928619323703600 0.0000026000000000 17.2904918252884983 O
atom 7.7501597476466131 0.0000014600000000 19.0478004400090697 O
atom 6.8714953800038598 4.8192434700000009 18.1691610676439943 Pd
atom 4.5809904100018191 3.2128297300000006 15.8786688076418727 Pd
atom 5.4596650323547218 4.8192466300000012 19.5810406900102656 O
atom 8.2833372576356279 4.8192453999999998 16.7573374752812896 O
atom 5.9928736423751490 3.2128285299999999 17.2904763852921306 O
atom 7.7501696076510092 3.2128293000000006 19.0477862600121277 O
atom 2.2904723399982130 1.6064175800000002 22.7501755476361325 Pd
atom 9.1619807900002304 6.4256572800000011 20.4596716176400477 Pd
atom 0.8786288323681830 1.6064118500000002 24.1619935299983304 O
atom 3.7023066676457508 1.6064140200000003 21.3383010852710981 O
atom 1.4118091823540571 0.0000011400000000 21.8715406952714346 O
atom 3.1691107676333310 0.0000024300000000 23.6288395599931711 O
atom 2.2904751099983960 4.8192433800000005 22.7501749576369932 Pd
atom 9.1619808600002521 3.2128295200000001 20.4596715476400703 Pd
atom 0.8786299823684963 4.8192454200000006 24.1619925199986838 O
atom 3.7023077176462813 4.8192465300000009 21.3382993752714221 O
atom 1.4117990823495838 3.2128294600000005 21.8715551252683049 O
atom 3.1690990276284703 3.2128285399999994 23.6288552399895302 O
atom 6.8714974000051594 1.6064174299999998 22.7501538476448388 Pd
atom 4.5809879599999190 0.0000006900000000 20.4596719176413373 Pd
atom 5.4596640523566053 1.6064137100000000 24.1620315900101801 O
atom 8.2833424876351422 1.6064125200000001 21.3383360252831338 O
atom 5.9928616123694081 0.0000023900000000 21.8714918852886235 O
atom 7.7501563276490808 0.0000012000000000 23.6287894600082282 O
atom 6.8714944600048460 4.8192433499999998 22.7501548576439312 Pd
atom 4.5809879799999722 3.2128299000000009 20.4596717376413402 Pd
atom 5.4596624523561079 4.8192466300000012 24.1620332000096880 O
atom 8.2833413176347523 4.8192447500000002 21.3383372752827718 O
atom 5.9928724423741064 3.2128284100000006 21.8714767252919771 O
atom 7.7501655476534825 3.2128292299999996 23.6287752600110892 O
atom 2.2904691399974073 1.6064175900000004 27.3311751276353618 Pd
atom 9.1619771400028895 6.4256573100000001 25.0406600176391407 Pd
atom 0.8786217023656969 1.6064124199999998 28.7429985299963420 O
atom 3.7023054076472075 1.6064136899999999 25.9192933652709314 O
atom 1.4118050923555201 0.0000013200000000 26.4525329552703852 O
atom 3.1691091976315056 0.0000025100000000 28.2098424299929036 O
atom 2.2904719899976800 4.8192434999999998 27.3311742476362483 Pd
atom 9.1619771800028929 3.2128294799999999 25.0406600076391506 Pd
atom 0.8786228823660536 4.8192448500000005 28.7429973799967087 O
atom 3.7023067476477509 4.8192466800000009 25.9192916152713337 O
atom 1.4117958123511025 3.2128293900000005 26.4525472052675070 O
atom 3.1690981476267766 3.2128285900000004 28.2098576799894829 O
atom 6.8714924800046218 1.6064177100000003 27.3311525676435352 Pd
atom 4.5809846900023130 0.0000006100000000 25.0406611676405433 Pd
atom 5.4596608823556600 1.6064139700000002 28.7430316200094254 O
atom 8.2833324776365025 1.6064119000000001 25.9193286152802500 O
atom 5.9928562523708049 0.0000026000000000 26.4524843452871821 O
atom 7.7501540676470588 0.0000014600000000 28.2097929600077464 O
atom 6.8714897000043056 4.8192434700000009 27.3311535876426746 Pd
atom 4.5809847300022648 3.2128297300000006 25.0406613276405565 Pd
atom 5.4596593523551666 4.8192466300000012 28.7430332100089458 O
atom 8.2833315776360763 4.8192453999999998 25.9193299952799663 O
atom 5.9928679623755947 3.2128285299999999 26.4524689052908073 O
atom 7.7501639276514549 3.2128293000000006 28.2097787800108080 O
atom 2.2904666599986596 1.6064175800000002 31.9121680676348234 Pd
atom 9.1619751100006752 6.4256572800000011 29.6216641376387315 Pd
atom 0.8786231523686295 1.6064118500000002 33.3239860499970106 O
atom 3.7023009876461970 1.6064140200000003 30.5002936052697748 O
atom 1.4118035023545032 0.0000011400000000 31.0335332152701255 O
atom 3.1691050876337772 0.0000024300000000 32.7908320799918584 O
atom 2.2904694299988422 4.8192433800000005 31.9121674776356770 Pd
atom 9.1619751800006970 3.2128295200000001 29.6216640676387470 Pd
atom 0.8786243023689426 4.8192454200000006 33.3239850399973676 O
atom 3.7023020376467271 4.8192465300000009 30.5002918952701094 O
atom 1.4117934023500303 3.2128294600000005 31.0335476452669781 O
atom 3.1690933476289169 3.2128285399999994 32.7908477599882104 O
atom 6.8714917200056069 1.6064174299999998 31.9121463676435226 Pd
atom 4.5809822800003657 0.0000006900000000 29.6216644376400211 Pd
atom 5.4596583723570511 1.6064137100000000 33.3240241100088639 O
atom 8.2833368076355889 1.6064125200000001 30.5003285452818176 O
atom 5.9928559323698547 0.0000023900000000 31.0334844052873038 O
atom 7.7501506476495283 0.0000012000000000 32.7907819800069120 O
atom 6.8714887800052935 4.8192433499999998 31.9121473776426114 Pd
atom 4.5809823000004188 3.2128299000000009 29.6216642576400204 Pd
atom 5.4596567723565537 4.8192466300000012 33.3240257200083718 O
atom 8.2833356376351990 4.8192447500000002 30.5003297952814592 O
atom 5.9928667623745540 3.2128284100000006 31.0334692452906609 O
atom 7.7501598676539301 3.2128292299999996 32.7907677800097730 O
atom 9.1619714600033344 6.4256573100000001 34.2026525376378174 Pd
atom 3.7022997276476532 1.6064136899999999 35.0812858852696081 O
atom 9.1619715000033377 3.2128294799999999 34.2026525276378379 Pd
atom 3.7023010676481971 4.8192466800000009 35.0812841352700246 O
atom 4.5809790100027596 0.0000006100000000 34.2026536876392271 Pd
atom 8.2833267976369491 1.6064119000000001 35.0813211352789409 O
atom 4.5809790500027114 3.2128297300000006 34.2026538476392403 Pd
atom 8.2833258976365212 4.8192453999999998 35.0813225152786572 O
