#===============================================================================
# Created using the Atomic Simulation Environment (ASE)

# Mon Mar 23 14:01:17 2026

#=======================================================
lattice_vector 11.1906751718508950 0.0000000000000000 0.0000000000000000 
lattice_vector -0.0000046503111567 9.1619939599992613 0.0000000000000000 
lattice_vector 0.0000000000000000 0.0000000000000000 44.7733931920871626 
atom 7.5010758883371214 9.1619902772875683 15.8107039607535569 Pd
atom 9.1428232047992282 3.7023180382270562 15.0000146971610633 O
atom 0.7498661104870882 3.1691107682340802 15.0000453594041190 O
atom 10.2987330675010522 6.8715053672858843 15.8106962460434310 Pd
atom 9.1428529310687345 8.2833516382312062 15.0000350019442124 O
atom 0.7497979081566996 7.7501772882250659 15.0000000000000000 O
atom 3.5474854485279641 3.7023185682276729 15.0000109867053375 O
atom 6.3451940485038172 3.1691237782319952 15.0000433198669967 O
atom 1.9057306532963876 9.1619895072861279 15.8107011611226653 Pd
atom 4.7033942226324399 6.8715062272847982 15.8107005663633231 Pd
atom 3.5475130109418798 8.2833456382315465 15.0000297616762914 O
atom 6.3451518243290712 7.7501686482267091 15.0000140546634206 O
atom 1.9057339156074244 4.5809970572865639 15.8107021237435887 Pd
atom 8.4539504630685283 2.2904823109308352 18.4411089642819128 Pd
atom 3.8114768935244649 9.1619884045747657 21.0714988743393228 Pd
atom 9.6098334132626544 0.8786393899868195 19.2517668930175390 O
atom 7.2980266060546652 3.7023160518715965 17.6304109989812474 O
atom 8.6569984964806199 1.4118192563467227 16.6213989160242761 O
atom 10.0957267712417611 3.1691215718749195 17.6304369157156096 O
atom 10.2987518316418232 2.2904860172883690 15.8107078119744600 Pd
atom 5.6562751048375590 9.1619894109305378 18.4411031294063257 Pd
atom 0.2639548046084276 0.8786414763420436 16.6213718609754437 O
atom 5.4532242099865673 3.7023161655142554 20.2608096107468327 O
atom 6.8122117203910175 1.4118082199923063 19.2518033649156166 O
atom 8.2509422875253229 3.1691088955212798 20.2608402729898884 O
atom 8.4539304578833327 6.8715073709282191 18.4410963813895989 Pd
atom 7.5010766159320781 4.5809974472870385 15.8107067610941669 Pd
atom 9.6098611804468419 5.4596746099899258 19.2517902698013543 O
atom 7.2980537481468604 8.2833518718753538 17.6304298333803118 O
atom 8.6569554920022913 5.9928716863408376 16.6213719128409032 O
atom 10.0956841346309112 7.7501671318696204 17.6304071413986065 O
atom 6.6091340726883958 6.8715034945730844 21.0714911596292040 Pd
atom 5.6562773673531437 4.5809965309308183 18.4411035496169582 Pd
atom 0.2639850900595326 5.4596739463456165 16.6213962099908628 O
atom 5.4532539362560772 8.2833497655184036 20.2608299155299818 O
atom 6.8121458107352417 5.9928815799839663 19.2517574881780256 O
atom 8.2508740851949369 7.7501754155122660 20.2607949135857695 O
atom 4.7034150869469267 2.2904828872875838 15.8107134220124479 Pd
atom 0.0609323526664484 9.1619885309303299 18.4410969289139786 Pd
atom 5.8593021530357969 0.8786360363439762 16.6213749213801876 O
atom 11.0485616255661991 3.7023166955148716 20.2608059002911105 O
atom 1.2168580349268237 1.4118170699898476 19.2517942233951906 O
atom 2.6555950536911568 3.1691219055191944 20.2608382334527661 O
atom 2.8586171601179604 2.2904848009322536 18.4411071068322912 Pd
atom 9.4068068303346291 9.1619876345733253 21.0714960747084348 Pd
atom 4.0145002613848320 0.8786362799867171 19.2517737891991665 O
atom 1.7026827440962335 3.7023189718701879 17.6304099684870828 O
atom 3.0616702498300894 1.4118087263482857 16.6214034506661577 O
atom 4.5004092299649594 3.1691117918783176 17.6304464056748920 O
atom 1.0137952278197873 6.8715043545719965 21.0714954799490926 Pd
atom 0.0609338393322451 4.5809960809299195 18.4411001272638551 Pd
atom 5.8593260291983205 5.4596752163466489 16.6213951906000297 O
atom 11.0485891879801166 8.2833437655187456 20.2608246752620644 O
atom 1.2168151769662270 5.9928682299839728 19.2517673596126286 O
atom 2.6555528295164166 7.7501667755139083 20.2608089682491936 O
atom 2.8585979374962638 6.8715025109297132 18.4410952193502666 Pd
atom 9.4068100926456584 4.5809951845737640 21.0714970373293617 Pd
atom 4.0145262487662974 5.4596727499896121 19.2517958200250270 O
atom 1.7027125762531363 8.2833438018742438 17.6304309582419059 O
atom 3.0616043129487256 5.9928808763399006 16.6213577869042908 O
atom 4.5003419003648339 7.7501775718694121 17.6304016827784835 O
atom 4.7643514682558648 2.2904804382180344 23.7019038778676858 Pd
atom 0.1218778987118002 9.1619865318619667 26.3322937879250958 Pd
atom 5.9202344184499909 0.8786375172740185 24.5125618066033120 O
atom 3.6084276112420124 3.7023141791587961 22.8912059125670169 O
atom 4.9673995016679617 1.4118173836339221 21.8821938296100456 O
atom 6.4061277764291011 3.1691196991621187 22.8912318293013790 O
atom 6.6091528368291650 2.2904841445755681 21.0715027255602294 Pd
atom 1.9666761100248971 9.1619875382177387 23.7018980429920987 Pd
atom 7.7650309816466603 0.8786396036292428 21.8821667745612132 O
atom 1.7636252151739122 3.7023142928014545 25.5216045243326057 O
atom 3.1226127255783580 1.4118063472795057 24.5125982785013896 O
atom 4.5613432927126683 3.1691070228084786 25.5216351865756650 O
atom 4.7643314630706755 6.8715054982154173 23.7018912949753684 Pd
atom 3.8114776211194181 4.5809955745742368 21.0715016746799364 Pd
atom 5.9202621856341819 5.4596727372771250 24.5125851833871309 O
atom 3.6084547533342026 8.2833499991625548 22.8912247469660848 O
atom 4.9673564971896358 5.9928698136280358 21.8821668264266727 O
atom 6.4060851398182486 7.7501652591568186 22.8912020549843795 O
atom 2.9195350778757359 6.8715016218602827 26.3322860732149806 Pd
atom 1.9666783725404906 4.5809946582180165 23.7018984632027312 Pd
atom 7.7650612670977726 5.4596720736328157 21.8821911235766358 O
atom 1.7636549414434199 8.2833478928056046 25.5216248291157513 O
atom 3.1225468159225822 5.9928797072711655 24.5125524017637986 O
atom 4.5612750903822770 7.7501735427994642 25.5215898271715425 O
atom 1.0138160921342687 2.2904810145747829 21.0715083355982173 Pd
atom 7.5620085297046842 9.1619866582175309 23.7018918424997480 Pd
atom 2.1697031582231401 0.8786341636311753 21.8821698349659606 O
atom 7.3589626307535436 3.7023148228020708 25.5216008138768800 O
atom 8.7179342119650656 1.4118151972770472 24.5125891369809672 O
atom 10.1566712307293887 3.1691200328063935 25.5216331470385356 O
atom 10.3596933371561946 2.2904829282194528 23.7019020204180606 Pd
atom 5.7172078355219673 9.1619857618605263 26.3322909882942113 Pd
atom 0.3249012665721743 0.8786344072739164 24.5125687027849395 O
atom 9.2037589211344724 3.7023170991573866 22.8912048820728558 O
atom 10.5627464268683244 1.4118068536354851 21.8821983642519271 O
atom 0.8108102351523013 3.1691099191655168 22.8912413192606650 O
atom 8.5148714048580203 6.8715024818591957 26.3322903935348691 Pd
atom 7.5620100163704773 4.5809942082171178 23.7018950408496281 Pd
atom 2.1697270343856636 5.4596733436338472 21.8821901041858027 O
atom 7.3589901931674628 8.2833418928059466 25.5216195888478339 O
atom 8.7178913540044594 5.9928663572711729 24.5125622731983981 O
atom 10.1566290065546543 7.7501649028011066 25.5216038818349631 O
atom 10.3596741145344975 6.8715006382169115 23.7018901329360361 Pd
atom 5.7172110978329993 4.5809933118609623 26.3322919509151276 Pd
atom 0.3249272539536447 5.4596708772768103 24.5125907336108000 O
atom 9.2037887532913736 8.2833419291614447 22.8912258718276753 O
atom 10.5626804899869633 5.9928790036270998 21.8821527004900602 O
atom 0.8107429055521735 7.7501756991566104 22.8911965963642530 O
atom 1.0747524734432075 2.2904785655052335 28.9626987914534553 Pd
atom 2.2306354236373336 0.8786356445612178 29.7733567201890850 O
atom 11.1095037882802412 3.7023123064459948 28.1520008261527863 O
atom 1.2778005068553095 1.4118155109211212 27.1429887431958221 O
atom 2.7165287816164487 3.1691178264493178 28.1520267428871520 O
atom 2.9195538420165055 2.2904822718627673 26.3322976391460060 Pd
atom 9.4677522870631350 9.1619856655049379 28.9626929565778681 Pd
atom 4.0754319868340056 0.8786377309164422 27.1429616881469897 O
atom 10.6236889026165944 1.4118044745667049 29.7733931920871626 O
atom 1.0747324682580177 6.8715036255026174 28.9626862085611378 Pd
atom 0.1218786263067606 4.5809937018614360 26.3322965882657130 Pd
atom 2.2306631908215144 5.4596708645643250 29.7733800969729003 O
atom 11.1095309303724452 8.2833481264497539 28.1520196605518507 O
atom 1.2777575023769734 5.9928679409152350 27.1429617400124386 O
atom 2.7164861450055962 7.7501633864440196 28.1519969685701597 O
atom 9.4677545495787285 4.5809927855052166 28.9626933767885077 Pd
atom 4.0754622722851144 5.4596702009200149 27.1429860371624088 O
atom 10.6236229929608186 5.9928778345583646 29.7733473153495751 O
atom 8.5148922691725062 2.2904791418619821 26.3323032491839939 Pd
atom 3.8724095348920233 9.1619847855047301 28.9626867560855246 Pd
atom 9.6707793352613773 0.8786322909183746 27.1429647485517336 O
atom 5.0283352171523985 1.4118133245642464 29.7733840505667402 O
atom 6.6700943423435408 2.2904810555066519 28.9626969340038443 Pd
atom 7.8259774436104061 0.8786325345611156 29.7733636163707160 O
atom 5.5141599263218133 3.7023152264445858 28.1519997956586323 O
atom 6.8731474320556698 1.4118049809226845 27.1429932778376966 O
atom 8.3118864121905389 3.1691080464527164 28.1520362328464415 O
atom 3.8724110215578098 4.5809923355043178 28.9626899544353975 Pd
atom 9.6708032114239018 5.4596714709210472 27.1429850177715792 O
atom 5.0282923591918021 5.9928644845583712 29.7733571867841746 O
atom 6.6700751197218464 6.8714987655041107 28.9626850465218126 Pd
atom 7.8260034309918769 5.4596690045640095 29.7733856471965694 O
atom 5.5141897584787110 8.2833400564486439 28.1520207854134483 O
atom 6.8730814951743007 5.9928771309142990 27.1429476140758297 O
atom 8.3118190825904108 7.7501738264438114 28.1519915099500224 O
