#===============================================================================
# Created using the Atomic Simulation Environment (ASE)

# Mon Mar 23 14:01:15 2026

#=======================================================
lattice_vector 11.1906751718508950 0.0000000000000000 0.0000000000000000 
lattice_vector 3.6895943445015020 10.5649482138552457 0.0000000000000000 
lattice_vector 0.0000000000000000 0.0000000000000000 32.2811480383711213 
atom 4.7643468179447055 3.3826550380116815 17.2811228073699183 Pd
atom 5.9202297681388325 1.7546296356981350 17.2811065751603508 O
atom 3.6084229609308585 5.0106924154909915 17.2810997484303144 O
atom 4.9673948513568149 3.5267933802725495 15.2655292070845938 O
atom 6.4061231261179579 4.5482895861072903 17.0156190946181098 O
atom 6.6091481865180128 4.6924612651954378 15.0000226628552724 Pd
atom 1.9666761100249095 1.3963319680516337 16.1405743789333371 Pd
atom 7.7650263313355135 3.0644314104307933 15.0000109315050274 O
atom 5.4532195596754187 6.3204947357866352 15.0000029538200010 O
atom 8.4539258075721815 9.9749617465784350 15.0000275587224827 Pd
atom 3.8114729708082691 6.6788090711763024 16.1405773544990510 Pd
atom 9.6098565301356924 8.3469272490427233 15.0000475701462506 O
atom 3.6084547533342124 1.0380445971764651 15.0000371029980073 O
atom 6.6091294223772552 8.6651585459259746 17.2811220909516550 Pd
atom 7.7650566167866204 7.0371221851448915 17.2811480383711213 O
atom 5.4532492859449269 10.2931885042624156 17.2811371161815686 O
atom 6.8121411604240851 8.8093443281959161 15.2655284900487729 O
atom 8.2508694348837892 9.8308334660797296 17.0156136569605465 O
atom 12.2044866136740158 4.6924557573299666 15.0000259693411806 Pd
atom 7.5620085297046886 1.3963342924322093 16.1405685636293263 Pd
atom 2.1696985079119964 3.0644251689045676 15.0000108766728992 O
atom 11.0485569752550443 6.3204970430208558 15.0000000000000000 O
atom 10.3596886868450415 3.3826581222713945 17.2811224364680669 Pd
atom 11.5155717881119148 1.7546235047447321 17.2811110069581844 O
atom 9.2037542708233211 5.0106954608663905 17.2811003087861579 O
atom 10.5627417765571732 3.5267819905695137 15.2655278961655085 O
atom 12.0014807566920503 4.5482763793205834 17.0156224544463086 O
atom 12.2044657493595281 8.6651571404282723 17.2811262657975462 Pd
atom 13.3603975559254042 7.0371237941021638 17.2811477867428565 O
atom 11.0485845376689724 10.2931859104023697 17.2811295840972647 O
atom 12.4074856985059707 8.8093278355228080 15.2655304030189285 O
atom 13.8462233510561514 9.8308189749220194 17.0156215429914681 O
atom 14.0492684590359982 9.9749581105894389 15.0000241309674038 Pd
atom 9.4068054423345107 6.6788110421246891 16.1405731387567499 Pd
atom 4.0145215984551434 8.3469228723148241 15.0000514571549779 O
atom 9.2037887532913789 1.0380370386933513 15.0000340600447402 O
