#===============================================================================
# Created using the Atomic Simulation Environment (ASE)

# Mon Mar 23 14:01:15 2026

#=======================================================
lattice_vector 11.1906751718508950 0.0000000000000000 0.0000000000000000 
lattice_vector 3.6895943445015020 10.5649482138552457 0.0000000000000000 
lattice_vector 0.0000000000000000 0.0000000000000000 36.5778167803166596 
atom 8.4539458127573663 6.0022590077028530 17.0155949112044169 Pd
atom 3.8114768935244636 2.7061347446105071 18.1561432824306195 Pd
atom 9.6098287629514996 4.3742336053893061 17.0155786789948422 O
atom 7.2980219557435149 7.6302963851821630 17.0155718522647987 O
atom 8.6569938461694669 6.1463973499637206 15.0000013109190817 O
atom 10.0957221209306045 7.1678935557984644 16.7500911984526013 O
atom 5.6562751048375564 4.0159359377428068 15.8750464827678250 Pd
atom 6.8122070700798627 4.8365831246288193 17.2811006642966447 O
atom 7.5010719656209313 9.2984130408674748 15.8750494583335424 Pd
atom 8.6569508416911383 10.1191310048441192 17.2811038238423365 O
atom 6.6091340726884065 0.7198143017619025 17.0155941947861393 Pd
atom 11.4546556115992768 9.6567261548360612 17.0156201422056128 O
atom 5.4532539362560808 2.3478442600983396 17.0156092200160565 O
atom 6.8121458107352444 0.8640000840318399 15.0000005938832643 O
atom 8.2508740851949476 1.8854892219156529 16.7500857607950451 O
atom 11.2516075245173468 4.0159382621233801 15.8750406674638178 Pd
atom 12.4075285564665716 4.8365953514095033 17.2810971435458356 O
atom 2.8586125098068078 6.0022620919625655 17.0155945403025584 Pd
atom 9.4068068303346202 2.7061354709305765 18.1561404711507599 Pd
atom 4.0144956110736763 4.3742274744359024 17.0155831107926758 O
atom 12.8933532656359766 7.6302994305575629 17.0155724126206422 O
atom 3.0616655995189346 6.1463859602606856 15.0000000000000000 O
atom 4.5004045796538055 7.1678803490117540 16.7500945582808107 O
atom 1.0137952278197857 0.7198128962641953 17.0155983696320412 Pd
atom 11.2516043608719869 7.9886127200399786 18.1561440158544656 Pd
atom 5.8593213788871719 9.6567277637933344 17.0156198905773515 O
atom 11.0485891879801166 2.3478416662382959 17.0156016879317562 O
atom 1.2168151769662261 0.8639835913587356 15.0000025068534164 O
atom 2.6555528295164113 1.8854747307579431 16.7500936468259596 O
atom 13.0964044371471662 9.2984150118158588 15.8750452425912343 Pd
atom 14.2522748344884640 10.1191460084565747 17.2810961498745712 O
atom 4.7643468179447055 3.3826550380116815 21.5777915493154566 Pd
atom 5.9202297681388325 1.7546296356981350 21.5777753171058890 O
atom 3.6084229609308585 5.0106924154909915 21.5777684903758527 O
atom 4.9673948513568149 3.5267933802725495 19.5621979490301321 O
atom 6.4061231261179579 4.5482895861072903 21.3122878365636481 O
atom 6.6091481865180128 4.6924612651954378 19.2966914048008107 Pd
atom 1.9666761100249095 1.3963319680516337 20.4372431208788754 Pd
atom 7.7650263313355135 3.0644314104307933 19.2966796734505657 O
atom 5.4532195596754187 6.3204947357866352 19.2966716957655393 O
atom 8.2509376372141716 5.8580784518134843 19.0311887885379782 O
atom 8.4539258075721815 9.9749617465784350 19.2966963006680210 Pd
atom 3.8114729708082691 6.6788090711763024 20.4372460964445892 Pd
atom 9.6098565301356924 8.3469272490427233 19.2967163120917888 O
atom 3.6084547533342124 1.0380445971764651 19.2967058449435456 O
atom 6.4060851398182557 0.5756744189932899 19.0311878873271780 O
atom 6.6091294223772552 8.6651585459259746 21.5777908328971932 Pd
atom 5.6562727170419942 7.9886114061299445 18.1561472078196928 Pd
atom 7.7650566167866204 7.0371221851448915 21.5778167803166596 O
atom 5.4532492859449269 10.2931885042624156 21.5778058581271068 O
atom 6.8121411604240851 8.8093443281959161 19.5621972319943112 O
atom 8.2508694348837892 9.8308334660797296 21.3122823989060848 O
atom 12.2044866136740158 4.6924557573299666 19.2966947112867189 Pd
atom 7.5620085297046886 1.3963342924322093 20.4372373055748646 Pd
atom 2.1696985079119964 3.0644251689045676 19.2966796186184375 O
atom 11.0485569752550443 6.3204970430208558 19.2966687419455383 O
atom 2.6555904033800095 5.8580907497566965 19.0311934981398849 O
atom 10.3596886868450415 3.3826581222713945 21.5777911784136052 Pd
atom 11.5155717881119148 1.7546235047447321 21.5777797489037226 O
atom 9.2037542708233211 5.0106954608663905 21.5777690507316962 O
atom 10.5627417765571732 3.5267819905695137 19.5621966381110468 O
atom 12.0014807566920503 4.5482763793205834 21.3122911963918469 O
atom 12.2044657493595281 8.6651571404282723 21.5777950077430845 Pd
atom 13.3603975559254042 7.0371237941021638 21.5778165286883947 O
atom 11.0485845376689724 10.2931859104023697 21.5777983260428030 O
atom 12.4074856985059707 8.8093278355228080 19.5621991449644668 O
atom 13.8462233510561514 9.8308189749220194 21.3122902849370064 O
atom 14.0492684590359982 9.9749581105894389 19.2966928729129421 Pd
atom 9.4068054423345107 6.6788110421246891 20.4372418807022882 Pd
atom 4.0145215984551434 8.3469228723148241 19.2967201991005162 O
atom 9.2037887532913789 1.0380370386933513 19.2967028019902784 O
atom 0.8107429055521764 0.5756861907420102 19.0311883521513110 O
