#===============================================================================
# Created using the Atomic Simulation Environment (ASE)

# Mon Mar 23 14:01:16 2026

#=======================================================
lattice_vector 9.1619939600004408 0.0000000000000000 0.0000000000000000 
lattice_vector 0.0000000000000000 6.4256598000000000 0.0000000000000000 
lattice_vector 0.0000000000000000 0.0000000000000000 54.6623101752793161 
atom 0.8786330623648043 1.6064124199999998 15.0000011499996333 O
atom 0.8786342423651609 4.8192448500000005 15.0000000000000000 O
atom 5.4596722423547668 1.6064139700000002 15.0000342400127167 O
atom 5.4596707123542751 4.8192466300000012 15.0000358300122443 O
atom 2.2904780199977668 1.6064175800000002 18.1691706876381112 Pd
atom 9.1619864699997819 6.4256572800000011 15.8786667576420228 Pd
atom 0.8786345123677368 1.6064118500000002 19.5809886700003020 O
atom 3.7023123476453037 1.6064140200000003 16.7572962252730733 O
atom 1.4118148623536104 0.0000011400000000 17.2905358352734098 O
atom 3.1691164476328844 0.0000024300000000 19.0478346999951462 O
atom 2.2904807899979498 4.8192433800000005 18.1691700976389718 Pd
atom 9.1619865399998037 3.2128295200000001 15.8786666876420490 Pd
atom 0.8786356623680500 4.8192454200000006 19.5809876600006589 O
atom 3.7023133976458347 4.8192465300000009 16.7572945152733972 O
atom 1.4118047623491372 3.2128294600000005 17.2905502652702801 O
atom 3.1691047076280245 3.2128285399999994 19.0478503799915089 O
atom 6.8715030800047145 1.6064174299999998 18.1691489876468140 Pd
atom 4.5809936399994733 0.0000006900000000 15.8786670576433124 Pd
atom 5.4596697323561596 1.6064137100000000 19.5810267300121623 O
atom 8.2833481676346956 1.6064125200000001 16.7573311652851160 O
atom 5.9928672923689614 0.0000023900000000 17.2904870252905987 O
atom 7.7501620076486351 0.0000012000000000 19.0477846000102069 O
atom 6.8715001400044011 4.8192433499999998 18.1691499976459028 Pd
atom 4.5809936599995256 3.2128299000000009 15.8786668776433189 Pd
atom 5.4596681323556622 4.8192466300000012 19.5810283400116631 O
atom 8.2833469976343039 4.8192447500000002 16.7573324152847505 O
atom 5.9928781223736607 3.2128284100000006 17.2904718652939557 O
atom 7.7501712276530377 3.2128292299999996 19.0477704000130643 O
atom 2.2904748199969611 1.6064175900000004 22.7501702676373441 Pd
atom 9.1619828200024411 6.4256573100000001 20.4596551576411159 Pd
atom 0.8786273823652507 1.6064124199999998 24.1619936699983171 O
atom 3.7023110876467604 1.6064136899999999 21.3382885052728994 O
atom 1.4118107723550735 0.0000013200000000 21.8715280952723603 O
atom 3.1691148776310589 0.0000025100000000 23.6288375699948823 O
atom 2.2904776699972338 4.8192434999999998 22.7501693876382305 Pd
atom 9.1619828600024444 3.2128294799999999 20.4596551476411257 Pd
atom 0.8786285623656073 4.8192448500000005 24.1619925199986838 O
atom 3.7023124276473047 4.8192466800000009 21.3382867552733160 O
atom 1.4118014923506561 3.2128293900000005 21.8715423452694893 O
atom 3.1691038276263308 3.2128285900000004 23.6288528199914580 O
atom 6.8714981600041760 1.6064177100000003 22.7501477076455174 Pd
atom 4.5809903700018673 0.0000006100000000 20.4596563076425184 Pd
atom 5.4596665623552134 1.6064139700000002 24.1620267600113969 O
atom 8.2833381576360559 1.6064119000000001 21.3383237552822322 O
atom 5.9928619323703600 0.0000026000000000 21.8714794852891572 O
atom 7.7501597476466131 0.0000014600000000 23.6287881000097286 O
atom 6.8714953800038598 4.8192434700000009 22.7501487276446532 Pd
atom 4.5809904100018191 3.2128297300000006 20.4596564676425317 Pd
atom 5.4596650323547218 4.8192466300000012 24.1620283500109245 O
atom 8.2833372576356279 4.8192453999999998 21.3383251352819485 O
atom 5.9928736423751490 3.2128285299999999 21.8714640452927895 O
atom 7.7501696076510092 3.2128293000000006 23.6287739200127866 O
atom 2.2904723399982130 1.6064175800000002 27.3311632076367914 Pd
atom 9.1619807900002304 6.4256572800000011 25.0406592776407066 Pd
atom 0.8786288323681830 1.6064118500000002 28.7429811899989893 O
atom 3.7023066676457508 1.6064140200000003 25.9192887452717571 O
atom 1.4118091823540571 0.0000011400000000 26.4525283552720936 O
atom 3.1691107676333310 0.0000024300000000 28.2098272199938300 O
atom 2.2904751099983960 4.8192433800000005 27.3311626176376521 Pd
atom 9.1619808600002521 3.2128295200000001 25.0406592076407293 Pd
atom 0.8786299823684963 4.8192454200000006 28.7429801799993427 O
atom 3.7023077176462813 4.8192465300000009 25.9192870352720810 O
atom 1.4117990823495838 3.2128294600000005 26.4525427852689639 O
atom 3.1690990276284703 3.2128285399999994 28.2098428999901891 O
atom 6.8714974000051594 1.6064174299999998 27.3311415076454978 Pd
atom 4.5809879599999190 0.0000006900000000 25.0406595776419962 Pd
atom 5.4596640523566053 1.6064137100000000 28.7430192500108390 O
atom 8.2833424876351422 1.6064125200000001 25.9193236852837927 O
atom 5.9928616123694081 0.0000023900000000 26.4524795452892825 O
atom 7.7501563276490808 0.0000012000000000 28.2097771200088872 O
atom 6.8714944600048460 4.8192433499999998 27.3311425176445901 Pd
atom 4.5809879799999722 3.2128299000000009 25.0406593976419991 Pd
atom 5.4596624523561079 4.8192466300000012 28.7430208600103470 O
atom 8.2833413176347523 4.8192447500000002 25.9193249352834307 O
atom 5.9928724423741064 3.2128284100000006 26.4524643852926360 O
atom 7.7501655476534825 3.2128292299999996 28.2097629200117481 O
atom 2.2904691399974073 1.6064175900000004 31.9121627876360208 Pd
atom 9.1619771400028895 6.4256573100000001 29.6216476776397997 Pd
atom 0.8786217023656969 1.6064124199999998 33.3239861899970009 O
atom 3.7023054076472075 1.6064136899999999 30.5002810252715904 O
atom 1.4118050923555201 0.0000013200000000 31.0335206152710441 O
atom 3.1691091976315056 0.0000025100000000 32.7908300899935625 O
atom 2.2904719899976800 4.8192434999999998 31.9121619076369072 Pd
atom 9.1619771800028929 3.2128294799999999 29.6216476676398095 Pd
atom 0.8786228823660536 4.8192448500000005 33.3239850399973676 O
atom 3.7023067476477509 4.8192466800000009 30.5002792752719927 O
atom 1.4117958123511025 3.2128293900000005 31.0335348652681660 O
atom 3.1690981476267766 3.2128285900000004 32.7908453399901418 O
atom 6.8714924800046218 1.6064177100000003 31.9121402276441941 Pd
atom 4.5809846900023130 0.0000006100000000 29.6216488276412022 Pd
atom 5.4596608823556600 1.6064139700000002 33.3240192800100843 O
atom 8.2833324776365025 1.6064119000000001 30.5003162752809089 O
atom 5.9928562523708049 0.0000026000000000 31.0334720052878410 O
atom 7.7501540676470588 0.0000014600000000 32.7907806200084053 O
atom 6.8714897000043056 4.8192434700000009 31.9121412476433335 Pd
atom 4.5809847300022648 3.2128297300000006 29.6216489876412155 Pd
atom 5.4596593523551666 4.8192466300000012 33.3240208700096048 O
atom 8.2833315776360763 4.8192453999999998 30.5003176552806252 O
atom 5.9928679623755947 3.2128285299999999 31.0334565652914662 O
atom 7.7501639276514549 3.2128293000000006 32.7907664400114669 O
atom 2.2904666599986596 1.6064175800000002 36.4931557276354823 Pd
atom 9.1619751100006752 6.4256572800000011 34.2026517976393905 Pd
atom 0.8786231523686295 1.6064118500000002 37.9049737099976696 O
atom 3.7023009876461970 1.6064140200000003 35.0812812652704338 O
atom 1.4118035023545032 0.0000011400000000 35.6145208752707845 O
atom 3.1691050876337772 0.0000024300000000 37.3718197399925174 O
atom 2.2904694299988422 4.8192433800000005 36.4931551376363359 Pd
atom 9.1619751800006970 3.2128295200000001 34.2026517276394060 Pd
atom 0.8786243023689426 4.8192454200000006 37.9049726999980265 O
atom 3.7023020376467271 4.8192465300000009 35.0812795552707684 O
atom 1.4117934023500303 3.2128294600000005 35.6145353052676370 O
atom 3.1690933476289169 3.2128285399999994 37.3718354199888694 O
atom 6.8714917200056069 1.6064174299999998 36.4931340276441816 Pd
atom 4.5809822800003657 0.0000006900000000 34.2026520976406800 Pd
atom 5.4596583723570511 1.6064137100000000 37.9050117700095228 O
atom 8.2833368076355889 1.6064125200000001 35.0813162052824765 O
atom 5.9928559323698547 0.0000023900000000 35.6144720652879627 O
atom 7.7501506476495283 0.0000012000000000 37.3717696400075710 O
atom 6.8714887800052935 4.8192433499999998 36.4931350376432704 Pd
atom 4.5809823000004188 3.2128299000000009 34.2026519176406794 Pd
atom 5.4596567723565537 4.8192466300000012 37.9050133800090308 O
atom 8.2833356376351990 4.8192447500000002 35.0813174552821181 O
atom 5.9928667623745540 3.2128284100000006 35.6144569052913198 O
atom 7.7501598676539301 3.2128292299999996 37.3717554400104319 O
atom 9.1619714600033344 6.4256573100000001 38.7836401976384764 Pd
atom 3.7022997276476532 1.6064136899999999 39.6622735452702671 O
atom 9.1619715000033377 3.2128294799999999 38.7836401876384969 Pd
atom 3.7023010676481971 4.8192466800000009 39.6622717952706836 O
atom 4.5809790100027596 0.0000006100000000 38.7836413476398860 Pd
atom 8.2833267976369491 1.6064119000000001 39.6623087952795998 O
atom 4.5809790500027114 3.2128297300000006 38.7836415076398993 Pd
atom 8.2833258976365212 4.8192453999999998 39.6623101752793161 O
