#===============================================================================
# Created using the Atomic Simulation Environment (ASE)

# Mon Mar 23 14:01:17 2026

#=======================================================
lattice_vector 11.1906751718508950 0.0000000000000000 0.0000000000000000 
lattice_vector -0.0000046503111567 9.1619939599992613 0.0000000000000000 
lattice_vector 0.0000000000000000 0.0000000000000000 39.5125982785013932 
atom 3.8114768935244649 9.1619884045747657 15.8107039607535533 Pd
atom 5.4532242099865673 3.7023161655142554 15.0000146971610633 O
atom 8.2509422875253229 3.1691088955212798 15.0000453594041190 O
atom 6.6091340726883958 6.8715034945730844 15.8106962460434346 Pd
atom 5.4532539362560772 8.2833497655184036 15.0000350019442124 O
atom 8.2508740851949369 7.7501754155122660 15.0000000000000000 O
atom 11.0485616255661991 3.7023166955148716 15.0000109867053411 O
atom 2.6555950536911568 3.1691219055191944 15.0000433198669967 O
atom 9.4068068303346291 9.1619876345733253 15.8107011611226653 Pd
atom 1.0137952278197873 6.8715043545719965 15.8107005663633231 Pd
atom 11.0485891879801166 8.2833437655187456 15.0000297616762950 O
atom 2.6555528295164166 7.7501667755139083 15.0000140546634242 O
atom 9.4068100926456584 4.5809951845737640 15.8107021237435923 Pd
atom 4.7643514682558648 2.2904804382180344 18.4411089642819164 Pd
atom 0.1218778987118002 9.1619865318619667 21.0714988743393263 Pd
atom 5.9202344184499909 0.8786375172740185 19.2517668930175425 O
atom 3.6084276112420124 3.7023141791587961 17.6304109989812474 O
atom 4.9673995016679617 1.4118173836339221 16.6213989160242761 O
atom 6.4061277764291011 3.1691196991621187 17.6304369157156096 O
atom 6.6091528368291650 2.2904841445755681 15.8107078119744600 Pd
atom 1.9666761100248971 9.1619875382177387 18.4411031294063292 Pd
atom 7.7650309816466603 0.8786396036292428 16.6213718609754437 O
atom 1.7636252151739122 3.7023142928014545 20.2608096107468363 O
atom 3.1226127255783580 1.4118063472795057 19.2518033649156202 O
atom 4.5613432927126683 3.1691070228084786 20.2608402729898955 O
atom 4.7643314630706755 6.8715054982154173 18.4410963813895989 Pd
atom 3.8114776211194181 4.5809955745742368 15.8107067610941669 Pd
atom 5.9202621856341819 5.4596727372771250 19.2517902698013614 O
atom 3.6084547533342026 8.2833499991625548 17.6304298333803153 O
atom 4.9673564971896358 5.9928698136280358 16.6213719128409032 O
atom 6.4060851398182486 7.7501652591568186 17.6304071413986101 O
atom 2.9195350778757359 6.8715016218602827 21.0714911596292112 Pd
atom 1.9666783725404906 4.5809946582180165 18.4411035496169617 Pd
atom 7.7650612670977726 5.4596720736328157 16.6213962099908663 O
atom 1.7636549414434199 8.2833478928056046 20.2608299155299818 O
atom 3.1225468159225822 5.9928797072711655 19.2517574881780291 O
atom 4.5612750903822770 7.7501735427994642 20.2607949135857730 O
atom 1.0138160921342687 2.2904810145747829 15.8107134220124479 Pd
atom 7.5620085297046842 9.1619866582175309 18.4410969289139786 Pd
atom 2.1697031582231401 0.8786341636311753 16.6213749213801911 O
atom 7.3589626307535436 3.7023148228020708 20.2608059002911105 O
atom 8.7179342119650656 1.4118151972770472 19.2517942233951977 O
atom 10.1566712307293887 3.1691200328063935 20.2608382334527661 O
atom 10.3596933371561946 2.2904829282194528 18.4411071068322912 Pd
atom 5.7172078355219673 9.1619857618605263 21.0714960747084419 Pd
atom 0.3249012665721743 0.8786344072739164 19.2517737891991700 O
atom 9.2037589211344724 3.7023170991573866 17.6304099684870863 O
atom 10.5627464268683244 1.4118068536354851 16.6214034506661577 O
atom 0.8108102351523013 3.1691099191655168 17.6304464056748955 O
atom 8.5148714048580203 6.8715024818591957 21.0714954799490997 Pd
atom 7.5620100163704773 4.5809942082171178 18.4411001272638586 Pd
atom 2.1697270343856636 5.4596733436338472 16.6213951906000332 O
atom 7.3589901931674628 8.2833418928059466 20.2608246752620644 O
atom 8.7178913540044594 5.9928663572711729 19.2517673596126286 O
atom 10.1566290065546543 7.7501649028011066 20.2608089682491936 O
atom 10.3596741145344975 6.8715006382169115 18.4410952193502666 Pd
atom 5.7172110978329993 4.5809933118609623 21.0714970373293582 Pd
atom 0.3249272539536447 5.4596708772768103 19.2517958200250305 O
atom 9.2037887532913736 8.2833419291614447 17.6304309582419059 O
atom 10.5626804899869633 5.9928790036270998 16.6213577869042908 O
atom 0.8107429055521735 7.7501756991566104 17.6304016827784835 O
atom 1.0747524734432075 2.2904785655052335 23.7019038778676858 Pd
atom 2.2306354236373336 0.8786356445612178 24.5125618066033155 O
atom 11.1095037882802412 3.7023123064459948 22.8912059125670169 O
atom 1.2778005068553095 1.4118155109211212 21.8821938296100527 O
atom 2.7165287816164487 3.1691178264493178 22.8912318293013826 O
atom 2.9195538420165055 2.2904822718627673 21.0715027255602365 Pd
atom 9.4677522870631350 9.1619856655049379 23.7018980429920987 Pd
atom 4.0754319868340056 0.8786377309164422 21.8821667745612203 O
atom 10.6236889026165944 1.4118044745667049 24.5125982785013932 O
atom 1.0747324682580177 6.8715036255026174 23.7018912949753684 Pd
atom 0.1218786263067606 4.5809937018614360 21.0715016746799435 Pd
atom 2.2306631908215144 5.4596708645643250 24.5125851833871309 O
atom 11.1095309303724452 8.2833481264497539 22.8912247469660812 O
atom 1.2777575023769734 5.9928679409152350 21.8821668264266691 O
atom 2.7164861450055962 7.7501633864440196 22.8912020549843902 O
atom 9.4677545495787285 4.5809927855052166 23.7018984632027383 Pd
atom 4.0754622722851144 5.4596702009200149 21.8821911235766393 O
atom 10.6236229929608186 5.9928778345583646 24.5125524017638057 O
atom 8.5148922691725062 2.2904791418619821 21.0715083355982244 Pd
atom 3.8724095348920233 9.1619847855047301 23.7018918424997551 Pd
atom 9.6707793352613773 0.8786322909183746 21.8821698349659641 O
atom 5.0283352171523985 1.4118133245642464 24.5125891369809707 O
atom 6.6700943423435408 2.2904810555066519 23.7019020204180748 Pd
atom 7.8259774436104061 0.8786325345611156 24.5125687027849466 O
atom 5.5141599263218133 3.7023152264445858 22.8912048820728629 O
atom 6.8731474320556698 1.4118049809226845 21.8821983642519271 O
atom 8.3118864121905389 3.1691080464527164 22.8912413192606721 O
atom 3.8724110215578098 4.5809923355043178 23.7018950408496281 Pd
atom 9.6708032114239018 5.4596714709210472 21.8821901041858098 O
atom 5.0282923591918021 5.9928644845583712 24.5125622731984052 O
atom 6.6700751197218464 6.8714987655041107 23.7018901329360432 Pd
atom 7.8260034309918769 5.4596690045640095 24.5125907336108000 O
atom 5.5141897584787110 8.2833400564486439 22.8912258718276789 O
atom 6.8730814951743007 5.9928771309142990 21.8821527004900602 O
atom 8.3118190825904108 7.7501738264438114 22.8911965963642530 O
