#===============================================================================
# Created using the Atomic Simulation Environment (ASE)

# Mon Mar 23 14:01:15 2026

#=======================================================
lattice_vector 11.1906751718508950 0.0000000000000000 0.0000000000000000 
lattice_vector 3.6895943445015020 10.5649482138552457 0.0000000000000000 
lattice_vector 0.0000000000000000 0.0000000000000000 39.1244415661629148 
atom 12.1435448075700272 8.6218629773940254 15.0000230589396146 Pd
atom 7.5010758883371231 5.3257387143016777 16.1405714301658243 Pd
atom 13.2994277577641551 6.9938375750804767 15.0000068267300470 O
atom 10.9876209505561668 10.2499003548733345 15.0000000000000000 O
atom 10.5018060648925253 7.4561870943199899 15.2655288120318460 O
atom 8.6569554920022984 2.1737867606800445 15.2655319715775413 O
atom 10.2987330675010629 3.3394182714530722 15.0000223425213441 Pd
atom 11.4546602619104334 1.7113819106719881 15.0000482899408212 O
atom 9.1428529310687363 4.9674482297895093 15.0000373677512613 O
atom 4.9064523794283295 7.4561993211006747 15.2655252912810369 O
atom 6.5482115046194647 8.6218660616537388 15.0000226880377632 Pd
atom 1.9057306532963922 5.3257394406217475 16.1405686188859612 Pd
atom 7.7040946058863353 6.9938314441270748 15.0000112585278806 O
atom 5.3922770885977398 10.2499034002487335 15.0000005603558471 O
atom 4.7033942226324470 3.3394168659553665 15.0000265173672496 Pd
atom 0.0609338393322445 0.0432684758759028 16.1405721635896704 Pd
atom 5.8593260291983258 1.7113835196292606 15.0000480383125563 O
atom 3.5475130109418869 4.9674456359294652 15.0000298356669646 O
atom 3.0616043129487331 2.1738017642924996 15.2655242976097760 O
atom 8.4539458127573663 6.0022590077028530 19.5622196970506685 Pd
atom 3.8114768935244636 2.7061347446105071 20.7027680682768711 Pd
atom 9.6098287629514996 4.3742336053893061 19.5622034648410938 O
atom 7.2980219557435149 7.6302963851821630 19.5621966381110504 O
atom 8.6569938461694669 6.1463973499637206 17.5466260967653334 O
atom 10.0957221209306045 7.1678935557984644 19.2967159842988529 O
atom 10.2987471813306648 7.3120652348866102 17.2811195525360120 Pd
atom 5.6562751048375564 4.0159359377428068 18.4216712686140767 Pd
atom 11.4546253261481716 5.6840353801219656 17.2811078211857705 O
atom 9.1428185544880751 8.9400987054778067 17.2810998435007441 O
atom 6.8122070700798627 4.8365831246288193 19.8277254501428963 O
atom 11.9405366320268271 8.4776824215046567 17.0156169362731866 O
atom 8.4539304578833345 2.0296175024143617 17.2811244484032258 Pd
atom 7.5010719656209313 9.2984130408674748 18.4216742441797940 Pd
atom 9.6098611804468419 0.4015830048786485 17.2811444598269901 O
atom 7.2980537481468595 3.6576485668676386 17.2811339926787433 O
atom 8.6569508416911383 10.1191310048441192 19.8277286096885881 O
atom 10.0956841346309130 3.1952783886844611 17.0156160350623828 O
atom 6.6091340726884065 0.7198143017619025 19.5622189806323910 Pd
atom 5.6562773673531499 0.0432671619658724 16.1405753555548976 Pd
atom 11.4546556115992768 9.6567261548360612 19.5622449280518644 O
atom 5.4532539362560808 2.3478442600983396 19.5622340058623081 O
atom 6.8121458107352444 0.8640000840318399 17.5466253797295160 O
atom 8.2508740851949476 1.8854892219156529 19.2967105466412967 O
atom 4.7034104366357754 7.3120597270211363 17.2811228590219272 Pd
atom 11.2516075245173468 4.0159382621233801 18.4216654533100694 Pd
atom 5.8592975027246439 5.6840291385957400 17.2811077663536388 O
atom 3.5474807982168084 8.9401010127120237 17.2810968896807502 O
atom 12.4075285564665716 4.8365953514095033 19.8277219293920872 O
atom 6.3451893981926659 8.4776947194478680 17.0156216458750897 O
atom 2.8586125098068078 6.0022620919625655 19.5622193261488100 Pd
atom 9.4068068303346202 2.7061354709305765 20.7027652569970115 Pd
atom 4.0144956110736763 4.3742274744359024 19.5622078966389275 O
atom 12.8933532656359766 7.6302994305575629 19.5621971984668939 O
atom 3.0616655995189346 6.1463859602606856 17.5466247858462516 O
atom 4.5004045796538055 7.1678803490117540 19.2967193441270624 O
atom 1.0137952278197857 0.7198128962641953 19.5622231554782928 Pd
atom 11.2516043608719869 7.9886127200399786 20.7027688017007172 Pd
atom 5.8593213788871719 9.6567277637933344 19.5622446764236031 O
atom 11.0485891879801166 2.3478416662382959 19.5622264737780078 O
atom 1.2168151769662261 0.8639835913587356 17.5466272926996680 O
atom 2.6555528295164113 1.8854747307579431 19.2967184326722112 O
atom 2.8585979374962620 2.0296138664253642 17.2811210206481434 Pd
atom 13.0964044371471662 9.2984150118158588 18.4216700284374859 Pd
atom 4.0145262487663027 0.4015786281507487 17.2811483468357245 O
atom 1.7027125762531388 3.6576410083845214 17.2811309497254904 O
atom 14.2522748344884640 10.1191460084565747 19.8277209357208228 O
atom 4.5003419003648322 3.1952901604331796 17.0156164998865158 O
atom 4.7643468179447055 3.3826550380116815 24.1244163351617082 Pd
atom 5.9202297681388325 1.7546296356981350 24.1244001029521407 O
atom 3.6084229609308585 5.0106924154909915 24.1243932762221043 O
atom 4.9673948513568149 3.5267933802725495 22.1088227348763837 O
atom 6.4061231261179579 4.5482895861072903 23.8589126224098997 O
atom 6.6091481865180128 4.6924612651954378 21.8433161906470623 Pd
atom 1.9666761100249095 1.3963319680516337 22.9838679067251270 Pd
atom 7.7650263313355135 3.0644314104307933 21.8433044592968173 O
atom 5.4532195596754187 6.3204947357866352 21.8432964816117909 O
atom 8.2509376372141716 5.8580784518134843 21.5778135743842299 O
atom 8.4539258075721815 9.9749617465784350 21.8433210865142726 Pd
atom 3.8114729708082691 6.6788090711763024 22.9838708822908409 Pd
atom 9.6098565301356924 8.3469272490427233 21.8433410979380405 O
atom 3.6084547533342124 1.0380445971764651 21.8433306307897972 O
atom 6.4060851398182557 0.5756744189932899 21.5778126731734297 O
atom 6.6091294223772552 8.6651585459259746 24.1244156187434449 Pd
atom 5.6562727170419942 7.9886114061299445 20.7027719936659444 Pd
atom 7.7650566167866204 7.0371221851448915 24.1244415661629112 O
atom 5.4532492859449269 10.2931885042624156 24.1244306439733585 O
atom 6.8121411604240851 8.8093443281959161 22.1088220178405628 O
atom 8.2508694348837892 9.8308334660797296 23.8589071847523364 O
atom 12.2044866136740158 4.6924557573299666 21.8433194971329705 Pd
atom 7.5620085297046886 1.3963342924322093 22.9838620914211162 Pd
atom 2.1696985079119964 3.0644251689045676 21.8433044044646891 O
atom 11.0485569752550443 6.3204970430208558 21.8432935277917899 O
atom 2.6555904033800095 5.8580907497566965 21.5778182839861365 O
atom 10.3596886868450415 3.3826581222713945 24.1244159642598568 Pd
atom 11.5155717881119148 1.7546235047447321 24.1244045347499743 O
atom 9.2037542708233211 5.0106954608663905 24.1243938365779478 O
atom 10.5627417765571732 3.5267819905695137 22.1088214239572984 O
atom 12.0014807566920503 4.5482763793205834 23.8589159822380985 O
atom 12.2044657493595281 8.6651571404282723 24.1244197935893361 Pd
atom 13.3603975559254042 7.0371237941021638 24.1244413145346464 O
atom 11.0485845376689724 10.2931859104023697 24.1244231118890546 O
atom 12.4074856985059707 8.8093278355228080 22.1088239308107184 O
atom 13.8462233510561514 9.8308189749220194 23.8589150707832580 O
atom 14.0492684590359982 9.9749581105894389 21.8433176587591937 Pd
atom 9.4068054423345107 6.6788110421246891 22.9838666665485398 Pd
atom 4.0145215984551434 8.3469228723148241 21.8433449849467678 O
atom 9.2037887532913789 1.0380370386933513 21.8433275878365301 O
atom 0.8107429055521764 0.5756861907420102 21.5778131379975626 O
