#===============================================================================
# Created using the Atomic Simulation Environment (ASE)

# Mon Mar 23 14:01:18 2026

#=======================================================
lattice_vector 12.9570191147451741 0.0000000000000000 0.0000000000000000 
lattice_vector 0.0000000000000000 6.4256598000000000 0.0000000000000000 
lattice_vector 0.0000000000000000 0.0000000000000000 48.6814726169642142 
atom 0.0000155634206343 4.8192422200000014 16.2425997506765185 Pd
atom 1.9966457507763093 4.8192479500000012 16.2425824774005321 O
atom 10.9603710446630309 4.8192457800000010 16.2425705953186181 O
atom 0.0000360611013957 6.4256586599999999 15.0000024112414980 O
atom 0.0000331717240608 6.4256573700000015 17.4852002225975696 O
atom 0.0000131875417276 1.6064164200000008 16.2426012921691125 Pd
atom 1.9966442234256538 1.6064143800000010 16.2425825763953604 O
atom 10.9603690930483548 1.6064132700000004 16.2425701286279889 O
atom 0.0000534064305002 3.2128303400000013 15.0000054730152232 O
atom 0.0000525605917832 3.2128312600000015 17.4852030085998109 O
atom 9.7177649017441148 6.4256591100000016 16.2426069702355740 Pd
atom 9.7177261650901805 6.4256574100000012 18.2392598769277257 O
atom 9.7177647603227708 3.2128299000000000 16.2426068570984796 Pd
atom 9.7177077873851765 3.2128313900000003 18.2392568151539187 O
atom 3.2392724351429911 4.8192422100000014 19.4818546142157842 Pd
atom 3.2392530816305607 0.0000024899999997 16.2425976929944262 Pd
atom 5.2359092339469901 4.8192473800000011 19.4818383945294258 O
atom 1.2426022679738553 4.8192461100000008 19.4818216687650292 O
atom 3.2392883861276087 6.4256584800000009 18.2392514694337358 O
atom 3.2392530462752189 3.2128303200000006 16.2425977142076263 Pd
atom 5.2359075863881896 1.6064149500000011 19.4818384157425015 O
atom 1.2426000830139250 1.6064131200000005 19.4818213788510768 O
atom 3.2393050243498953 3.2128304100000005 18.2392549837557496 O
atom 6.4784931312820646 4.8192420900000013 16.2426045307158411 Pd
atom 12.9570145185514800 6.4256591900000002 19.4818544798637490 Pd
atom 8.4751580800030482 4.8192458300000007 16.2426388620954789 O
atom 4.4818612044442352 4.8192478999999997 16.2426151006194033 O
atom 6.4784709904242810 6.4256572000000016 15.0000026375098017 O
atom 6.4784776611302926 6.4256583400000000 17.4852046773651750 O
atom 6.4784958182879278 1.6064163300000005 16.2426032862081193 Pd
atom 12.9570146034042821 3.2128300699999999 19.4818546212851160 Pd
atom 8.4751602861762017 1.6064131700000004 16.2426389045220603 O
atom 4.4818628166476682 1.6064144000000005 16.2426154400307858 O
atom 6.4784517924753784 3.2128312700000010 15.0000000000000000 O
atom 6.4784606622835152 3.2128304999999999 17.4852016226625473 O
atom 6.4785241025597680 4.8192422200000014 22.7211052916825054 Pd
atom 6.4785123363024564 0.0000025199999997 19.4818565941136015 Pd
atom 8.4751542899154462 4.8192479500000012 22.7210880184065225 O
atom 4.4818604690569908 4.8192457800000010 22.7210761363246085 O
atom 6.4785446002405358 6.4256586599999999 21.4785079522474902 O
atom 6.4785417108631975 6.4256573700000015 23.9637057636035564 O
atom 6.4785217266808646 1.6064164200000008 22.7211068331750994 Pd
atom 6.4785122373075072 3.2128302800000013 19.4818565941135979 Pd
atom 8.4751527625647913 1.6064143800000010 22.7210881174013508 O
atom 4.4818585174423173 1.6064132700000004 22.7210756696339757 O
atom 6.4785619455696404 3.2128303400000013 21.4785110140212154 O
atom 6.4785610997309231 3.2128312600000015 23.9637085496058049 O
atom 9.7177441905868669 4.8192423700000004 19.4818570325180076 Pd
atom 3.2392543261380786 6.4256591100000016 22.7211125112415644 Pd
atom 11.7144094504350011 4.8192460900000009 19.4818892001509205 O
atom 7.7211129991394669 4.8192472800000008 19.4818755361597127 O
atom 3.2392155894841443 6.4256574100000012 24.7177654179337196 O
atom 9.7177272213691346 6.4256586000000020 20.7244519182927753 O
atom 9.7177469836587598 1.6064164500000009 19.4818556678021402 Pd
atom 3.2392541847167315 3.2128299000000000 22.7211123981044665 Pd
atom 11.7144117202477709 1.6064131700000002 19.4818892072221672 O
atom 7.7211147103378721 1.6064150500000005 19.4818755927283895 O
atom 3.2391972117791412 3.2128313900000003 24.7177623561599091 O
atom 9.7177106609285939 3.2128305700000008 20.7244483968997031 O
atom 9.7177809742821282 4.8192422100000014 25.9603601552217782 Pd
atom 9.7177616207696982 0.0000024899999997 22.7211032340004166 Pd
atom 11.7144177730861276 4.8192473800000011 25.9603439355354126 O
atom 7.7211108071129955 4.8192461100000008 25.9603272097710231 O
atom 9.7177969252667449 6.4256584800000009 24.7177570104397262 O
atom 3.2392912172434043 6.4256572900000002 20.7244585651022959 O
atom 3.2392697976345897 1.6064163000000009 19.4818560072159386 Pd
atom 9.7177615854143546 3.2128303200000006 22.7211032552136167 Pd
atom 11.7144161255273271 1.6064149500000011 25.9603439567484884 O
atom 7.7211086221530616 1.6064131200000005 25.9603269198570672 O
atom 9.7178135634890328 3.2128304100000005 24.7177605247617365 O
atom 3.2393098141515120 3.2128312100000009 20.7244615349522370 O
atom 12.9570016704211994 4.8192420900000013 22.7211100717218315 Pd
atom 6.4785039429454407 6.4256591900000002 25.9603600208697394 Pd
atom 1.9966475043970089 4.8192458300000007 22.7211444031014693 O
atom 10.9603697435833727 4.8192478999999997 22.7211206416253901 O
atom 12.9569795295634211 6.4256572000000016 21.4785081785157956 O
atom 12.9569862002694300 6.4256583400000000 23.9637102183711690 O
atom 12.9570043574270670 1.6064163300000005 22.7211088272141097 Pd
atom 6.4785040277982464 3.2128300699999999 25.9603601622911029 Pd
atom 1.9966497105701642 1.6064131700000004 22.7211444455280542 O
atom 10.9603713557868065 1.6064144000000005 22.7211209810367762 O
atom 12.9569603316145141 3.2128312700000010 21.4785055410059904 O
atom 12.9569692014226518 3.2128304999999999 23.9637071636685377 O
atom 0.0000135269537312 4.8192422200000014 29.1996108326884922 Pd
atom 0.0000017606964189 0.0000025199999997 25.9603621351195955 Pd
atom 1.9966437143094091 4.8192479500000012 29.1995935594125058 O
atom 10.9603690081961336 4.8192457800000010 29.1995816773305989 O
atom 0.0000340246344983 6.4256586599999999 27.9570134932534771 O
atom 0.0000311352571634 6.4256573700000015 30.4422113046095504 O
atom 0.0000111510748273 1.6064164200000008 29.1996123741810933 Pd
atom 0.0000016617014703 3.2128302800000013 25.9603621351195883 Pd
atom 1.9966421869587534 1.6064143800000010 29.1995936584073377 O
atom 10.9603670565814539 1.6064132700000004 29.1995812106399697 O
atom 0.0000513699635999 3.2128303400000013 27.9570165550272023 O
atom 0.0000505241248800 3.2128312600000015 30.4422140906117846 O
atom 3.2392336149808316 4.8192423700000004 25.9603625735240016 Pd
atom 9.7177628652772157 6.4256591100000016 29.1996180522475441 Pd
atom 5.2358988748289690 4.8192460900000009 25.9603947411569109 O
atom 1.2426024235334270 4.8192472800000008 25.9603810771657031 O
atom 9.7177241286232778 6.4256574100000012 31.1962709589396994 O
atom 3.2392166457630953 6.4256586000000020 27.2029574592987622 O
atom 3.2392364080527232 1.6064164500000009 25.9603612088081306 Pd
atom 9.7177627238558717 3.2128299000000000 29.1996179391104533 Pd
atom 5.2359011446417307 1.6064131700000002 25.9603947482281576 O
atom 1.2426041347318364 1.6064150500000005 25.9603811337343799 O
atom 9.7177057509182756 3.2128313900000003 31.1962678971658960 O
atom 3.2392000853225551 3.2128305700000008 27.2029539379056935 O
atom 3.2392703986760911 4.8192422100000014 32.4388656962277651 Pd
atom 3.2392510451636594 0.0000024899999997 29.1996087750064106 Pd
atom 5.2359071974800893 4.8192473800000011 32.4388494765414066 O
atom 1.2426002315069551 4.8192461100000008 32.4388327507770100 O
atom 3.2392863496607083 6.4256584800000009 31.1962625514457130 O
atom 9.7177997563825418 6.4256572900000002 27.2029641061082863 O
atom 9.7177783367737263 1.6064163000000009 25.9603615482219254 Pd
atom 3.2392510098083198 3.2128303200000006 29.1996087962196071 Pd
atom 5.2359055499212861 1.6064149500000011 32.4388494977544823 O
atom 1.2425980465470219 1.6064131200000005 32.4388324608630541 O
atom 3.2393029878829949 3.2128304100000005 31.1962660657677304 O
atom 9.7178183532906512 3.2128312100000009 27.2029670759582274 O
atom 6.4784910948151646 4.8192420900000013 29.1996156127278255 Pd
atom 12.9570124820845809 6.4256591900000002 32.4388655618757298 Pd
atom 8.4751560435361490 4.8192458300000007 29.1996499441074633 O
atom 4.4818591679773343 4.8192478999999997 29.1996261826313841 O
atom 6.4784689539573836 6.4256572000000016 27.9570137195217825 O
atom 6.4784756246633943 6.4256583400000000 30.4422157593771558 O
atom 6.4784937818210313 1.6064163300000005 29.1996143682200966 Pd
atom 12.9570125669373795 3.2128300699999999 32.4388657032970897 Pd
atom 8.4751582497093008 1.6064131700000004 29.1996499865340411 O
atom 4.4818607801807691 1.6064144000000005 29.1996265220427631 O
atom 6.4784497560084819 3.2128312700000010 27.9570110820119808 O
atom 6.4784586258166126 3.2128304999999999 30.4422127046745246 O
atom 6.4785102998355555 0.0000025199999997 32.4388676761255823 Pd
atom 6.4785102008406072 3.2128302800000013 32.4388676761255752 Pd
atom 9.7177421541199696 4.8192423700000004 32.4388681145299884 Pd
atom 11.7144074139681091 4.8192460900000009 32.4389002821628978 O
atom 7.7211109626725696 4.8192472800000008 32.4388866181716935 O
atom 9.7177251849022355 6.4256586000000020 33.6814630003047526 O
atom 9.7177449471918607 1.6064164500000009 32.4388667498141174 Pd
atom 11.7144096837808700 1.6064131700000002 32.4389002892341480 O
atom 7.7211126738709730 1.6064150500000005 32.4388866747403668 O
atom 9.7177086244616948 3.2128305700000008 33.6814594789116768 O
atom 3.2392891807765065 6.4256572900000002 33.6814696471142767 O
atom 3.2392677611676866 1.6064163000000009 32.4388670892279194 Pd
atom 3.2393077776846115 3.2128312100000009 33.6814726169642142 O
