#===============================================================================
# Created using the Atomic Simulation Environment (ASE)

# Mon Mar 23 14:01:15 2026

#=======================================================
lattice_vector 11.1906751718508950 0.0000000000000000 0.0000000000000000 
lattice_vector 3.6895943445015020 10.5649482138552457 0.0000000000000000 
lattice_vector 0.0000000000000000 0.0000000000000000 36.8433446764821610 
atom 8.4539458127573663 6.0022590077028530 17.2811228073699183 Pd
atom 3.8114768935244636 2.7061347446105071 18.4216711785961209 Pd
atom 9.6098287629514996 4.3742336053893061 17.2811065751603437 O
atom 7.2980219557435149 7.6302963851821630 17.2810997484303002 O
atom 8.6569938461694669 6.1463973499637206 15.2655292070845832 O
atom 10.0957221209306045 7.1678935557984644 17.0156190946181027 O
atom 10.2987471813306648 7.3120652348866102 15.0000226628552618 Pd
atom 5.6562751048375564 4.0159359377428068 16.1405743789333265 Pd
atom 11.4546253261481716 5.6840353801219656 15.0000109315050203 O
atom 9.1428185544880751 8.9400987054778067 15.0000029538199939 O
atom 6.8122070700798627 4.8365831246288193 17.5466285604621461 O
atom 8.4539304578833345 2.0296175024143617 15.0000275587224756 Pd
atom 7.5010719656209313 9.2984130408674748 16.1405773544990438 Pd
atom 9.6098611804468419 0.4015830048786485 15.0000475701462399 O
atom 7.2980537481468595 3.6576485668676386 15.0000371029979931 O
atom 8.6569508416911383 10.1191310048441192 17.5466317200078379 O
atom 6.6091340726884065 0.7198143017619025 17.2811220909516408 Pd
atom 11.4546556115992768 9.6567261548360612 17.2811480383711142 O
atom 5.4532539362560808 2.3478442600983396 17.2811371161815579 O
atom 6.8121458107352444 0.8640000840318399 15.2655284900487658 O
atom 8.2508740851949476 1.8854892219156529 17.0156136569605465 O
atom 4.7034104366357754 7.3120597270211363 15.0000259693411770 Pd
atom 11.2516075245173468 4.0159382621233801 16.1405685636293192 Pd
atom 5.8592975027246439 5.6840291385957400 15.0000108766728886 O
atom 3.5474807982168084 8.9401010127120237 15.0000000000000000 O
atom 12.4075285564665716 4.8365953514095033 17.5466250397113370 O
atom 2.8586125098068078 6.0022620919625655 17.2811224364680598 Pd
atom 9.4068068303346202 2.7061354709305765 18.4216683673162613 Pd
atom 4.0144956110736763 4.3742274744359024 17.2811110069581773 O
atom 12.8933532656359766 7.6302994305575629 17.2811003087861437 O
atom 3.0616655995189346 6.1463859602606856 15.2655278961655014 O
atom 4.5004045796538055 7.1678803490117540 17.0156224544463122 O
atom 1.0137952278197857 0.7198128962641953 17.2811262657975426 Pd
atom 11.2516043608719869 7.9886127200399786 18.4216719120199670 Pd
atom 5.8593213788871719 9.6567277637933344 17.2811477867428529 O
atom 11.0485891879801166 2.3478416662382959 17.2811295840972576 O
atom 1.2168151769662261 0.8639835913587356 15.2655304030189178 O
atom 2.6555528295164113 1.8854747307579431 17.0156215429914610 O
atom 2.8585979374962620 2.0296138664253642 15.0000241309673932 Pd
atom 13.0964044371471662 9.2984150118158588 16.1405731387567357 Pd
atom 4.0145262487663027 0.4015786281507487 15.0000514571549743 O
atom 1.7027125762531388 3.6576410083845214 15.0000340600447402 O
atom 14.2522748344884640 10.1191460084565747 17.5466240460400726 O
atom 4.7643468179447055 3.3826550380116815 21.8433194454809581 Pd
atom 5.9202297681388325 1.7546296356981350 21.8433032132713905 O
atom 3.6084229609308585 5.0106924154909915 21.8432963865413541 O
atom 4.9673948513568149 3.5267933802725495 19.8277258451956335 O
atom 6.4061231261179579 4.5482895861072903 21.5778157327291495 O
atom 6.6091481865180128 4.6924612651954378 19.5622193009663121 Pd
atom 1.9666761100249095 1.3963319680516337 20.7027710170443768 Pd
atom 7.7650263313355135 3.0644314104307933 19.5622075696160671 O
atom 5.4532195596754187 6.3204947357866352 19.5621995919310407 O
atom 8.2509376372141716 5.8580784518134843 19.2967166847034797 O
atom 8.4539258075721815 9.9749617465784350 19.5622241968335224 Pd
atom 3.8114729708082691 6.6788090711763024 20.7027739926100907 Pd
atom 9.6098565301356924 8.3469272490427233 19.5622442082572903 O
atom 3.6084547533342124 1.0380445971764651 19.5622337411090470 O
atom 6.4060851398182557 0.5756744189932899 19.2967157834926795 O
atom 6.6091294223772552 8.6651585459259746 21.8433187290626947 Pd
atom 5.6562727170419942 7.9886114061299445 18.4216751039851943 Pd
atom 7.7650566167866204 7.0371221851448915 21.8433446764821610 O
atom 5.4532492859449269 10.2931885042624156 21.8433337542926083 O
atom 6.8121411604240851 8.8093443281959161 19.8277251281598126 O
atom 8.2508694348837892 9.8308334660797296 21.5778102950715862 O
atom 12.2044866136740158 4.6924557573299666 19.5622226074522203 Pd
atom 7.5620085297046886 1.3963342924322093 20.7027652017403661 Pd
atom 2.1696985079119964 3.0644251689045676 19.5622075147839389 O
atom 11.0485569752550443 6.3204970430208558 19.5621966381110397 O
atom 2.6555904033800095 5.8580907497566965 19.2967213943053864 O
atom 10.3596886868450415 3.3826581222713945 21.8433190745791066 Pd
atom 11.5155717881119148 1.7546235047447321 21.8433076450692241 O
atom 9.2037542708233211 5.0106954608663905 21.8432969468971976 O
atom 10.5627417765571732 3.5267819905695137 19.8277245342765482 O
atom 12.0014807566920503 4.5482763793205834 21.5778190925573483 O
atom 12.2044657493595281 8.6651571404282723 21.8433229039085859 Pd
atom 13.3603975559254042 7.0371237941021638 21.8433444248538962 O
atom 11.0485845376689724 10.2931859104023697 21.8433262222083044 O
atom 12.4074856985059707 8.8093278355228080 19.8277270411299682 O
atom 13.8462233510561514 9.8308189749220194 21.5778181811025078 O
atom 14.0492684590359982 9.9749581105894389 19.5622207690784435 Pd
atom 9.4068054423345107 6.6788110421246891 20.7027697768677896 Pd
atom 4.0145215984551434 8.3469228723148241 19.5622480952660176 O
atom 9.2037887532913789 1.0380370386933513 19.5622306981557799 O
atom 0.8107429055521764 0.5756861907420102 19.2967162483168124 O
