#===============================================================================
# Created using the Atomic Simulation Environment (ASE)

# Mon Mar 23 14:01:16 2026

#=======================================================
lattice_vector 9.1619939600004408 0.0000000000000000 0.0000000000000000 
lattice_vector 0.0000000000000000 6.4256598000000000 0.0000000000000000 
lattice_vector 0.0000000000000000 0.0000000000000000 45.5003176552806323 
atom 0.8786273823652507 1.6064124199999998 15.0000011499996333 O
atom 0.8786285623656073 4.8192448500000005 15.0000000000000000 O
atom 5.4596665623552134 1.6064139700000002 15.0000342400127131 O
atom 5.4596650323547218 4.8192466300000012 15.0000358300122407 O
atom 2.2904723399982130 1.6064175800000002 18.1691706876381076 Pd
atom 9.1619807900002304 6.4256572800000011 15.8786667576420228 Pd
atom 0.8786288323681830 1.6064118500000002 19.5809886700003055 O
atom 3.7023066676457508 1.6064140200000003 16.7572962252730733 O
atom 1.4118091823540571 0.0000011400000000 17.2905358352734098 O
atom 3.1691107676333310 0.0000024300000000 19.0478346999951462 O
atom 2.2904751099983960 4.8192433800000005 18.1691700976389683 Pd
atom 9.1619808600002521 3.2128295200000001 15.8786666876420455 Pd
atom 0.8786299823684963 4.8192454200000006 19.5809876600006589 O
atom 3.7023077176462813 4.8192465300000009 16.7572945152733972 O
atom 1.4117990823495838 3.2128294600000005 17.2905502652702801 O
atom 3.1690990276284703 3.2128285399999994 19.0478503799915053 O
atom 6.8714974000051594 1.6064174299999998 18.1691489876468140 Pd
atom 4.5809879599999190 0.0000006900000000 15.8786670576433124 Pd
atom 5.4596640523566053 1.6064137100000000 19.5810267300121552 O
atom 8.2833424876351422 1.6064125200000001 16.7573311652851089 O
atom 5.9928616123694081 0.0000023900000000 17.2904870252905987 O
atom 7.7501563276490808 0.0000012000000000 19.0477846000102033 O
atom 6.8714944600048460 4.8192433499999998 18.1691499976459063 Pd
atom 4.5809879799999722 3.2128299000000009 15.8786668776433153 Pd
atom 5.4596624523561079 4.8192466300000012 19.5810283400116631 O
atom 8.2833413176347523 4.8192447500000002 16.7573324152847469 O
atom 5.9928724423741064 3.2128284100000006 17.2904718652939522 O
atom 7.7501655476534825 3.2128292299999996 19.0477704000130643 O
atom 2.2904691399974073 1.6064175900000004 22.7501702676373370 Pd
atom 9.1619771400028895 6.4256573100000001 20.4596551576411159 Pd
atom 0.8786217023656969 1.6064124199999998 24.1619936699983171 O
atom 3.7023054076472075 1.6064136899999999 21.3382885052729065 O
atom 1.4118050923555201 0.0000013200000000 21.8715280952723603 O
atom 3.1691091976315056 0.0000025100000000 23.6288375699948787 O
atom 2.2904719899976800 4.8192434999999998 22.7501693876382234 Pd
atom 9.1619771800028929 3.2128294799999999 20.4596551476411257 Pd
atom 0.8786228823660536 4.8192448500000005 24.1619925199986838 O
atom 3.7023067476477509 4.8192466800000009 21.3382867552733089 O
atom 1.4117958123511025 3.2128293900000005 21.8715423452694822 O
atom 3.1690981476267766 3.2128285900000004 23.6288528199914580 O
atom 6.8714924800046218 1.6064177100000003 22.7501477076455103 Pd
atom 4.5809846900023130 0.0000006100000000 20.4596563076425184 Pd
atom 5.4596608823556600 1.6064139700000002 24.1620267600114005 O
atom 8.2833324776365025 1.6064119000000001 21.3383237552822251 O
atom 5.9928562523708049 0.0000026000000000 21.8714794852891572 O
atom 7.7501540676470588 0.0000014600000000 23.6287881000097215 O
atom 6.8714897000043056 4.8192434700000009 22.7501487276446497 Pd
atom 4.5809847300022648 3.2128297300000006 20.4596564676425317 Pd
atom 5.4596593523551666 4.8192466300000012 24.1620283500109210 O
atom 8.2833315776360763 4.8192453999999998 21.3383251352819414 O
atom 5.9928679623755947 3.2128285299999999 21.8714640452927824 O
atom 7.7501639276514549 3.2128293000000006 23.6287739200127831 O
atom 2.2904666599986596 1.6064175800000002 27.3311632076367985 Pd
atom 9.1619751100006752 6.4256572800000011 25.0406592776407066 Pd
atom 0.8786231523686295 1.6064118500000002 28.7429811899989858 O
atom 3.7023009876461970 1.6064140200000003 25.9192887452717500 O
atom 1.4118035023545032 0.0000011400000000 26.4525283552721007 O
atom 3.1691050876337772 0.0000024300000000 28.2098272199938336 O
atom 2.2904694299988422 4.8192433800000005 27.3311626176376521 Pd
atom 9.1619751800006970 3.2128295200000001 25.0406592076407222 Pd
atom 0.8786243023689426 4.8192454200000006 28.7429801799993427 O
atom 3.7023020376467271 4.8192465300000009 25.9192870352720846 O
atom 1.4117934023500303 3.2128294600000005 26.4525427852689532 O
atom 3.1690933476289169 3.2128285399999994 28.2098428999901856 O
atom 6.8714917200056069 1.6064174299999998 27.3311415076454978 Pd
atom 4.5809822800003657 0.0000006900000000 25.0406595776419962 Pd
atom 5.4596583723570511 1.6064137100000000 28.7430192500108390 O
atom 8.2833368076355889 1.6064125200000001 25.9193236852837927 O
atom 5.9928559323698547 0.0000023900000000 26.4524795452892789 O
atom 7.7501506476495283 0.0000012000000000 28.2097771200088872 O
atom 6.8714887800052935 4.8192433499999998 27.3311425176445866 Pd
atom 4.5809823000004188 3.2128299000000009 25.0406593976419956 Pd
atom 5.4596567723565537 4.8192466300000012 28.7430208600103470 O
atom 8.2833356376351990 4.8192447500000002 25.9193249352834343 O
atom 5.9928667623745540 3.2128284100000006 26.4524643852926360 O
atom 7.7501598676539301 3.2128292299999996 28.2097629200117481 O
atom 9.1619714600033344 6.4256573100000001 29.6216476776397926 Pd
atom 3.7022997276476532 1.6064136899999999 30.5002810252715832 O
atom 9.1619715000033377 3.2128294799999999 29.6216476676398131 Pd
atom 3.7023010676481971 4.8192466800000009 30.5002792752719998 O
atom 4.5809790100027596 0.0000006100000000 29.6216488276412022 Pd
atom 8.2833267976369491 1.6064119000000001 30.5003162752809160 O
atom 4.5809790500027114 3.2128297300000006 29.6216489876412155 Pd
atom 8.2833258976365212 4.8192453999999998 30.5003176552806323 O
