#===============================================================================
# Created using the Atomic Simulation Environment (ASE)

# Mon Mar 23 14:01:15 2026

#=======================================================
lattice_vector 11.1906751718508950 0.0000000000000000 0.0000000000000000 
lattice_vector 3.6895943445015020 10.5649482138552457 0.0000000000000000 
lattice_vector 0.0000000000000000 0.0000000000000000 41.1400134184276993 
atom 12.1435448075700272 8.6218629773940254 17.0155949112044063 Pd
atom 7.5010758883371231 5.3257387143016777 18.1561432824306159 Pd
atom 13.2994277577641551 6.9938375750804767 17.0155786789948387 O
atom 10.9876209505561668 10.2499003548733345 17.0155718522647916 O
atom 12.3465928409821277 8.7660013196548903 15.0000013109190782 O
atom 13.7853211157432654 9.7874975254896341 16.7500911984525978 O
atom 9.3458740996502154 6.6355399074339765 15.8750464827678215 Pd
atom 10.5018060648925253 7.4561870943199899 17.2811006642966376 O
atom 7.5010766159320825 1.3530687967034012 15.8750494583335389 Pd
atom 8.6569554920022984 2.1737867606800445 17.2811038238423329 O
atom 10.2987330675010629 3.3394182714530722 17.0155941947861358 Pd
atom 11.4546602619104334 1.7113819106719881 17.0156201422056128 O
atom 9.1428529310687363 4.9674482297895093 17.0156092200160529 O
atom 10.5017448055479026 3.4836040537230120 15.0000005938832608 O
atom 11.9404730800076031 4.5050931916068251 16.7500857607950415 O
atom 3.7505313474791078 6.6355422318145498 15.8750406674638143 Pd
atom 4.9064523794283295 7.4561993211006747 17.2810971435458285 O
atom 6.5482115046194647 8.6218660616537388 17.0155945403025548 Pd
atom 1.9057306532963922 5.3257394406217475 18.1561404711507528 Pd
atom 7.7040946058863353 6.9938314441270748 17.0155831107926723 O
atom 5.3922770885977398 10.2499034002487335 17.0155724126206387 O
atom 6.7512645943315928 8.7659899299518553 15.0000000000000000 O
atom 8.1900035744664645 9.7874843187029263 16.7500945582808036 O
atom 4.7033942226324470 3.3394168659553665 17.0155983696320412 Pd
atom 0.0609338393322445 0.0432684758759028 18.1561440158544620 Pd
atom 5.8593260291983258 1.7113835196292606 17.0156198905773479 O
atom 3.5475130109418869 4.9674456359294652 17.0156016879317562 O
atom 4.9064141717788852 3.4835875610499061 15.0000025068534164 O
atom 6.3451518243290721 4.5050787004491140 16.7500936468259560 O
atom 1.9057339156074269 1.3530707676517850 15.8750452425912343 Pd
atom 3.0616043129487331 2.1738017642924996 17.2810961498745677 O
atom 8.4539458127573663 6.0022590077028530 21.5777915493154602 Pd
atom 3.8114768935244636 2.7061347446105071 22.7183399205416627 Pd
atom 9.6098287629514996 4.3742336053893061 21.5777753171058855 O
atom 7.2980219557435149 7.6302963851821630 21.5777684903758420 O
atom 8.6569938461694669 6.1463973499637206 19.5621979490301250 O
atom 10.0957221209306045 7.1678935557984644 21.3122878365636446 O
atom 10.2987471813306648 7.3120652348866102 19.2966914048008036 Pd
atom 5.6562751048375564 4.0159359377428068 20.4372431208788683 Pd
atom 11.4546253261481716 5.6840353801219656 19.2966796734505621 O
atom 9.1428185544880751 8.9400987054778067 19.2966716957655358 O
atom 6.8122070700798627 4.8365831246288193 21.8432973024076880 O
atom 11.9405366320268271 8.4776824215046567 19.0311887885379782 O
atom 8.4539304578833345 2.0296175024143617 19.2966963006680174 Pd
atom 7.5010719656209313 9.2984130408674748 20.4372460964445857 Pd
atom 9.6098611804468419 0.4015830048786485 19.2967163120917817 O
atom 7.2980537481468595 3.6576485668676386 19.2967058449435349 O
atom 8.6569508416911383 10.1191310048441192 21.8433004619533797 O
atom 10.0956841346309130 3.1952783886844611 19.0311878873271745 O
atom 6.6091340726884065 0.7198143017619025 21.5777908328971826 Pd
atom 5.6562773673531499 0.0432671619658724 18.1561472078196893 Pd
atom 11.4546556115992768 9.6567261548360612 21.5778167803166561 O
atom 5.4532539362560808 2.3478442600983396 21.5778058581270997 O
atom 6.8121458107352444 0.8640000840318399 19.5621972319943076 O
atom 8.2508740851949476 1.8854892219156529 21.3122823989060883 O
atom 4.7034104366357754 7.3120597270211363 19.2966947112867189 Pd
atom 11.2516075245173468 4.0159382621233801 20.4372373055748611 Pd
atom 5.8592975027246439 5.6840291385957400 19.2966796186184304 O
atom 3.5474807982168084 8.9401010127120237 19.2966687419455418 O
atom 12.4075285564665716 4.8365953514095033 21.8432937816568788 O
atom 6.3451893981926659 8.4776947194478680 19.0311934981398814 O
atom 2.8586125098068078 6.0022620919625655 21.5777911784136016 Pd
atom 9.4068068303346202 2.7061354709305765 22.7183371092618032 Pd
atom 4.0144956110736763 4.3742274744359024 21.5777797489037191 O
atom 12.8933532656359766 7.6302994305575629 21.5777690507316855 O
atom 3.0616655995189346 6.1463859602606856 19.5621966381110433 O
atom 4.5004045796538055 7.1678803490117540 21.3122911963918540 O
atom 1.0137952278197857 0.7198128962641953 21.5777950077430845 Pd
atom 11.2516043608719869 7.9886127200399786 22.7183406539655088 Pd
atom 5.8593213788871719 9.6567277637933344 21.5778165286883947 O
atom 11.0485891879801166 2.3478416662382959 21.5777983260427995 O
atom 1.2168151769662261 0.8639835913587356 19.5621991449644597 O
atom 2.6555528295164113 1.8854747307579431 21.3122902849370028 O
atom 2.8585979374962620 2.0296138664253642 19.2966928729129350 Pd
atom 13.0964044371471662 9.2984150118158588 20.4372418807022775 Pd
atom 4.0145262487663027 0.4015786281507487 19.2967201991005162 O
atom 1.7027125762531388 3.6576410083845214 19.2967028019902820 O
atom 14.2522748344884640 10.1191460084565747 21.8432927879856145 O
atom 4.5003419003648322 3.1952901604331796 19.0311883521513074 O
atom 4.7643468179447055 3.3826550380116815 26.1399881874264999 Pd
atom 5.9202297681388325 1.7546296356981350 26.1399719552169323 O
atom 3.6084229609308585 5.0106924154909915 26.1399651284868959 O
atom 4.9673948513568149 3.5267933802725495 24.1243945871411754 O
atom 6.4061231261179579 4.5482895861072903 25.8744844746746914 O
atom 6.6091481865180128 4.6924612651954378 23.8588880429118539 Pd
atom 1.9666761100249095 1.3963319680516337 24.9994397589899187 Pd
atom 7.7650263313355135 3.0644314104307933 23.8588763115616089 O
atom 5.4532195596754187 6.3204947357866352 23.8588683338765826 O
atom 8.2509376372141716 5.8580784518134843 23.5933854266490215 O
atom 8.4539258075721815 9.9749617465784350 23.8588929387790643 Pd
atom 3.8114729708082691 6.6788090711763024 24.9994427345556325 Pd
atom 9.6098565301356924 8.3469272490427233 23.8589129502028321 O
atom 3.6084547533342124 1.0380445971764651 23.8589024830545888 O
atom 6.4060851398182557 0.5756744189932899 23.5933845254382213 O
atom 6.6091294223772552 8.6651585459259746 26.1399874710082365 Pd
atom 5.6562727170419942 7.9886114061299445 22.7183438459307361 Pd
atom 7.7650566167866204 7.0371221851448915 26.1400134184277029 O
atom 5.4532492859449269 10.2931885042624156 26.1400024962381501 O
atom 6.8121411604240851 8.8093443281959161 24.1243938701053544 O
atom 8.2508694348837892 9.8308334660797296 25.8744790370171280 O
atom 12.2044866136740158 4.6924557573299666 23.8588913493977621 Pd
atom 7.5620085297046886 1.3963342924322093 24.9994339436859079 Pd
atom 2.1696985079119964 3.0644251689045676 23.8588762567294808 O
atom 11.0485569752550443 6.3204970430208558 23.8588653800565815 O
atom 2.6555904033800095 5.8580907497566965 23.5933901362509282 O
atom 10.3596886868450415 3.3826581222713945 26.1399878165246484 Pd
atom 11.5155717881119148 1.7546235047447321 26.1399763870147659 O
atom 9.2037542708233211 5.0106954608663905 26.1399656888427394 O
atom 10.5627417765571732 3.5267819905695137 24.1243932762220901 O
atom 12.0014807566920503 4.5482763793205834 25.8744878345028901 O
atom 12.2044657493595281 8.6651571404282723 26.1399916458541277 Pd
atom 13.3603975559254042 7.0371237941021638 26.1400131667994380 O
atom 11.0485845376689724 10.2931859104023697 26.1399949641538463 O
atom 12.4074856985059707 8.8093278355228080 24.1243957830755100 O
atom 13.8462233510561514 9.8308189749220194 25.8744869230480496 O
atom 14.0492684590359982 9.9749581105894389 23.8588895110239854 Pd
atom 9.4068054423345107 6.6788110421246891 24.9994385188133315 Pd
atom 4.0145215984551434 8.3469228723148241 23.8589168372115594 O
atom 9.2037887532913789 1.0380370386933513 23.8588994401013217 O
atom 0.8107429055521764 0.5756861907420102 23.5933849902623543 O
