#===============================================================================
# Created using the Atomic Simulation Environment (ASE)

# Mon Mar 23 14:01:17 2026

#=======================================================
lattice_vector 11.1906751718508950 0.0000000000000000 0.0000000000000000 
lattice_vector -0.0000046503111567 9.1619939599992613 0.0000000000000000 
lattice_vector 0.0000000000000000 0.0000000000000000 36.8821965957229096 
atom 4.7643514682558648 2.2904804382180344 15.8107072815034329 Pd
atom 0.1218778987118002 9.1619865318619667 18.4410971915608428 Pd
atom 5.9202344184499909 0.8786375172740185 16.6213652102390590 O
atom 3.6084276112420124 3.7023141791587961 15.0000093162027639 O
atom 6.4061277764291011 3.1691196991621187 15.0000352329371260 O
atom 1.9666761100248971 9.1619875382177387 15.8107014466278457 Pd
atom 1.7636252151739122 3.7023142928014545 17.6304079279683528 O
atom 3.1226127255783580 1.4118063472795057 16.6214016821371366 O
atom 4.5613432927126683 3.1691070228084786 17.6304385902114120 O
atom 4.7643314630706755 6.8715054982154173 15.8106946986111154 Pd
atom 5.9202621856341819 5.4596727372771250 16.6213885870228779 O
atom 3.6084547533342026 8.2833499991625548 15.0000281506018318 O
atom 6.4060851398182486 7.7501652591568186 15.0000054586201266 O
atom 2.9195350778757359 6.8715016218602827 18.4410894768507276 Pd
atom 1.9666783725404906 4.5809946582180165 15.8107018668384782 Pd
atom 1.7636549414434199 8.2833478928056046 17.6304282327514983 O
atom 3.1225468159225822 5.9928797072711655 16.6213558053995456 O
atom 4.5612750903822770 7.7501735427994642 17.6303932308072895 O
atom 7.5620085297046842 9.1619866582175309 15.8106952461354950 Pd
atom 7.3589626307535436 3.7023148228020708 17.6304042175126270 O
atom 8.7179342119650656 1.4118151972770472 16.6213925406167142 O
atom 10.1566712307293887 3.1691200328063935 17.6304365506742826 O
atom 10.3596933371561946 2.2904829282194528 15.8107054240538076 Pd
atom 5.7172078355219673 9.1619857618605263 18.4410943919299584 Pd
atom 0.3249012665721743 0.8786344072739164 16.6213721064206865 O
atom 9.2037589211344724 3.7023170991573866 15.0000082857086028 O
atom 0.8108102351523013 3.1691099191655168 15.0000447228964120 O
atom 8.5148714048580203 6.8715024818591957 18.4410937971706161 Pd
atom 7.5620100163704773 4.5809942082171178 15.8106984444853751 Pd
atom 7.3589901931674628 8.2833418928059466 17.6304229924835809 O
atom 8.7178913540044594 5.9928663572711729 16.6213656768341451 O
atom 10.1566290065546543 7.7501649028011066 17.6304072854707101 O
atom 10.3596741145344975 6.8715006382169115 15.8106935365717831 Pd
atom 5.7172110978329993 4.5809933118609623 18.4410953545508747 Pd
atom 0.3249272539536447 5.4596708772768103 16.6213941372465470 O
atom 9.2037887532913736 8.2833419291614447 15.0000292754634224 O
atom 0.8107429055521735 7.7501756991566104 15.0000000000000000 O
atom 1.0747524734432075 2.2904785655052335 21.0715021950892023 Pd
atom 2.2306354236373336 0.8786356445612178 21.8821601238248320 O
atom 11.1095037882802412 3.7023123064459948 20.2608042297885333 O
atom 1.2778005068553095 1.4118155109211212 19.2517921468315691 O
atom 2.7165287816164487 3.1691178264493178 20.2608301465228990 O
atom 2.9195538420165055 2.2904822718627673 18.4411010427817530 Pd
atom 9.4677522870631350 9.1619856655049379 21.0714963602136152 Pd
atom 4.0754319868340056 0.8786377309164422 19.2517650917827368 O
atom 10.6236889026165944 1.4118044745667049 21.8821965957229096 O
atom 1.0747324682580177 6.8715036255026174 21.0714896121968849 Pd
atom 0.1218786263067606 4.5809937018614360 18.4410999919014600 Pd
atom 2.2306631908215144 5.4596708645643250 21.8821835006086474 O
atom 11.1095309303724452 8.2833481264497539 20.2608230641875977 O
atom 1.2777575023769734 5.9928679409152350 19.2517651436481856 O
atom 2.7164861450055962 7.7501633864440196 20.2608003722059067 O
atom 9.4677545495787285 4.5809927855052166 21.0714967804242548 Pd
atom 4.0754622722851144 5.4596702009200149 19.2517894407981558 O
atom 10.6236229929608186 5.9928778345583646 21.8821507189853222 O
atom 8.5148922691725062 2.2904791418619821 18.4411066528197409 Pd
atom 3.8724095348920233 9.1619847855047301 21.0714901597212716 Pd
atom 9.6707793352613773 0.8786322909183746 19.2517681521874806 O
atom 5.0283352171523985 1.4118133245642464 21.8821874542024872 O
atom 6.6700943423435408 2.2904810555066519 21.0715003376395913 Pd
atom 7.8259774436104061 0.8786325345611156 21.8821670200064631 O
atom 5.5141599263218133 3.7023152264445858 20.2608031992943793 O
atom 6.8731474320556698 1.4118049809226845 19.2517966814734436 O
atom 8.3118864121905389 3.1691080464527164 20.2608396364821886 O
atom 3.8724110215578098 4.5809923355043178 21.0714933580711445 Pd
atom 9.6708032114239018 5.4596714709210472 19.2517884214073263 O
atom 5.0282923591918021 5.9928644845583712 21.8821605904199217 O
atom 6.6700751197218464 6.8714987655041107 21.0714884501575597 Pd
atom 7.8260034309918769 5.4596690045640095 21.8821890508323165 O
atom 5.5141897584787110 8.2833400564486439 20.2608241890491954 O
atom 6.8730814951743007 5.9928771309142990 19.2517510177115767 O
atom 8.3118190825904108 7.7501738264438114 20.2607949135857695 O
