#===============================================================================
# Created using the Atomic Simulation Environment (ASE)

# Mon Mar 23 14:01:16 2026

#=======================================================
lattice_vector 9.1619925200004406 0.0000000000000000 0.0000000000000000 
lattice_vector -0.0000056800004464 9.1619939599986804 0.0000000000000000 
lattice_vector 0.0000000000000000 0.0000000000000000 42.8513229299999949 
atom -0.0000021199998853 9.1619921499997847 16.6064139300000022 Pd
atom 2.2905054800032838 2.2904878900023888 15.0000000299999989 Pd
atom 3.7023239176415266 0.8786436376324930 15.0000020700000007 O
atom 0.8786290223689234 3.7023196223543002 15.0000031800000002 O
atom 2.2904825399961268 6.8715072399954993 15.0000000000000000 Pd
atom 3.7023617576303010 5.4596761076444444 15.0000032799999978 O
atom 0.8786640823573487 8.2833532223653883 15.0000014000000021 O
atom 4.5809862800005865 9.1619913399973480 16.6064139600000011 Pd
atom 6.8715047700035905 2.2904876100033285 15.0000001500000018 Pd
atom 8.2833287776430673 0.8786393776351586 15.0000014999999998 O
atom 5.4596212623685618 3.7023214923530543 15.0000033300000020 O
atom 6.8714812699969414 6.8715053199962659 15.0000001199999993 Pd
atom 8.2833617676306037 5.4596758476456051 15.0000032799999978 O
atom 5.4596568023597065 8.2833463223642916 15.0000020500000026 O
atom 2.2905060700041426 2.2904851200025718 18.2128340299999998 Pd
atom -0.0000021199998853 9.1619921499997847 23.0320737300000005 Pd
atom 3.7023249276418824 0.8786424876328058 18.2128283000000017 O
atom 0.8786307323692488 3.7023185723548306 18.2128304700000037 O
atom 1.4118717623689716 1.4118214176467696 16.6064175900000031 O
atom 3.1691695376469786 3.1691240923674124 16.6064188800000032 O
atom 2.2905054800032838 2.2904878900023888 21.4256598300000007 Pd
atom -0.0000021899999070 9.1619922199997639 19.8192459700000008 Pd
atom 3.7023239176415266 0.8786436376324930 21.4256618699999990 O
atom 0.8786290223689234 3.7023196223543002 21.4256629800000020 O
atom 1.4118861923721027 1.4118113176512423 19.8192459099999994 O
atom 3.1691852176506181 3.1691123523722737 19.8192449900000014 O
atom 2.2904815299952155 6.8715101799951874 18.2128338800000016 Pd
atom 0.0000010199990515 4.5809993200005383 16.6064171400000014 Pd
atom 3.7023601476298058 5.4596777076439436 18.2128301599999993 O
atom 0.8786628323569862 8.2833543923650037 18.2128289700000003 O
atom 1.4118201123515606 5.9928738476309800 16.6064188399999999 O
atom 3.1691165976316968 7.7501696523512242 16.6064176500000009 O
atom 2.2904825399961268 6.8715072399954993 21.4256598000000018 Pd
atom 0.0000008399990453 4.5809993400004814 19.8192463500000002 Pd
atom 3.7023617576303010 5.4596761076444444 21.4256630799999996 O
atom 0.8786640823573487 8.2833532223653883 21.4256612000000004 O
atom 1.4118049523482039 5.9928846776262814 19.8192448600000013 O
atom 3.1691023976288393 7.7501788723468223 19.8192456800000016 O
atom 6.8715056500044742 2.2904847600036007 18.2128340400000006 Pd
atom 4.5809862800005865 9.1619913399973480 23.0320737600000029 Pd
atom 8.2833299276434325 0.8786381976355150 18.2128288699999992 O
atom 5.4596230123689775 3.7023201523535967 18.2128301400000012 O
atom 5.9928640223695799 1.4118201676455298 16.6064177700000037 O
atom 7.7501724076468053 3.1691253623694617 16.6064189600000027 O
atom 6.8715047700035905 2.2904876100033285 21.4256599500000000 Pd
atom 4.5809862700005732 9.1619913799973443 19.8192459300000010 Pd
atom 8.2833287776430673 0.8786393776351586 21.4256613000000016 O
atom 5.4596212623685618 3.7023214923530543 21.4256631300000002 O
atom 5.9928782723724563 1.4118108876499467 19.8192458400000007 O
atom 7.7501876576502315 3.1691143123741887 19.8192450400000020 O
atom 6.8714802499960799 6.8715080999959479 18.2128341600000034 Pd
atom 4.5809902699994050 4.5809988899983649 16.6064170600000018 Pd
atom 8.2833601776301293 5.4596773776451117 18.2128304199999995 O
atom 5.4596554223594280 8.2833472223638633 18.2128283499999988 O
atom 5.9928125723525625 5.9928713276298016 16.6064190500000031 O
atom 7.7501200976317381 7.7501702323534687 16.6064179100000011 O
atom 6.8714812699969414 6.8715053199962659 21.4256599200000011 Pd
atom 4.5809904299993924 4.5809989299984153 19.8192461800000004 Pd
atom 8.2833617676306037 5.4596758476456051 21.4256630799999996 O
atom 5.4596568023597065 8.2833463223642916 21.4256618500000009 O
atom 5.9927971323489313 5.9928830376250177 19.8192449800000006 O
atom 7.7501059176286811 7.7501800923490736 19.8192457500000003 O
atom 2.2905060700041426 2.2904851200025718 24.6384938300000016 Pd
atom 3.7023249276418824 0.8786424876328058 24.6384881000000036 O
atom 0.8786307323692488 3.7023185723548306 24.6384902700000019 O
atom 1.4118717623689716 1.4118214176467696 23.0320773900000013 O
atom 3.1691695376469786 3.1691240923674124 23.0320786800000015 O
atom 2.2905054800032838 2.2904878900023888 27.8513196300000025 Pd
atom -0.0000021899999070 9.1619922199997639 26.2449057700000026 Pd
atom 3.7023239176415266 0.8786436376324930 27.8513216700000079 O
atom 0.8786290223689234 3.7023196223543002 27.8513227800000074 O
atom 1.4118861923721027 1.4118113176512423 26.2449057100000047 O
atom 3.1691852176506181 3.1691123523722737 26.2449047900000032 O
atom 2.2904815299952155 6.8715101799951874 24.6384936800000034 Pd
atom 0.0000010199990515 4.5809993200005383 23.0320769400000032 Pd
atom 3.7023601476298058 5.4596777076439436 24.6384899600000011 O
atom 0.8786628323569862 8.2833543923650037 24.6384887700000021 O
atom 1.4118201123515606 5.9928738476309800 23.0320786400000017 O
atom 3.1691165976316968 7.7501696523512242 23.0320774500000027 O
atom 2.2904825399961268 6.8715072399954993 27.8513196000000001 Pd
atom 0.0000008399990453 4.5809993400004814 26.2449061500000020 Pd
atom 3.7023617576303010 5.4596761076444444 27.8513228800000014 O
atom 0.8786640823573487 8.2833532223653883 27.8513210000000022 O
atom 1.4118049523482039 5.9928846776262814 26.2449046600000031 O
atom 3.1691023976288393 7.7501788723468223 26.2449054800000035 O
atom 6.8715056500044742 2.2904847600036007 24.6384938400000024 Pd
atom 8.2833299276434325 0.8786381976355150 24.6384886700000010 O
atom 5.4596230123689775 3.7023201523535967 24.6384899400000030 O
atom 5.9928640223695799 1.4118201676455298 23.0320775700000020 O
atom 7.7501724076468053 3.1691253623694617 23.0320787600000045 O
atom 6.8715047700035905 2.2904876100033285 27.8513197500000054 Pd
atom 4.5809862700005732 9.1619913799973443 26.2449057300000028 Pd
atom 8.2833287776430673 0.8786393776351586 27.8513210999999963 O
atom 5.4596212623685618 3.7023214923530543 27.8513229299999985 O
atom 5.9928782723724563 1.4118108876499467 26.2449056399999989 O
atom 7.7501876576502315 3.1691143123741887 26.2449048400000038 O
atom 6.8714802499960799 6.8715080999959479 24.6384939600000017 Pd
atom 4.5809902699994050 4.5809988899983649 23.0320768600000001 Pd
atom 8.2833601776301293 5.4596773776451117 24.6384902200000013 O
atom 5.4596554223594280 8.2833472223638633 24.6384881500000041 O
atom 5.9928125723525625 5.9928713276298016 23.0320788500000013 O
atom 7.7501200976317381 7.7501702323534687 23.0320777100000029 O
atom 6.8714812699969414 6.8715053199962659 27.8513197200000029 Pd
atom 4.5809904299993924 4.5809989299984153 26.2449059799999986 Pd
atom 8.2833617676306037 5.4596758476456051 27.8513228800000014 O
atom 5.4596568023597065 8.2833463223642916 27.8513216500000063 O
atom 5.9927971323489313 5.9928830376250177 26.2449047800000024 O
atom 7.7501059176286811 7.7501800923490736 26.2449055500000021 O
