#===============================================================================
# Created using the Atomic Simulation Environment (ASE)

# Mon Mar 23 14:01:16 2026

#=======================================================
lattice_vector 9.1619939600004408 0.0000000000000000 0.0000000000000000 
lattice_vector 0.0000000000000000 6.4256598000000000 0.0000000000000000 
lattice_vector 0.0000000000000000 0.0000000000000000 31.7573374752812896 
atom 0.8786231523686295 1.6064118500000002 15.0000010099996430 O
atom 0.8786243023689426 4.8192454200000006 15.0000000000000000 O
atom 5.4596583723570511 1.6064137100000000 15.0000390700114963 O
atom 5.4596567723565537 4.8192466300000012 15.0000406800110042 O
atom 9.1619714600033344 6.4256573100000001 15.8786674976404498 Pd
atom 3.7022997276476532 1.6064136899999999 16.7573008452722405 O
atom 9.1619715000033377 3.2128294799999999 15.8786674876404703 Pd
atom 3.7023010676481971 4.8192466800000009 16.7572990952726570 O
atom 4.5809790100027596 0.0000006100000000 15.8786686476418595 Pd
atom 8.2833267976369491 1.6064119000000001 16.7573360952815733 O
atom 4.5809790500027114 3.2128297300000006 15.8786688076418727 Pd
atom 8.2833258976365212 4.8192453999999998 16.7573374752812896 O
