#===============================================================================
# Created using the Atomic Simulation Environment (ASE)

# Mon Mar 23 14:01:16 2026

#=======================================================
lattice_vector 9.1619925200004406 0.0000000000000000 0.0000000000000000 
lattice_vector -0.0000056800004464 9.1619939599986804 0.0000000000000000 
lattice_vector 0.0000000000000000 0.0000000000000000 47.6705687999999981 
atom -0.0000021199998853 9.1619921499997847 15.0000000000000000 Pd
atom 4.5809862800005865 9.1619913399973480 15.0000000300000007 Pd
atom 2.2905060700041426 2.2904851200025718 16.6064201000000011 Pd
atom -0.0000021199998853 9.1619921499997847 21.4256598000000018 Pd
atom 3.7023249276418824 0.8786424876328058 16.6064143700000031 O
atom 0.8786307323692488 3.7023185723548306 16.6064165400000014 O
atom 1.4118717623689716 1.4118214176467696 15.0000036600000008 O
atom 3.1691695376469786 3.1691240923674124 15.0000049500000010 O
atom 2.2905054800032838 2.2904878900023888 19.8192458999999985 Pd
atom -0.0000021899999070 9.1619922199997639 18.2128320399999986 Pd
atom 3.7023239176415266 0.8786436376324930 19.8192479400000003 O
atom 0.8786290223689234 3.7023196223543002 19.8192490499999998 O
atom 1.4118861923721027 1.4118113176512423 18.2128319800000007 O
atom 3.1691852176506181 3.1691123523722737 18.2128310599999992 O
atom 2.2904815299952155 6.8715101799951874 16.6064199500000029 Pd
atom 0.0000010199990515 4.5809993200005383 15.0000032100000009 Pd
atom 3.7023601476298058 5.4596777076439436 16.6064162300000007 O
atom 0.8786628323569862 8.2833543923650037 16.6064150400000017 O
atom 1.4118201123515606 5.9928738476309800 15.0000049100000012 O
atom 3.1691165976316968 7.7501696523512242 15.0000037200000005 O
atom 2.2904825399961268 6.8715072399954993 19.8192458699999996 Pd
atom 0.0000008399990453 4.5809993400004814 18.2128324200000016 Pd
atom 3.7023617576303010 5.4596761076444444 19.8192491499999974 O
atom 0.8786640823573487 8.2833532223653883 19.8192472700000017 O
atom 1.4118049523482039 5.9928846776262814 18.2128309300000026 O
atom 3.1691023976288393 7.7501788723468223 18.2128317499999994 O
atom 6.8715056500044742 2.2904847600036007 16.6064201100000020 Pd
atom 4.5809862800005865 9.1619913399973480 21.4256598300000007 Pd
atom 8.2833299276434325 0.8786381976355150 16.6064149400000005 O
atom 5.4596230123689775 3.7023201523535967 16.6064162099999990 O
atom 5.9928640223695799 1.4118201676455298 15.0000038400000015 O
atom 7.7501724076468053 3.1691253623694617 15.0000050300000005 O
atom 6.8715047700035905 2.2904876100033285 19.8192460200000014 Pd
atom 4.5809862700005732 9.1619913799973443 18.2128319999999988 Pd
atom 8.2833287776430673 0.8786393776351586 19.8192473699999994 O
atom 5.4596212623685618 3.7023214923530543 19.8192492000000016 O
atom 5.9928782723724563 1.4118108876499467 18.2128319099999985 O
atom 7.7501876576502315 3.1691143123741887 18.2128311099999998 O
atom 6.8714802499960799 6.8715080999959479 16.6064202300000012 Pd
atom 4.5809902699994050 4.5809988899983649 15.0000031299999996 Pd
atom 8.2833601776301293 5.4596773776451117 16.6064164900000009 O
atom 5.4596554223594280 8.2833472223638633 16.6064144200000001 O
atom 5.9928125723525625 5.9928713276298016 15.0000051200000009 O
atom 7.7501200976317381 7.7501702323534687 15.0000039800000007 O
atom 6.8714812699969414 6.8715053199962659 19.8192459899999989 Pd
atom 4.5809904299993924 4.5809989299984153 18.2128322499999982 Pd
atom 8.2833617676306037 5.4596758476456051 19.8192491499999974 O
atom 5.4596568023597065 8.2833463223642916 19.8192479200000022 O
atom 5.9927971323489313 5.9928830376250177 18.2128310499999984 O
atom 7.7501059176286811 7.7501800923490736 18.2128318200000017 O
atom 2.2905060700041426 2.2904851200025718 23.0320798999999994 Pd
atom -0.0000021199998853 9.1619921499997847 27.8513196000000001 Pd
atom 3.7023249276418824 0.8786424876328058 23.0320741700000013 O
atom 0.8786307323692488 3.7023185723548306 23.0320763400000033 O
atom 1.4118717623689716 1.4118214176467696 21.4256634600000027 O
atom 3.1691695376469786 3.1691240923674124 21.4256647500000028 O
atom 2.2905054800032838 2.2904878900023888 26.2449057000000003 Pd
atom -0.0000021899999070 9.1619922199997639 24.6384918400000004 Pd
atom 3.7023239176415266 0.8786436376324930 26.2449077399999986 O
atom 0.8786290223689234 3.7023196223543002 26.2449088500000016 O
atom 1.4118861923721027 1.4118113176512423 24.6384917799999990 O
atom 3.1691852176506181 3.1691123523722737 24.6384908600000010 O
atom 2.2904815299952155 6.8715101799951874 23.0320797500000012 Pd
atom 0.0000010199990515 4.5809993200005383 21.4256630100000010 Pd
atom 3.7023601476298058 5.4596777076439436 23.0320760299999989 O
atom 0.8786628323569862 8.2833543923650037 23.0320748399999999 O
atom 1.4118201123515606 5.9928738476309800 21.4256647099999995 O
atom 3.1691165976316968 7.7501696523512242 21.4256635200000005 O
atom 2.2904825399961268 6.8715072399954993 26.2449056700000014 Pd
atom 0.0000008399990453 4.5809993400004814 24.6384922199999998 Pd
atom 3.7023617576303010 5.4596761076444444 26.2449089499999992 O
atom 0.8786640823573487 8.2833532223653883 26.2449070700000000 O
atom 1.4118049523482039 5.9928846776262814 24.6384907300000009 O
atom 3.1691023976288393 7.7501788723468223 24.6384915500000012 O
atom 6.8715056500044742 2.2904847600036007 23.0320799100000002 Pd
atom 4.5809862800005865 9.1619913399973480 27.8513196300000025 Pd
atom 8.2833299276434325 0.8786381976355150 23.0320747399999988 O
atom 5.4596230123689775 3.7023201523535967 23.0320760100000008 O
atom 5.9928640223695799 1.4118201676455298 21.4256636400000033 O
atom 7.7501724076468053 3.1691253623694617 21.4256648300000023 O
atom 6.8715047700035905 2.2904876100033285 26.2449058199999996 Pd
atom 4.5809862700005732 9.1619913799973443 24.6384918000000006 Pd
atom 8.2833287776430673 0.8786393776351586 26.2449071700000012 O
atom 5.4596212623685618 3.7023214923530543 26.2449089999999998 O
atom 5.9928782723724563 1.4118108876499467 24.6384917100000003 O
atom 7.7501876576502315 3.1691143123741887 24.6384909100000016 O
atom 6.8714802499960799 6.8715080999959479 23.0320800300000030 Pd
atom 4.5809902699994050 4.5809988899983649 21.4256629300000014 Pd
atom 8.2833601776301293 5.4596773776451117 23.0320762899999991 O
atom 5.4596554223594280 8.2833472223638633 23.0320742199999984 O
atom 5.9928125723525625 5.9928713276298016 21.4256649200000027 O
atom 7.7501200976317381 7.7501702323534687 21.4256637800000007 O
atom 6.8714812699969414 6.8715053199962659 26.2449057900000007 Pd
atom 4.5809904299993924 4.5809989299984153 24.6384920500000000 Pd
atom 8.2833617676306037 5.4596758476456051 26.2449089499999992 O
atom 5.4596568023597065 8.2833463223642916 26.2449077200000005 O
atom 5.9927971323489313 5.9928830376250177 24.6384908500000002 O
atom 7.7501059176286811 7.7501800923490736 24.6384916199999999 O
atom 2.2905060700041426 2.2904851200025718 29.4577397000000012 Pd
atom 3.7023249276418824 0.8786424876328058 29.4577339700000032 O
atom 0.8786307323692488 3.7023185723548306 29.4577361400000015 O
atom 1.4118717623689716 1.4118214176467696 27.8513232600000009 O
atom 3.1691695376469786 3.1691240923674124 27.8513245500000011 O
atom 2.2905054800032838 2.2904878900023888 32.6705655000000021 Pd
atom -0.0000021899999070 9.1619922199997639 31.0641516400000022 Pd
atom 3.7023239176415266 0.8786436376324930 32.6705675400000075 O
atom 0.8786290223689234 3.7023196223543002 32.6705686500000070 O
atom 1.4118861923721027 1.4118113176512423 31.0641515800000043 O
atom 3.1691852176506181 3.1691123523722737 31.0641506600000028 O
atom 2.2904815299952155 6.8715101799951874 29.4577395500000030 Pd
atom 0.0000010199990515 4.5809993200005383 27.8513228100000028 Pd
atom 3.7023601476298058 5.4596777076439436 29.4577358300000007 O
atom 0.8786628323569862 8.2833543923650037 29.4577346400000017 O
atom 1.4118201123515606 5.9928738476309800 27.8513245100000013 O
atom 3.1691165976316968 7.7501696523512242 27.8513233200000023 O
atom 2.2904825399961268 6.8715072399954993 32.6705654699999997 Pd
atom 0.0000008399990453 4.5809993400004814 31.0641520200000016 Pd
atom 3.7023617576303010 5.4596761076444444 32.6705687500000010 O
atom 0.8786640823573487 8.2833532223653883 32.6705668700000018 O
atom 1.4118049523482039 5.9928846776262814 31.0641505300000027 O
atom 3.1691023976288393 7.7501788723468223 31.0641513500000030 O
atom 6.8715056500044742 2.2904847600036007 29.4577397100000020 Pd
atom 8.2833299276434325 0.8786381976355150 29.4577345400000006 O
atom 5.4596230123689775 3.7023201523535967 29.4577358100000026 O
atom 5.9928640223695799 1.4118201676455298 27.8513234400000016 O
atom 7.7501724076468053 3.1691253623694617 27.8513246300000041 O
atom 6.8715047700035905 2.2904876100033285 32.6705656200000050 Pd
atom 4.5809862700005732 9.1619913799973443 31.0641516000000024 Pd
atom 8.2833287776430673 0.8786393776351586 32.6705669699999959 O
atom 5.4596212623685618 3.7023214923530543 32.6705687999999981 O
atom 5.9928782723724563 1.4118108876499467 31.0641515099999985 O
atom 7.7501876576502315 3.1691143123741887 31.0641507100000034 O
atom 6.8714802499960799 6.8715080999959479 29.4577398300000013 Pd
atom 4.5809902699994050 4.5809988899983649 27.8513227299999997 Pd
atom 8.2833601776301293 5.4596773776451117 29.4577360900000009 O
atom 5.4596554223594280 8.2833472223638633 29.4577340200000037 O
atom 5.9928125723525625 5.9928713276298016 27.8513247200000009 O
atom 7.7501200976317381 7.7501702323534687 27.8513235800000025 O
atom 6.8714812699969414 6.8715053199962659 32.6705655900000025 Pd
atom 4.5809904299993924 4.5809989299984153 31.0641518499999982 Pd
atom 8.2833617676306037 5.4596758476456051 32.6705687500000010 O
atom 5.4596568023597065 8.2833463223642916 32.6705675200000059 O
atom 5.9927971323489313 5.9928830376250177 31.0641506500000020 O
atom 7.7501059176286811 7.7501800923490736 31.0641514200000017 O
