#===============================================================================
# Created using the Atomic Simulation Environment (ASE)

# Mon Mar 23 14:01:15 2026

#=======================================================
lattice_vector 11.1906751718508950 0.0000000000000000 0.0000000000000000 
lattice_vector 3.6895943445015020 10.5649482138552457 0.0000000000000000 
lattice_vector 0.0000000000000000 0.0000000000000000 43.4211139066641820 
atom 11.1906748831497822 7.9453426839928483 15.8750471325560518 Pd
atom 14.1914050597051773 10.0757910640111632 15.0000045144220699 O
atom 12.3465544868149522 4.7933907303712155 15.0000076739677652 O
atom 8.5960513742409859 10.0758032907918444 15.0000009936712608 O
atom 5.5953296481090469 7.9453434103129199 15.8750443212761851 Pd
atom 3.7505328341448982 2.6628724455670736 15.8750478659798944 Pd
atom 6.7512033077613864 4.7934057339836702 15.0000000000000000 O
atom 12.1435448075700272 8.6218629773940254 19.2966953994408854 Pd
atom 7.5010758883371231 5.3257387143016777 20.4372437706670951 Pd
atom 13.2994277577641551 6.9938375750804767 19.2966791672313178 O
atom 10.9876209505561668 10.2499003548733345 19.2966723405012708 O
atom 12.3465928409821277 8.7660013196548903 17.2811017991555573 O
atom 13.7853211157432654 9.7874975254896341 19.0311916866890769 O
atom 13.9883461761433256 9.9316692045777799 17.0155952549262359 Pd
atom 9.3458740996502154 6.6355399074339765 18.1561469710043006 Pd
atom 3.9535491491099317 8.3036393498131371 17.0155835235759945 O
atom 9.1428232047992264 0.9947544613137330 17.0155755458909681 O
atom 10.5018060648925253 7.4561870943199899 19.5622011525331168 O
atom 0.7498661104870903 0.5323381773405808 16.7500926386634106 O
atom 12.1435294526959883 4.6492214721055332 17.0156001507934533 Pd
atom 7.5010766159320825 1.3530687967034012 18.1561499465700180 Pd
atom 2.1087850034086060 3.0211869745698197 17.0156201622172141 O
atom 10.9876527429595221 6.2772525365588070 17.0156096950689708 O
atom 8.6569554920022984 2.1737867606800445 19.5622043120788121 O
atom 2.5946079575926762 5.8148823583756322 16.7500917374526033 O
atom 10.2987330675010629 3.3394182714530722 19.2966946830226149 Pd
atom 9.3458763621658054 2.6628711316570430 15.8750510579451216 Pd
atom 11.4546602619104334 1.7113819106719881 19.2967206304420920 O
atom 9.1428529310687363 4.9674482297895093 19.2967097082525321 O
atom 10.5017448055479026 3.4836040537230120 17.2811010821197399 O
atom 11.9404730800076031 4.5050931916068251 19.0311862490315207 O
atom 8.3930094314484300 9.9316636967123095 17.0155985614121548 Pd
atom 3.7505313474791078 6.6355422318145498 18.1561411557002934 Pd
atom 9.5488964975373047 8.3036331082869097 17.0155834687438627 O
atom 3.5474854485279632 0.9947567685479499 17.0155725920709706 O
atom 4.9064523794283295 7.4561993211006747 19.5621976317823076 O
atom 6.3451940485038199 0.5323504752837948 16.7500973482653173 O
atom 6.5482115046194647 8.6218660616537388 19.2966950285390340 Pd
atom 1.9057306532963922 5.3257394406217475 20.4372409593872320 Pd
atom 7.7040946058863353 6.9938314441270748 19.2966835990291514 O
atom 5.3922770885977398 10.2499034002487335 19.2966729008571178 O
atom 6.7512645943315928 8.7659899299518553 17.2811004882364792 O
atom 8.1900035744664645 9.7874843187029263 19.0311950465172828 O
atom 4.7033942226324470 3.3394168659553665 19.2966988578685203 Pd
atom 0.0609338393322445 0.0432684758759028 20.4372445040909412 Pd
atom 5.8593260291983258 1.7113835196292606 19.2967203788138271 O
atom 3.5475130109418869 4.9674456359294652 19.2967021761682354 O
atom 4.9064141717788852 3.4835875610499061 17.2811029950898956 O
atom 6.3451518243290721 4.5050787004491140 19.0311941350624352 O
atom 6.5481969323089206 4.6492178361165344 17.0155967230383709 Pd
atom 1.9057339156074269 1.3530707676517850 18.1561457308277134 Pd
atom 7.7041252435789591 3.0211825978419196 17.0156240492259450 O
atom 5.3923115710657976 6.2772449780756912 17.0156066521157108 O
atom 3.0616043129487331 2.1738017642924996 19.5621966381110468 O
atom 8.1899408951774895 5.8148941301243511 16.7500922022767398 O
atom 8.4539458127573663 6.0022590077028530 23.8588920375519393 Pd
atom 3.8114768935244636 2.7061347446105071 24.9994404087781419 Pd
atom 9.6098287629514996 4.3742336053893061 23.8588758053423646 O
atom 7.2980219557435149 7.6302963851821630 23.8588689786123211 O
atom 8.6569938461694669 6.1463973499637206 21.8432984372666041 O
atom 10.0957221209306045 7.1678935557984644 23.5933883248001237 O
atom 10.2987471813306648 7.3120652348866102 21.5777918930372827 Pd
atom 5.6562751048375564 4.0159359377428068 22.7183436091153474 Pd
atom 11.4546253261481716 5.6840353801219656 21.5777801616870413 O
atom 9.1428185544880751 8.9400987054778067 21.5777721840020149 O
atom 6.8122070700798627 4.8365831246288193 24.1243977906441671 O
atom 11.9405366320268271 8.4776824215046567 21.3122892767744574 O
atom 8.4539304578833345 2.0296175024143617 21.5777967889044966 Pd
atom 7.5010719656209313 9.2984130408674748 22.7183465846810648 Pd
atom 9.6098611804468419 0.4015830048786485 21.5778168003282609 O
atom 7.2980537481468595 3.6576485668676386 21.5778063331800141 O
atom 8.6569508416911383 10.1191310048441192 24.1244009501898589 O
atom 10.0956841346309130 3.1952783886844611 21.3122883755636536 O
atom 6.6091340726884065 0.7198143017619025 23.8588913211336617 Pd
atom 5.6562773673531499 0.0432671619658724 20.4372476960561684 Pd
atom 11.4546556115992768 9.6567261548360612 23.8589172685531352 O
atom 5.4532539362560808 2.3478442600983396 23.8589063463635789 O
atom 6.8121458107352444 0.8640000840318399 21.8432977202307868 O
atom 8.2508740851949476 1.8854892219156529 23.5933828871425675 O
atom 4.7034104366357754 7.3120597270211363 21.5777951995231980 Pd
atom 11.2516075245173468 4.0159382621233801 22.7183377938113402 Pd
atom 5.8592975027246439 5.6840291385957400 21.5777801068549095 O
atom 3.5474807982168084 8.9401010127120237 21.5777692301820210 O
atom 12.4075285564665716 4.8365953514095033 24.1243942698933580 O
atom 6.3451893981926659 8.4776947194478680 21.3122939863763605 O
atom 2.8586125098068078 6.0022620919625655 23.8588916666500808 Pd
atom 9.4068068303346202 2.7061354709305765 24.9994375974982823 Pd
atom 4.0144956110736763 4.3742274744359024 23.8588802371401982 O
atom 12.8933532656359766 7.6302994305575629 23.8588695389681646 O
atom 3.0616655995189346 6.1463859602606856 21.8432971263475224 O
atom 4.5004045796538055 7.1678803490117540 23.5933916846283331 O
atom 1.0137952278197857 0.7198128962641953 23.8588954959795636 Pd
atom 11.2516043608719869 7.9886127200399786 24.9994411422019880 Pd
atom 5.8593213788871719 9.6567277637933344 23.8589170169248739 O
atom 11.0485891879801166 2.3478416662382959 23.8588988142792786 O
atom 1.2168151769662261 0.8639835913587356 21.8432996332009388 O
atom 2.6555528295164113 1.8854747307579431 23.5933907731734820 O
atom 2.8585979374962620 2.0296138664253642 21.5777933611494142 Pd
atom 13.0964044371471662 9.2984150118158588 22.7183423689387567 Pd
atom 4.0145262487663027 0.4015786281507487 21.5778206873369953 O
atom 1.7027125762531388 3.6576410083845214 21.5778032902267611 O
atom 14.2522748344884640 10.1191460084565747 24.1243932762220936 O
atom 4.5003419003648322 3.1952901604331796 21.3122888403877866 O
atom 4.7643468179447055 3.3826550380116815 28.4210886756629790 Pd
atom 5.9202297681388325 1.7546296356981350 28.4210724434534114 O
atom 3.6084229609308585 5.0106924154909915 28.4210656167233751 O
atom 4.9673948513568149 3.5267933802725495 26.4054950753776545 O
atom 6.4061231261179579 4.5482895861072903 28.1555849629111705 O
atom 6.6091481865180128 4.6924612651954378 26.1399885311483331 Pd
atom 1.9666761100249095 1.3963319680516337 27.2805402472263978 Pd
atom 7.7650263313355135 3.0644314104307933 26.1399767997980881 O
atom 5.4532195596754187 6.3204947357866352 26.1399688221130617 O
atom 8.2509376372141716 5.8580784518134843 25.8744859148855006 O
atom 8.4539258075721815 9.9749617465784350 26.1399934270155434 Pd
atom 3.8114729708082691 6.6788090711763024 27.2805432227921116 Pd
atom 9.6098565301356924 8.3469272490427233 26.1400134384393112 O
atom 3.6084547533342124 1.0380445971764651 26.1400029712910680 O
atom 6.4060851398182557 0.5756744189932899 25.8744850136747004 O
atom 6.6091294223772552 8.6651585459259746 28.4210879592447156 Pd
atom 5.6562727170419942 7.9886114061299445 24.9994443341672152 Pd
atom 7.7650566167866204 7.0371221851448915 28.4211139066641820 O
atom 5.4532492859449269 10.2931885042624156 28.4211029844746292 O
atom 6.8121411604240851 8.8093443281959161 26.4054943583418336 O
atom 8.2508694348837892 9.8308334660797296 28.1555795252536072 O
atom 12.2044866136740158 4.6924557573299666 26.1399918376342413 Pd
atom 7.5620085297046886 1.3963342924322093 27.2805344319223870 Pd
atom 2.1696985079119964 3.0644251689045676 26.1399767449659599 O
atom 11.0485569752550443 6.3204970430208558 26.1399658682930607 O
atom 2.6555904033800095 5.8580907497566965 25.8744906244874073 O
atom 10.3596886868450415 3.3826581222713945 28.4210883047611276 Pd
atom 11.5155717881119148 1.7546235047447321 28.4210768752512450 O
atom 9.2037542708233211 5.0106954608663905 28.4210661770792186 O
atom 10.5627417765571732 3.5267819905695137 26.4054937644585692 O
atom 12.0014807566920503 4.5482763793205834 28.1555883227393693 O
atom 12.2044657493595281 8.6651571404282723 28.4210921340906069 Pd
atom 13.3603975559254042 7.0371237941021638 28.4211136550359171 O
atom 11.0485845376689724 10.2931859104023697 28.4210954523903254 O
atom 12.4074856985059707 8.8093278355228080 26.4054962713119892 O
atom 13.8462233510561514 9.8308189749220194 28.1555874112845288 O
atom 14.0492684590359982 9.9749581105894389 26.1399899992604645 Pd
atom 9.4068054423345107 6.6788110421246891 27.2805390070498106 Pd
atom 4.0145215984551434 8.3469228723148241 26.1400173254480386 O
atom 9.2037887532913789 1.0380370386933513 26.1399999283378008 O
atom 0.8107429055521764 0.5756861907420102 25.8744854784988334 O
