#===============================================================================
# Created using the Atomic Simulation Environment (ASE)

# Mon Mar 23 14:01:16 2026

#=======================================================
lattice_vector 9.1619939600004408 0.0000000000000000 0.0000000000000000 
lattice_vector 0.0000000000000000 6.4256598000000000 0.0000000000000000 
lattice_vector 0.0000000000000000 0.0000000000000000 52.3718383099853639 
atom 2.2904780199977668 1.6064175800000002 15.8786988223441554 Pd
atom 0.8786345123677368 1.6064118500000002 17.2905168047063462 O
atom 1.4118148623536104 0.0000011400000000 15.0000639699794540 O
atom 3.1691164476328844 0.0000024300000000 16.7573628347011905 O
atom 2.2904807899979498 4.8192433800000005 15.8786982323450161 Pd
atom 0.8786356623680500 4.8192454200000006 17.2905157947067032 O
atom 1.4118047623491372 3.2128294600000005 15.0000783999763243 O
atom 3.1691047076280245 3.2128285399999994 16.7573785146975531 O
atom 6.8715030800047145 1.6064174299999998 15.8786771223528582 Pd
atom 5.4596697323561596 1.6064137100000000 17.2905548647182066 O
atom 5.9928672923689614 0.0000023900000000 15.0000151599966429 O
atom 7.7501620076486351 0.0000012000000000 16.7573127347162512 O
atom 6.8715001400044011 4.8192433499999998 15.8786781323519470 Pd
atom 5.4596681323556622 4.8192466300000012 17.2905564747177074 O
atom 5.9928781223736607 3.2128284100000006 15.0000000000000000 O
atom 7.7501712276530377 3.2128292299999996 16.7572985347191086 O
atom 2.2904748199969611 1.6064175900000004 20.4596984023433883 Pd
atom 9.1619828200024411 6.4256573100000001 18.1691832923471601 Pd
atom 0.8786273823652507 1.6064124199999998 21.8715218047043614 O
atom 3.7023110876467604 1.6064136899999999 19.0478166399789437 O
atom 1.4118107723550735 0.0000013200000000 19.5810562299784046 O
atom 3.1691148776310589 0.0000025100000000 21.3383657047009265 O
atom 2.2904776699972338 4.8192434999999998 20.4596975223442747 Pd
atom 9.1619828600024444 3.2128294799999999 18.1691832823471699 Pd
atom 0.8786285623656073 4.8192448500000005 21.8715206547047281 O
atom 3.7023124276473047 4.8192466800000009 19.0478148899793602 O
atom 1.4118014923506561 3.2128293900000005 19.5810704799755335 O
atom 3.1691038276263308 3.2128285900000004 21.3383809546975023 O
atom 6.8714981600041760 1.6064177100000003 20.4596758423515617 Pd
atom 4.5809903700018673 0.0000006100000000 18.1691844423485627 Pd
atom 5.4596665623552134 1.6064139700000002 21.8715548947174412 O
atom 8.2833381576360559 1.6064119000000001 19.0478518899882765 O
atom 5.9928619323703600 0.0000026000000000 19.5810076199952015 O
atom 7.7501597476466131 0.0000014600000000 21.3383162347157729 O
atom 6.8714953800038598 4.8192434700000009 20.4596768623506975 Pd
atom 4.5809904100018191 3.2128297300000006 18.1691846023485759 Pd
atom 5.4596650323547218 4.8192466300000012 21.8715564847169688 O
atom 8.2833372576356279 4.8192453999999998 19.0478532699879928 O
atom 5.9928736423751490 3.2128285299999999 19.5809921799988338 O
atom 7.7501696076510092 3.2128293000000006 21.3383020547188309 O
atom 2.2904723399982130 1.6064175800000002 25.0406913423428357 Pd
atom 9.1619807900002304 6.4256572800000011 22.7501874123467509 Pd
atom 0.8786288323681830 1.6064118500000002 26.4525093247050336 O
atom 3.7023066676457508 1.6064140200000003 23.6288168799778013 O
atom 1.4118091823540571 0.0000011400000000 24.1620564899781378 O
atom 3.1691107676333310 0.0000024300000000 25.9193553546998743 O
atom 2.2904751099983960 4.8192433800000005 25.0406907523436963 Pd
atom 9.1619808600002521 3.2128295200000001 22.7501873423467735 Pd
atom 0.8786299823684963 4.8192454200000006 26.4525083147053870 O
atom 3.7023077176462813 4.8192465300000009 23.6288151699781253 O
atom 1.4117990823495838 3.2128294600000005 24.1620709199750081 O
atom 3.1690990276284703 3.2128285399999994 25.9193710346962334 O
atom 6.8714974000051594 1.6064174299999998 25.0406696423515420 Pd
atom 4.5809879599999190 0.0000006900000000 22.7501877123480405 Pd
atom 5.4596640523566053 1.6064137100000000 26.4525473847168833 O
atom 8.2833424876351422 1.6064125200000001 23.6288518199898370 O
atom 5.9928616123694081 0.0000023900000000 24.1620076799953267 O
atom 7.7501563276490808 0.0000012000000000 25.9193052547149314 O
atom 6.8714944600048460 4.8192433499999998 25.0406706523506344 Pd
atom 4.5809879799999722 3.2128299000000009 22.7501875323480434 Pd
atom 5.4596624523561079 4.8192466300000012 26.4525489947163912 O
atom 8.2833413176347523 4.8192447500000002 23.6288530699894750 O
atom 5.9928724423741064 3.2128284100000006 24.1619925199986803 O
atom 7.7501655476534825 3.2128292299999996 25.9192910547177924 O
atom 2.2904691399974073 1.6064175900000004 29.6216909223420650 Pd
atom 9.1619771400028895 6.4256573100000001 27.3311758123458439 Pd
atom 0.8786217023656969 1.6064124199999998 31.0335143247030452 O
atom 3.7023054076472075 1.6064136899999999 28.2098091599776346 O
atom 1.4118050923555201 0.0000013200000000 28.7430487499770884 O
atom 3.1691091976315056 0.0000025100000000 30.5003582246996068 O
atom 2.2904719899976800 4.8192434999999998 29.6216900423429514 Pd
atom 9.1619771800028929 3.2128294799999999 27.3311758023458538 Pd
atom 0.8786228823660536 4.8192448500000005 31.0335131747034119 O
atom 3.7023067476477509 4.8192466800000009 28.2098074099780369 O
atom 1.4117958123511025 3.2128293900000005 28.7430629999742102 O
atom 3.1690981476267766 3.2128285900000004 30.5003734746961861 O
atom 6.8714924800046218 1.6064177100000003 29.6216683623502384 Pd
atom 4.5809846900023130 0.0000006100000000 27.3311769623472465 Pd
atom 5.4596608823556600 1.6064139700000002 31.0335474147161285 O
atom 8.2833324776365025 1.6064119000000001 28.2098444099869532 O
atom 5.9928562523708049 0.0000026000000000 28.7430001399938853 O
atom 7.7501540676470588 0.0000014600000000 30.5003087547144496 O
atom 6.8714897000043056 4.8192434700000009 29.6216693823493777 Pd
atom 4.5809847300022648 3.2128297300000006 27.3311771223472597 Pd
atom 5.4596593523551666 4.8192466300000012 31.0335490047156490 O
atom 8.2833315776360763 4.8192453999999998 28.2098457899866695 O
atom 5.9928679623755947 3.2128285299999999 28.7429846999975105 O
atom 7.7501639276514549 3.2128293000000006 30.5002945747175112 O
atom 2.2904666599986596 1.6064175800000002 34.2026838623415301 Pd
atom 9.1619751100006752 6.4256572800000011 31.9121799323454347 Pd
atom 0.8786231523686295 1.6064118500000002 35.6145018447037103 O
atom 3.7023009876461970 1.6064140200000003 32.7908093999764816 O
atom 1.4118035023545032 0.0000011400000000 33.3240490099768323 O
atom 3.1691050876337772 0.0000024300000000 35.0813478746985652 O
atom 2.2904694299988422 4.8192433800000005 34.2026832723423837 Pd
atom 9.1619751800006970 3.2128295200000001 31.9121798623454502 Pd
atom 0.8786243023689426 4.8192454200000006 35.6145008347040744 O
atom 3.7023020376467271 4.8192465300000009 32.7908076899768162 O
atom 1.4117934023500303 3.2128294600000005 33.3240634399736848 O
atom 3.1690933476289169 3.2128285399999994 35.0813635546949172 O
atom 6.8714917200056069 1.6064174299999998 34.2026621623502223 Pd
atom 4.5809822800003657 0.0000006900000000 31.9121802323467243 Pd
atom 5.4596583723570511 1.6064137100000000 35.6145399047155706 O
atom 8.2833368076355889 1.6064125200000001 32.7908443399885243 O
atom 5.9928559323698547 0.0000023900000000 33.3240001999940034 O
atom 7.7501506476495283 0.0000012000000000 35.0812977747136188 O
atom 6.8714887800052935 4.8192433499999998 34.2026631723493182 Pd
atom 4.5809823000004188 3.2128299000000009 31.9121800523467236 Pd
atom 5.4596567723565537 4.8192466300000012 35.6145415147150715 O
atom 8.2833356376351990 4.8192447500000002 32.7908455899881659 O
atom 5.9928667623745540 3.2128284100000006 33.3239850399973676 O
atom 7.7501598676539301 3.2128292299999996 35.0812835747164797 O
atom 9.1619714600033344 6.4256573100000001 36.4931683323445242 Pd
atom 3.7022997276476532 1.6064136899999999 37.3718016799763149 O
atom 9.1619715000033377 3.2128294799999999 36.4931683223445447 Pd
atom 3.7023010676481971 4.8192466800000009 37.3717999299767314 O
atom 4.5809790100027596 0.0000006100000000 36.4931694823459338 Pd
atom 8.2833267976369491 1.6064119000000001 37.3718369299856477 O
atom 4.5809790500027114 3.2128297300000006 36.4931696423459471 Pd
atom 8.2833258976365212 4.8192453999999998 37.3718383099853639 O
