#===============================================================================
# Created using the Atomic Simulation Environment (ASE)

# Mon Mar 23 14:01:16 2026

#=======================================================
lattice_vector 9.1619939600004408 0.0000000000000000 0.0000000000000000 
lattice_vector 0.0000000000000000 6.4256598000000000 0.0000000000000000 
lattice_vector 0.0000000000000000 0.0000000000000000 38.6288536099878499 
atom 2.2904691399974073 1.6064175900000004 15.8787062223445545 Pd
atom 0.8786217023656969 1.6064124199999998 17.2905296247055347 O
atom 1.4118050923555201 0.0000013200000000 15.0000640499795779 O
atom 3.1691091976315056 0.0000025100000000 16.7573735247020963 O
atom 2.2904719899976800 4.8192434999999998 15.8787053423454410 Pd
atom 0.8786228823660536 4.8192448500000005 17.2905284747059014 O
atom 1.4117958123511025 3.2128293900000005 15.0000782999766997 O
atom 3.1690981476267766 3.2128285900000004 16.7573887746986756 O
atom 6.8714924800046218 1.6064177100000003 15.8786836623527279 Pd
atom 5.4596608823556600 1.6064139700000002 17.2905627147186181 O
atom 5.9928562523708049 0.0000026000000000 15.0000154399963748 O
atom 7.7501540676470588 0.0000014600000000 16.7573240547169391 O
atom 6.8714897000043056 4.8192434700000009 15.8786846823518673 Pd
atom 5.4596593523551666 4.8192466300000012 17.2905643047181385 O
atom 5.9928679623755947 3.2128285299999999 15.0000000000000000 O
atom 7.7501639276514549 3.2128293000000006 16.7573098747200007 O
atom 2.2904666599986596 1.6064175800000002 20.4596991623440161 Pd
atom 9.1619751100006752 6.4256572800000011 18.1691952323479242 Pd
atom 0.8786231523686295 1.6064118500000002 21.8715171447062033 O
atom 3.7023009876461970 1.6064140200000003 19.0478246999789675 O
atom 1.4118035023545032 0.0000011400000000 19.5810643099793182 O
atom 3.1691050876337772 0.0000024300000000 21.3383631747010512 O
atom 2.2904694299988422 4.8192433800000005 20.4596985723448697 Pd
atom 9.1619751800006970 3.2128295200000001 18.1691951623479397 Pd
atom 0.8786243023689426 4.8192454200000006 21.8715161347065603 O
atom 3.7023020376467271 4.8192465300000009 19.0478229899793021 O
atom 1.4117934023500303 3.2128294600000005 19.5810787399761708 O
atom 3.1690933476289169 3.2128285399999994 21.3383788546974031 O
atom 6.8714917200056069 1.6064174299999998 20.4596774623527153 Pd
atom 4.5809822800003657 0.0000006900000000 18.1691955323492138 Pd
atom 5.4596583723570511 1.6064137100000000 21.8715552047180566 O
atom 8.2833368076355889 1.6064125200000001 19.0478596399910103 O
atom 5.9928559323698547 0.0000023900000000 19.5810154999964965 O
atom 7.7501506476495283 0.0000012000000000 21.3383130747161047 O
atom 6.8714887800052935 4.8192433499999998 20.4596784723518041 Pd
atom 4.5809823000004188 3.2128299000000009 18.1691953523492131 Pd
atom 5.4596567723565537 4.8192466300000012 21.8715568147175645 O
atom 8.2833356376351990 4.8192447500000002 19.0478608899906519 O
atom 5.9928667623745540 3.2128284100000006 19.5810003399998536 O
atom 7.7501598676539301 3.2128292299999996 21.3382988747189657 O
atom 9.1619714600033344 6.4256573100000001 22.7501836323470101 Pd
atom 3.7022997276476532 1.6064136899999999 23.6288169799788008 O
atom 9.1619715000033377 3.2128294799999999 22.7501836223470306 Pd
atom 3.7023010676481971 4.8192466800000009 23.6288152299792173 O
atom 4.5809790100027596 0.0000006100000000 22.7501847823484198 Pd
atom 8.2833267976369491 1.6064119000000001 23.6288522299881336 O
atom 4.5809790500027114 3.2128297300000006 22.7501849423484330 Pd
atom 8.2833258976365212 4.8192453999999998 23.6288536099878499 O
