#===============================================================================
# Created using the Atomic Simulation Environment (ASE)

# Mon Mar 23 14:01:16 2026

#=======================================================
lattice_vector 9.1619925200004406 0.0000000000000000 0.0000000000000000 
lattice_vector -0.0000056800004464 9.1619939599986804 0.0000000000000000 
lattice_vector 0.0000000000000000 0.0000000000000000 36.4256631299999967 
atom -0.0000021199998853 9.1619921499997847 16.6064139299999987 Pd
atom 2.2905054800032838 2.2904878900023888 15.0000000299999989 Pd
atom 3.7023239176415266 0.8786436376324930 15.0000020699999972 O
atom 0.8786290223689234 3.7023196223543002 15.0000031800000002 O
atom 2.2904825399961268 6.8715072399954993 15.0000000000000000 Pd
atom 3.7023617576303010 5.4596761076444444 15.0000032799999978 O
atom 0.8786640823573487 8.2833532223653883 15.0000013999999986 O
atom 4.5809862800005865 9.1619913399973480 16.6064139600000011 Pd
atom 6.8715047700035905 2.2904876100033285 15.0000001499999982 Pd
atom 8.2833287776430673 0.8786393776351586 15.0000014999999998 O
atom 5.4596212623685618 3.7023214923530543 15.0000033299999984 O
atom 6.8714812699969414 6.8715053199962659 15.0000001199999993 Pd
atom 8.2833617676306037 5.4596758476456051 15.0000032799999978 O
atom 5.4596568023597065 8.2833463223642916 15.0000020499999991 O
atom 2.2905060700041426 2.2904851200025718 18.2128340299999998 Pd
atom 3.7023249276418824 0.8786424876328058 18.2128283000000017 O
atom 0.8786307323692488 3.7023185723548306 18.2128304700000001 O
atom 1.4118717623689716 1.4118214176467696 16.6064175899999995 O
atom 3.1691695376469786 3.1691240923674124 16.6064188799999997 O
atom 2.2905054800032838 2.2904878900023888 21.4256598300000007 Pd
atom -0.0000021899999070 9.1619922199997639 19.8192459700000008 Pd
atom 3.7023239176415266 0.8786436376324930 21.4256618700000061 O
atom 0.8786290223689234 3.7023196223543002 21.4256629800000056 O
atom 1.4118861923721027 1.4118113176512423 19.8192459100000029 O
atom 3.1691852176506181 3.1691123523722737 19.8192449900000014 O
atom 2.2904815299952155 6.8715101799951874 18.2128338800000016 Pd
atom 0.0000010199990515 4.5809993200005383 16.6064171400000014 Pd
atom 3.7023601476298058 5.4596777076439436 18.2128301599999993 O
atom 0.8786628323569862 8.2833543923650037 18.2128289700000003 O
atom 1.4118201123515606 5.9928738476309800 16.6064188399999999 O
atom 3.1691165976316968 7.7501696523512242 16.6064176500000009 O
atom 2.2904825399961268 6.8715072399954993 21.4256597999999983 Pd
atom 0.0000008399990453 4.5809993400004814 19.8192463500000002 Pd
atom 3.7023617576303010 5.4596761076444444 21.4256630799999996 O
atom 0.8786640823573487 8.2833532223653883 21.4256612000000004 O
atom 1.4118049523482039 5.9928846776262814 19.8192448600000013 O
atom 3.1691023976288393 7.7501788723468223 19.8192456800000016 O
atom 6.8715056500044742 2.2904847600036007 18.2128340400000006 Pd
atom 8.2833299276434325 0.8786381976355150 18.2128288699999992 O
atom 5.4596230123689775 3.7023201523535967 18.2128301400000012 O
atom 5.9928640223695799 1.4118201676455298 16.6064177700000002 O
atom 7.7501724076468053 3.1691253623694617 16.6064189600000027 O
atom 6.8715047700035905 2.2904876100033285 21.4256599500000036 Pd
atom 4.5809862700005732 9.1619913799973443 19.8192459300000010 Pd
atom 8.2833287776430673 0.8786393776351586 21.4256612999999945 O
atom 5.4596212623685618 3.7023214923530543 21.4256631299999967 O
atom 5.9928782723724563 1.4118108876499467 19.8192458399999971 O
atom 7.7501876576502315 3.1691143123741887 19.8192450400000020 O
atom 6.8714802499960799 6.8715080999959479 18.2128341599999999 Pd
atom 4.5809902699994050 4.5809988899983649 16.6064170599999983 Pd
atom 8.2833601776301293 5.4596773776451117 18.2128304199999995 O
atom 5.4596554223594280 8.2833472223638633 18.2128283500000023 O
atom 5.9928125723525625 5.9928713276298016 16.6064190499999995 O
atom 7.7501200976317381 7.7501702323534687 16.6064179100000011 O
atom 6.8714812699969414 6.8715053199962659 21.4256599200000011 Pd
atom 4.5809904299993924 4.5809989299984153 19.8192461799999968 Pd
atom 8.2833617676306037 5.4596758476456051 21.4256630799999996 O
atom 5.4596568023597065 8.2833463223642916 21.4256618500000044 O
atom 5.9927971323489313 5.9928830376250177 19.8192449800000006 O
atom 7.7501059176286811 7.7501800923490736 19.8192457500000003 O
