#===============================================================================
# Created using the Atomic Simulation Environment (ASE)

# Mon Mar 23 14:01:16 2026

#=======================================================
lattice_vector 9.1619939600004408 0.0000000000000000 0.0000000000000000 
lattice_vector 0.0000000000000000 6.4256598000000000 0.0000000000000000 
lattice_vector 0.0000000000000000 0.0000000000000000 40.9193299952799734 
atom 0.8786288323681830 1.6064118500000002 15.0000010099996466 O
atom 0.8786299823684963 4.8192454200000006 15.0000000000000000 O
atom 5.4596640523566053 1.6064137100000000 15.0000390700114963 O
atom 5.4596624523561079 4.8192466300000012 15.0000406800110042 O
atom 2.2904691399974073 1.6064175900000004 18.1691826076366780 Pd
atom 9.1619771400028895 6.4256573100000001 15.8786674976404569 Pd
atom 0.8786217023656969 1.6064124199999998 19.5810060099976582 O
atom 3.7023054076472075 1.6064136899999999 16.7573008452722476 O
atom 1.4118050923555201 0.0000013200000000 17.2905404352717014 O
atom 3.1691091976315056 0.0000025100000000 19.0478499099942198 O
atom 2.2904719899976800 4.8192434999999998 18.1691817276375644 Pd
atom 9.1619771800028929 3.2128294799999999 15.8786674876404668 Pd
atom 0.8786228823660536 4.8192448500000005 19.5810048599980249 O
atom 3.7023067476477509 4.8192466800000009 16.7572990952726499 O
atom 1.4117958123511025 3.2128293900000005 17.2905546852688232 O
atom 3.1690981476267766 3.2128285900000004 19.0478651599907991 O
atom 6.8714924800046218 1.6064177100000003 18.1691600476448514 Pd
atom 4.5809846900023130 0.0000006100000000 15.8786686476418595 Pd
atom 5.4596608823556600 1.6064139700000002 19.5810391000107415 O
atom 8.2833324776365025 1.6064119000000001 16.7573360952815662 O
atom 5.9928562523708049 0.0000026000000000 17.2904918252884983 O
atom 7.7501540676470588 0.0000014600000000 19.0478004400090626 O
atom 6.8714897000043056 4.8192434700000009 18.1691610676439907 Pd
atom 4.5809847300022648 3.2128297300000006 15.8786688076418727 Pd
atom 5.4596593523551666 4.8192466300000012 19.5810406900102620 O
atom 8.2833315776360763 4.8192453999999998 16.7573374752812825 O
atom 5.9928679623755947 3.2128285299999999 17.2904763852921235 O
atom 7.7501639276514549 3.2128293000000006 19.0477862600121242 O
atom 2.2904666599986596 1.6064175800000002 22.7501755476361396 Pd
atom 9.1619751100006752 6.4256572800000011 20.4596716176400477 Pd
atom 0.8786231523686295 1.6064118500000002 24.1619935299983268 O
atom 3.7023009876461970 1.6064140200000003 21.3383010852710910 O
atom 1.4118035023545032 0.0000011400000000 21.8715406952714417 O
atom 3.1691050876337772 0.0000024300000000 23.6288395599931746 O
atom 2.2904694299988422 4.8192433800000005 22.7501749576369932 Pd
atom 9.1619751800006970 3.2128295200000001 20.4596715476400632 Pd
atom 0.8786243023689426 4.8192454200000006 24.1619925199986838 O
atom 3.7023020376467271 4.8192465300000009 21.3382993752714256 O
atom 1.4117934023500303 3.2128294600000005 21.8715551252682943 O
atom 3.1690933476289169 3.2128285399999994 23.6288552399895266 O
atom 6.8714917200056069 1.6064174299999998 22.7501538476448388 Pd
atom 4.5809822800003657 0.0000006900000000 20.4596719176413373 Pd
atom 5.4596583723570511 1.6064137100000000 24.1620315900101801 O
atom 8.2833368076355889 1.6064125200000001 21.3383360252831338 O
atom 5.9928559323698547 0.0000023900000000 21.8714918852886200 O
atom 7.7501506476495283 0.0000012000000000 23.6287894600082282 O
atom 6.8714887800052935 4.8192433499999998 22.7501548576439276 Pd
atom 4.5809823000004188 3.2128299000000009 20.4596717376413366 Pd
atom 5.4596567723565537 4.8192466300000012 24.1620332000096880 O
atom 8.2833356376351990 4.8192447500000002 21.3383372752827754 O
atom 5.9928667623745540 3.2128284100000006 21.8714767252919771 O
atom 7.7501598676539301 3.2128292299999996 23.6287752600110892 O
atom 9.1619714600033344 6.4256573100000001 25.0406600176391336 Pd
atom 3.7022997276476532 1.6064136899999999 25.9192933652709243 O
atom 9.1619715000033377 3.2128294799999999 25.0406600076391541 Pd
atom 3.7023010676481971 4.8192466800000009 25.9192916152713408 O
atom 4.5809790100027596 0.0000006100000000 25.0406611676405433 Pd
atom 8.2833267976369491 1.6064119000000001 25.9193286152802571 O
atom 4.5809790500027114 3.2128297300000006 25.0406613276405565 Pd
atom 8.2833258976365212 4.8192453999999998 25.9193299952799734 O
