#===============================================================================
# Created using the Atomic Simulation Environment (ASE)

# Mon Mar 23 14:01:18 2026

#=======================================================
lattice_vector 12.9570191147451741 0.0000000000000000 0.0000000000000000 
lattice_vector 0.0000000000000000 6.4256598000000000 0.0000000000000000 
lattice_vector 0.0000000000000000 0.0000000000000000 42.2029670759582274 
atom 6.4785241025597680 4.8192422200000014 16.2425997506765150 Pd
atom 8.4751542899154462 4.8192479500000012 16.2425824774005321 O
atom 4.4818604690569908 4.8192457800000010 16.2425705953186181 O
atom 6.4785446002405358 6.4256586599999999 15.0000024112414998 O
atom 6.4785417108631975 6.4256573700000015 17.4852002225975660 O
atom 6.4785217266808646 1.6064164200000008 16.2426012921691090 Pd
atom 8.4751527625647913 1.6064143800000010 16.2425825763953604 O
atom 4.4818585174423173 1.6064132700000004 16.2425701286279853 O
atom 6.4785619455696404 3.2128303400000013 15.0000054730152250 O
atom 6.4785610997309231 3.2128312600000015 17.4852030085998145 O
atom 3.2392543261380786 6.4256591100000016 16.2426069702355740 Pd
atom 3.2392155894841443 6.4256574100000012 18.2392598769277292 O
atom 3.2392541847167315 3.2128299000000000 16.2426068570984761 Pd
atom 3.2391972117791412 3.2128313900000003 18.2392568151539187 O
atom 9.7177809742821282 4.8192422100000014 19.4818546142157878 Pd
atom 9.7177616207696982 0.0000024899999997 16.2425976929944262 Pd
atom 11.7144177730861276 4.8192473800000011 19.4818383945294222 O
atom 7.7211108071129955 4.8192461100000008 19.4818216687650327 O
atom 9.7177969252667449 6.4256584800000009 18.2392514694337358 O
atom 9.7177615854143546 3.2128303200000006 16.2425977142076263 Pd
atom 11.7144161255273271 1.6064149500000011 19.4818384157424980 O
atom 7.7211086221530616 1.6064131200000005 19.4818213788510768 O
atom 9.7178135634890328 3.2128304100000005 18.2392549837557461 O
atom 12.9570016704211994 4.8192420900000013 16.2426045307158411 Pd
atom 6.4785039429454407 6.4256591900000002 19.4818544798637490 Pd
atom 1.9966475043970089 4.8192458300000007 16.2426388620954789 O
atom 10.9603697435833727 4.8192478999999997 16.2426151006193997 O
atom 12.9569795295634211 6.4256572000000016 15.0000026375098052 O
atom 12.9569862002694300 6.4256583400000000 17.4852046773651786 O
atom 12.9570043574270670 1.6064163300000005 16.2426032862081193 Pd
atom 6.4785040277982464 3.2128300699999999 19.4818546212851125 Pd
atom 1.9966497105701642 1.6064131700000004 16.2426389045220638 O
atom 10.9603713557868065 1.6064144000000005 16.2426154400307858 O
atom 12.9569603316145141 3.2128312700000010 15.0000000000000000 O
atom 12.9569692014226518 3.2128304999999999 17.4852016226625473 O
atom 0.0000135269537312 4.8192422200000014 22.7211052916825018 Pd
atom 0.0000017606964189 0.0000025199999997 19.4818565941136050 Pd
atom 1.9966437143094091 4.8192479500000012 22.7210880184065154 O
atom 10.9603690081961336 4.8192457800000010 22.7210761363246085 O
atom 0.0000340246344983 6.4256586599999999 21.4785079522474867 O
atom 0.0000311352571634 6.4256573700000015 23.9637057636035600 O
atom 0.0000111510748273 1.6064164200000008 22.7211068331751029 Pd
atom 0.0000016617014703 3.2128302800000013 19.4818565941135979 Pd
atom 1.9966421869587534 1.6064143800000010 22.7210881174013473 O
atom 10.9603670565814539 1.6064132700000004 22.7210756696339793 O
atom 0.0000513699635999 3.2128303400000013 21.4785110140212119 O
atom 0.0000505241248800 3.2128312600000015 23.9637085496057942 O
atom 3.2392336149808316 4.8192423700000004 19.4818570325180112 Pd
atom 9.7177628652772157 6.4256591100000016 22.7211125112415537 Pd
atom 5.2358988748289690 4.8192460900000009 19.4818892001509205 O
atom 1.2426024235334270 4.8192472800000008 19.4818755361597127 O
atom 9.7177241286232778 6.4256574100000012 24.7177654179337090 O
atom 3.2392166457630953 6.4256586000000020 20.7244519182927718 O
atom 3.2392364080527232 1.6064164500000009 19.4818556678021402 Pd
atom 9.7177627238558717 3.2128299000000000 22.7211123981044629 Pd
atom 5.2359011446417307 1.6064131700000002 19.4818892072221672 O
atom 1.2426041347318364 1.6064150500000005 19.4818755927283895 O
atom 9.7177057509182756 3.2128313900000003 24.7177623561599056 O
atom 3.2392000853225551 3.2128305700000008 20.7244483968997031 O
atom 3.2392703986760911 4.8192422100000014 25.9603601552217746 Pd
atom 3.2392510451636594 0.0000024899999997 22.7211032340004202 Pd
atom 5.2359071974800893 4.8192473800000011 25.9603439355354162 O
atom 1.2426002315069551 4.8192461100000008 25.9603272097710196 O
atom 3.2392863496607083 6.4256584800000009 24.7177570104397226 O
atom 9.7177997563825418 6.4256572900000002 20.7244585651022959 O
atom 9.7177783367737263 1.6064163000000009 19.4818560072159350 Pd
atom 3.2392510098083198 3.2128303200000006 22.7211032552136167 Pd
atom 5.2359055499212861 1.6064149500000011 25.9603439567484919 O
atom 1.2425980465470219 1.6064131200000005 25.9603269198570636 O
atom 3.2393029878829949 3.2128304100000005 24.7177605247617400 O
atom 9.7178183532906512 3.2128312100000009 20.7244615349522370 O
atom 6.4784910948151646 4.8192420900000013 22.7211100717218351 Pd
atom 12.9570124820845809 6.4256591900000002 25.9603600208697394 Pd
atom 8.4751560435361490 4.8192458300000007 22.7211444031014729 O
atom 4.4818591679773343 4.8192478999999997 22.7211206416253937 O
atom 6.4784689539573836 6.4256572000000016 21.4785081785157921 O
atom 6.4784756246633943 6.4256583400000000 23.9637102183711654 O
atom 6.4784937818210313 1.6064163300000005 22.7211088272141062 Pd
atom 12.9570125669373795 3.2128300699999999 25.9603601622910993 Pd
atom 8.4751582497093008 1.6064131700000004 22.7211444455280507 O
atom 4.4818607801807691 1.6064144000000005 22.7211209810367727 O
atom 6.4784497560084819 3.2128312700000010 21.4785055410059904 O
atom 6.4784586258166126 3.2128304999999999 23.9637071636685342 O
atom 6.4785102998355555 0.0000025199999997 25.9603621351195919 Pd
atom 6.4785102008406072 3.2128302800000013 25.9603621351195848 Pd
atom 9.7177421541199696 4.8192423700000004 25.9603625735239980 Pd
atom 11.7144074139681091 4.8192460900000009 25.9603947411569074 O
atom 7.7211109626725696 4.8192472800000008 25.9603810771657031 O
atom 9.7177251849022355 6.4256586000000020 27.2029574592987622 O
atom 9.7177449471918607 1.6064164500000009 25.9603612088081270 Pd
atom 11.7144096837808700 1.6064131700000002 25.9603947482281576 O
atom 7.7211126738709730 1.6064150500000005 25.9603811337343764 O
atom 9.7177086244616948 3.2128305700000008 27.2029539379056864 O
atom 3.2392891807765065 6.4256572900000002 27.2029641061082863 O
atom 3.2392677611676866 1.6064163000000009 25.9603615482219290 Pd
atom 3.2393077776846115 3.2128312100000009 27.2029670759582238 O
