#===============================================================================
# Created using the Atomic Simulation Environment (ASE)

# Mon Mar 23 14:01:15 2026

#=======================================================
lattice_vector 11.1906751718508950 0.0000000000000000 0.0000000000000000 
lattice_vector 3.6895943445015020 10.5649482138552457 0.0000000000000000 
lattice_vector 0.0000000000000000 0.0000000000000000 43.6866382042739545 
atom 0.9528742860302896 0.6765187332299490 15.0000230589396164 Pd
atom 11.1906748831497822 7.9453426839928483 16.1405714301658243 Pd
atom 5.7983515807259192 9.6134415447716464 15.0000068267300435 O
atom 10.9876256008673234 2.3045561107092589 15.0000000000000000 O
atom 14.1914050597051773 10.0757910640111632 15.2655288120318424 O
atom 12.3465544868149522 4.7933907303712155 15.2655319715775377 O
atom 2.7976568904628207 5.9590222411442433 15.0000223425213388 Pd
atom 3.9535840848721922 4.3309858803631585 15.0000482899408158 O
atom 12.8324519258813972 7.5870521994806808 15.0000373677512577 O
atom 8.5960513742409859 10.0758032907918444 15.2655252912810333 O
atom 6.5482161549306186 0.6765218174896619 15.0000226880377596 Pd
atom 5.5953296481090469 7.9453434103129199 16.1405686188859576 Pd
atom 11.3936936006989917 9.6134354138182445 15.0000112585278753 O
atom 5.3922817389088911 2.3045591560846583 15.0000005603558453 O
atom 8.3929932174451043 5.9590208356465375 15.0000265173672442 Pd
atom 3.7505328341448982 2.6628724455670736 16.1405721635896668 Pd
atom 9.5489250240109822 4.3309874893204308 15.0000480383125527 O
atom 7.2371120057545433 7.5870496056206367 15.0000298356669610 O
atom 6.7512033077613864 4.7934057339836702 15.2655242976097725 O
atom 12.1435448075700272 8.6218629773940254 19.5622196970506579 Pd
atom 7.5010758883371231 5.3257387143016777 20.7027680682768676 Pd
atom 13.2994277577641551 6.9938375750804767 19.5622034648410903 O
atom 10.9876209505561668 10.2499003548733345 19.5621966381110433 O
atom 12.3465928409821277 8.7660013196548903 17.5466260967653298 O
atom 13.7853211157432654 9.7874975254896341 19.2967159842988494 O
atom 13.9883461761433256 9.9316692045777799 17.2811195525360084 Pd
atom 9.3458740996502154 6.6355399074339765 18.4216712686140731 Pd
atom 3.9535491491099317 8.3036393498131371 17.2811078211857669 O
atom 9.1428232047992264 0.9947544613137330 17.2810998435007406 O
atom 10.5018060648925253 7.4561870943199899 19.8277254501428892 O
atom 0.7498661104870903 0.5323381773405808 17.0156169362731831 O
atom 12.1435294526959883 4.6492214721055332 17.2811244484032258 Pd
atom 7.5010766159320825 1.3530687967034012 18.4216742441797905 Pd
atom 2.1087850034086060 3.0211869745698197 17.2811444598269865 O
atom 10.9876527429595221 6.2772525365588070 17.2811339926787433 O
atom 8.6569554920022984 2.1737867606800445 19.8277286096885845 O
atom 2.5946079575926762 5.8148823583756322 17.0156160350623757 O
atom 10.2987330675010629 3.3394182714530722 19.5622189806323874 Pd
atom 9.3458763621658054 2.6628711316570430 16.1405753555548941 Pd
atom 11.4546602619104334 1.7113819106719881 19.5622449280518644 O
atom 9.1428529310687363 4.9674482297895093 19.5622340058623045 O
atom 10.5017448055479026 3.4836040537230120 17.5466253797295124 O
atom 11.9404730800076031 4.5050931916068251 19.2967105466412931 O
atom 8.3930094314484300 9.9316636967123095 17.2811228590219272 Pd
atom 3.7505313474791078 6.6355422318145498 18.4216654533100659 Pd
atom 9.5488964975373047 8.3036331082869097 17.2811077663536352 O
atom 3.5474854485279632 0.9947567685479499 17.2810968896807431 O
atom 4.9064523794283295 7.4561993211006747 19.8277219293920801 O
atom 6.3451940485038199 0.5323504752837948 17.0156216458750897 O
atom 6.5482115046194647 8.6218660616537388 19.5622193261488064 Pd
atom 1.9057306532963922 5.3257394406217475 20.7027652569970044 Pd
atom 7.7040946058863353 6.9938314441270748 19.5622078966389239 O
atom 5.3922770885977398 10.2499034002487335 19.5621971984668903 O
atom 6.7512645943315928 8.7659899299518553 17.5466247858462516 O
atom 8.1900035744664645 9.7874843187029263 19.2967193441270553 O
atom 4.7033942226324470 3.3394168659553665 19.5622231554782928 Pd
atom 0.0609338393322445 0.0432684758759028 20.7027688017007137 Pd
atom 5.8593260291983258 1.7113835196292606 19.5622446764235995 O
atom 3.5475130109418869 4.9674456359294652 19.5622264737780078 O
atom 4.9064141717788852 3.4835875610499061 17.5466272926996680 O
atom 6.3451518243290721 4.5050787004491140 19.2967184326722077 O
atom 6.5481969323089206 4.6492178361165344 17.2811210206481434 Pd
atom 1.9057339156074269 1.3530707676517850 18.4216700284374859 Pd
atom 7.7041252435789591 3.0211825978419196 17.2811483468357174 O
atom 5.3923115710657976 6.2772449780756912 17.2811309497254832 O
atom 3.0616043129487331 2.1738017642924996 19.8277209357208193 O
atom 8.1899408951774895 5.8148941301243511 17.0156164998865123 O
atom 8.4539458127573663 6.0022590077028530 24.1244163351617118 Pd
atom 3.8114768935244636 2.7061347446105071 25.2649647063879144 Pd
atom 9.6098287629514996 4.3742336053893061 24.1244001029521371 O
atom 7.2980219557435149 7.6302963851821630 24.1243932762220936 O
atom 8.6569938461694669 6.1463973499637206 22.1088227348763766 O
atom 10.0957221209306045 7.1678935557984644 23.8589126224098962 O
atom 10.2987471813306648 7.3120652348866102 21.8433161906470552 Pd
atom 5.6562751048375564 4.0159359377428068 22.9838679067251199 Pd
atom 11.4546253261481716 5.6840353801219656 21.8433044592968137 O
atom 9.1428185544880751 8.9400987054778067 21.8432964816117874 O
atom 6.8122070700798627 4.8365831246288193 24.3899220882539396 O
atom 11.9405366320268271 8.4776824215046567 21.5778135743842299 O
atom 8.4539304578833345 2.0296175024143617 21.8433210865142691 Pd
atom 7.5010719656209313 9.2984130408674748 22.9838708822908373 Pd
atom 9.6098611804468419 0.4015830048786485 21.8433410979380334 O
atom 7.2980537481468595 3.6576485668676386 21.8433306307897865 O
atom 8.6569508416911383 10.1191310048441192 24.3899252477996313 O
atom 10.0956841346309130 3.1952783886844611 21.5778126731734261 O
atom 6.6091340726884065 0.7198143017619025 24.1244156187434342 Pd
atom 5.6562773673531499 0.0432671619658724 20.7027719936659409 Pd
atom 11.4546556115992768 9.6567261548360612 24.1244415661629077 O
atom 5.4532539362560808 2.3478442600983396 24.1244306439733514 O
atom 6.8121458107352444 0.8640000840318399 22.1088220178405592 O
atom 8.2508740851949476 1.8854892219156529 23.8589071847523400 O
atom 4.7034104366357754 7.3120597270211363 21.8433194971329705 Pd
atom 11.2516075245173468 4.0159382621233801 22.9838620914211127 Pd
atom 5.8592975027246439 5.6840291385957400 21.8433044044646820 O
atom 3.5474807982168084 8.9401010127120237 21.8432935277917935 O
atom 12.4075285564665716 4.8365953514095033 24.3899185675031305 O
atom 6.3451893981926659 8.4776947194478680 21.5778182839861330 O
atom 2.8586125098068078 6.0022620919625655 24.1244159642598532 Pd
atom 9.4068068303346202 2.7061354709305765 25.2649618951080548 Pd
atom 4.0144956110736763 4.3742274744359024 24.1244045347499707 O
atom 12.8933532656359766 7.6302994305575629 24.1243938365779371 O
atom 3.0616655995189346 6.1463859602606856 22.1088214239572949 O
atom 4.5004045796538055 7.1678803490117540 23.8589159822381056 O
atom 1.0137952278197857 0.7198128962641953 24.1244197935893361 Pd
atom 11.2516043608719869 7.9886127200399786 25.2649654398117605 Pd
atom 5.8593213788871719 9.6567277637933344 24.1244413145346464 O
atom 11.0485891879801166 2.3478416662382959 24.1244231118890511 O
atom 1.2168151769662261 0.8639835913587356 22.1088239308107113 O
atom 2.6555528295164113 1.8854747307579431 23.8589150707832545 O
atom 2.8585979374962620 2.0296138664253642 21.8433176587591866 Pd
atom 13.0964044371471662 9.2984150118158588 22.9838666665485292 Pd
atom 4.0145262487663027 0.4015786281507487 21.8433449849467678 O
atom 1.7027125762531388 3.6576410083845214 21.8433275878365336 O
atom 14.2522748344884640 10.1191460084565747 24.3899175738318661 O
atom 4.5003419003648322 3.1952901604331796 21.5778131379975591 O
atom 4.7643468179447055 3.3826550380116815 28.6866129732727515 Pd
atom 5.9202297681388325 1.7546296356981350 28.6865967410631839 O
atom 3.6084229609308585 5.0106924154909915 28.6865899143331475 O
atom 4.9673948513568149 3.5267933802725495 26.6710193729874270 O
atom 6.4061231261179579 4.5482895861072903 28.4211092605209430 O
atom 6.6091481865180128 4.6924612651954378 26.4055128287581056 Pd
atom 1.9666761100249095 1.3963319680516337 27.5460645448361703 Pd
atom 7.7650263313355135 3.0644314104307933 26.4055010974078606 O
atom 5.4532195596754187 6.3204947357866352 26.4054931197228342 O
atom 8.2509376372141716 5.8580784518134843 26.1400102124952731 O
atom 8.4539258075721815 9.9749617465784350 26.4055177246253159 Pd
atom 3.8114729708082691 6.6788090711763024 27.5460675204018841 Pd
atom 9.6098565301356924 8.3469272490427233 26.4055377360490837 O
atom 3.6084547533342124 1.0380445971764651 26.4055272689008405 O
atom 6.4060851398182557 0.5756744189932899 26.1400093112844729 O
atom 6.6091294223772552 8.6651585459259746 28.6866122568544881 Pd
atom 5.6562727170419942 7.9886114061299445 25.2649686317769877 Pd
atom 7.7650566167866204 7.0371221851448915 28.6866382042739545 O
atom 5.4532492859449269 10.2931885042624156 28.6866272820844017 O
atom 6.8121411604240851 8.8093443281959161 26.6710186559516060 O
atom 8.2508694348837892 9.8308334660797296 28.4211038228633797 O
atom 12.2044866136740158 4.6924557573299666 26.4055161352440138 Pd
atom 7.5620085297046886 1.3963342924322093 27.5460587295321595 Pd
atom 2.1696985079119964 3.0644251689045676 26.4055010425757324 O
atom 11.0485569752550443 6.3204970430208558 26.4054901659028332 O
atom 2.6555904033800095 5.8580907497566965 26.1400149220971798 O
atom 10.3596886868450415 3.3826581222713945 28.6866126023709000 Pd
atom 11.5155717881119148 1.7546235047447321 28.6866011728610175 O
atom 9.2037542708233211 5.0106954608663905 28.6865904746889910 O
atom 10.5627417765571732 3.5267819905695137 26.6710180620683417 O
atom 12.0014807566920503 4.5482763793205834 28.4211126203491418 O
atom 12.2044657493595281 8.6651571404282723 28.6866164317003793 Pd
atom 13.3603975559254042 7.0371237941021638 28.6866379526456896 O
atom 11.0485845376689724 10.2931859104023697 28.6866197500000979 O
atom 12.4074856985059707 8.8093278355228080 26.6710205689217617 O
atom 13.8462233510561514 9.8308189749220194 28.4211117088943013 O
atom 14.0492684590359982 9.9749581105894389 26.4055142968702370 Pd
atom 9.4068054423345107 6.6788110421246891 27.5460633046595831 Pd
atom 4.0145215984551434 8.3469228723148241 26.4055416230578111 O
atom 9.2037887532913789 1.0380370386933513 26.4055242259475733 O
atom 0.8107429055521764 0.5756861907420102 26.1400097761086059 O
