#===============================================================================
# Created using the Atomic Simulation Environment (ASE)

# Mon Mar 23 14:01:16 2026

#=======================================================
lattice_vector 9.1619925200004406 0.0000000000000000 0.0000000000000000 
lattice_vector -0.0000056800004464 9.1619939599986804 0.0000000000000000 
lattice_vector 0.0000000000000000 0.0000000000000000 38.0320780699999972 
atom -0.0000021199998853 9.1619921499997847 18.2128288699999992 Pd
atom 2.2905054800032838 2.2904878900023888 16.6064149699999994 Pd
atom -0.0000021899999070 9.1619922199997639 15.0000011099999995 Pd
atom 3.7023239176415266 0.8786436376324930 16.6064170099999977 O
atom 0.8786290223689234 3.7023196223543002 16.6064181200000007 O
atom 1.4118861923721027 1.4118113176512423 15.0000010499999981 O
atom 3.1691852176506181 3.1691123523722737 15.0000001300000001 O
atom 2.2904825399961268 6.8715072399954993 16.6064149400000005 Pd
atom 0.0000008399990453 4.5809993400004814 15.0000014899999989 Pd
atom 3.7023617576303010 5.4596761076444444 16.6064182199999983 O
atom 0.8786640823573487 8.2833532223653883 16.6064163399999991 O
atom 1.4118049523482039 5.9928846776262814 15.0000000000000000 O
atom 3.1691023976288393 7.7501788723468223 15.0000008200000003 O
atom 4.5809862800005865 9.1619913399973480 18.2128289000000017 Pd
atom 6.8715047700035905 2.2904876100033285 16.6064150899999987 Pd
atom 4.5809862700005732 9.1619913799973443 15.0000010699999997 Pd
atom 8.2833287776430673 0.8786393776351586 16.6064164400000003 O
atom 5.4596212623685618 3.7023214923530543 16.6064182699999989 O
atom 5.9928782723724563 1.4118108876499467 15.0000009799999994 O
atom 7.7501876576502315 3.1691143123741887 15.0000001800000007 O
atom 6.8714812699969414 6.8715053199962659 16.6064150599999998 Pd
atom 4.5809904299993924 4.5809989299984153 15.0000013199999991 Pd
atom 8.2833617676306037 5.4596758476456051 16.6064182199999983 O
atom 5.4596568023597065 8.2833463223642916 16.6064169899999996 O
atom 5.9927971323489313 5.9928830376250177 15.0000001199999993 O
atom 7.7501059176286811 7.7501800923490736 15.0000008899999990 O
atom 2.2905060700041426 2.2904851200025718 19.8192489700000003 Pd
atom 3.7023249276418824 0.8786424876328058 19.8192432400000023 O
atom 0.8786307323692488 3.7023185723548306 19.8192454100000006 O
atom 1.4118717623689716 1.4118214176467696 18.2128325300000000 O
atom 3.1691695376469786 3.1691240923674124 18.2128338200000002 O
atom 2.2905054800032838 2.2904878900023888 23.0320747700000013 Pd
atom -0.0000021899999070 9.1619922199997639 21.4256609100000013 Pd
atom 3.7023239176415266 0.8786436376324930 23.0320768100000066 O
atom 0.8786290223689234 3.7023196223543002 23.0320779200000061 O
atom 1.4118861923721027 1.4118113176512423 21.4256608500000034 O
atom 3.1691852176506181 3.1691123523722737 21.4256599300000019 O
atom 2.2904815299952155 6.8715101799951874 19.8192488200000021 Pd
atom 0.0000010199990515 4.5809993200005383 18.2128320800000019 Pd
atom 3.7023601476298058 5.4596777076439436 19.8192450999999998 O
atom 0.8786628323569862 8.2833543923650037 19.8192439100000009 O
atom 1.4118201123515606 5.9928738476309800 18.2128337800000004 O
atom 3.1691165976316968 7.7501696523512242 18.2128325900000014 O
atom 2.2904825399961268 6.8715072399954993 23.0320747399999988 Pd
atom 0.0000008399990453 4.5809993400004814 21.4256612900000007 Pd
atom 3.7023617576303010 5.4596761076444444 23.0320780200000002 O
atom 0.8786640823573487 8.2833532223653883 23.0320761400000009 O
atom 1.4118049523482039 5.9928846776262814 21.4256598000000018 O
atom 3.1691023976288393 7.7501788723468223 21.4256606200000022 O
atom 6.8715056500044742 2.2904847600036007 19.8192489800000011 Pd
atom 8.2833299276434325 0.8786381976355150 19.8192438099999997 O
atom 5.4596230123689775 3.7023201523535967 19.8192450800000017 O
atom 5.9928640223695799 1.4118201676455298 18.2128327100000007 O
atom 7.7501724076468053 3.1691253623694617 18.2128339000000032 O
atom 6.8715047700035905 2.2904876100033285 23.0320748900000041 Pd
atom 4.5809862700005732 9.1619913799973443 21.4256608700000015 Pd
atom 8.2833287776430673 0.8786393776351586 23.0320762399999950 O
atom 5.4596212623685618 3.7023214923530543 23.0320780699999972 O
atom 5.9928782723724563 1.4118108876499467 21.4256607799999976 O
atom 7.7501876576502315 3.1691143123741887 21.4256599800000025 O
atom 6.8714802499960799 6.8715080999959479 19.8192491000000004 Pd
atom 4.5809902699994050 4.5809988899983649 18.2128319999999988 Pd
atom 8.2833601776301293 5.4596773776451117 19.8192453600000000 O
atom 5.4596554223594280 8.2833472223638633 19.8192432900000028 O
atom 5.9928125723525625 5.9928713276298016 18.2128339900000000 O
atom 7.7501200976317381 7.7501702323534687 18.2128328500000016 O
atom 6.8714812699969414 6.8715053199962659 23.0320748600000016 Pd
atom 4.5809904299993924 4.5809989299984153 21.4256611199999973 Pd
atom 8.2833617676306037 5.4596758476456051 23.0320780200000002 O
atom 5.4596568023597065 8.2833463223642916 23.0320767900000050 O
atom 5.9927971323489313 5.9928830376250177 21.4256599200000011 O
atom 7.7501059176286811 7.7501800923490736 21.4256606900000008 O
