#===============================================================================
# Created using the Atomic Simulation Environment (ASE)

# Mon Mar 23 14:01:18 2026

#=======================================================
lattice_vector 12.9570191147451741 0.0000000000000000 0.0000000000000000 
lattice_vector 0.0000000000000000 6.4256598000000000 0.0000000000000000 
lattice_vector 0.0000000000000000 0.0000000000000000 45.4422211475304749 
atom 9.7177261650901805 6.4256574100000012 15.0000084074939899 O
atom 9.7177077873851765 3.2128313900000003 15.0000053457201830 O
atom 3.2392724351429911 4.8192422100000014 16.2426031447820485 Pd
atom 5.2359092339469901 4.8192473800000011 16.2425869250956900 O
atom 1.2426022679738553 4.8192461100000008 16.2425701993312934 O
atom 3.2392883861276087 6.4256584800000009 15.0000000000000000 O
atom 5.2359075863881896 1.6064149500000011 16.2425869463087658 O
atom 1.2426000830139250 1.6064131200000005 16.2425699094173410 O
atom 3.2393050243498953 3.2128304100000005 15.0000035143220138 O
atom 12.9570145185514800 6.4256591900000002 16.2426030104300132 Pd
atom 12.9570146034042821 3.2128300699999999 16.2426031518513803 Pd
atom 6.4785241025597680 4.8192422200000014 19.4818538222487696 Pd
atom 6.4785123363024564 0.0000025199999997 16.2426051246798657 Pd
atom 8.4751542899154462 4.8192479500000012 19.4818365489727867 O
atom 4.4818604690569908 4.8192457800000010 19.4818246668908728 O
atom 6.4785446002405358 6.4256586599999999 18.2392564828137544 O
atom 6.4785417108631975 6.4256573700000015 20.7244542941698207 O
atom 6.4785217266808646 1.6064164200000008 19.4818553637413636 Pd
atom 6.4785122373075072 3.2128302800000013 16.2426051246798622 Pd
atom 8.4751527625647913 1.6064143800000010 19.4818366479676151 O
atom 4.4818585174423173 1.6064132700000004 19.4818242002002400 O
atom 6.4785619455696404 3.2128303400000013 18.2392595445874797 O
atom 6.4785610997309231 3.2128312600000015 20.7244570801720691 O
atom 9.7177441905868669 4.8192423700000004 16.2426055630842718 Pd
atom 3.2392543261380786 6.4256591100000016 19.4818610418078286 Pd
atom 11.7144094504350011 4.8192460900000009 16.2426377307171848 O
atom 7.7211129991394669 4.8192472800000008 16.2426240667259769 O
atom 3.2392155894841443 6.4256574100000012 21.4785139484999839 O
atom 9.7177272213691346 6.4256586000000020 17.4852004488590396 O
atom 9.7177469836587598 1.6064164500000009 16.2426041983684044 Pd
atom 3.2392541847167315 3.2128299000000000 19.4818609286707307 Pd
atom 11.7144117202477709 1.6064131700000002 16.2426377377884315 O
atom 7.7211147103378721 1.6064150500000005 16.2426241232946538 O
atom 3.2391972117791412 3.2128313900000003 21.4785108867261734 O
atom 9.7177106609285939 3.2128305700000008 17.4851969274659673 O
atom 9.7177809742821282 4.8192422100000014 22.7211086857880424 Pd
atom 9.7177616207696982 0.0000024899999997 19.4818517645666809 Pd
atom 11.7144177730861276 4.8192473800000011 22.7210924661016769 O
atom 7.7211108071129955 4.8192461100000008 22.7210757403372874 O
atom 9.7177969252667449 6.4256584800000009 21.4785055410059904 O
atom 3.2392912172434043 6.4256572900000002 17.4852070956685601 O
atom 3.2392697976345897 1.6064163000000009 16.2426045377822028 Pd
atom 9.7177615854143546 3.2128303200000006 19.4818517857798810 Pd
atom 11.7144161255273271 1.6064149500000011 22.7210924873147526 O
atom 7.7211086221530616 1.6064131200000005 22.7210754504233314 O
atom 9.7178135634890328 3.2128304100000005 21.4785090553280007 O
atom 3.2393098141515120 3.2128312100000009 17.4852100655185012 O
atom 12.9570016704211994 4.8192420900000013 19.4818586022880957 Pd
atom 6.4785039429454407 6.4256591900000002 22.7211085514360036 Pd
atom 1.9966475043970089 4.8192458300000007 19.4818929336677336 O
atom 10.9603697435833727 4.8192478999999997 19.4818691721916544 O
atom 12.9569795295634211 6.4256572000000016 18.2392567090820599 O
atom 12.9569862002694300 6.4256583400000000 20.7244587489374332 O
atom 12.9570043574270670 1.6064163300000005 19.4818573577803740 Pd
atom 6.4785040277982464 3.2128300699999999 22.7211086928573671 Pd
atom 1.9966497105701642 1.6064131700000004 19.4818929760943185 O
atom 10.9603713557868065 1.6064144000000005 19.4818695116030405 O
atom 12.9569603316145141 3.2128312700000010 18.2392540715722546 O
atom 12.9569692014226518 3.2128304999999999 20.7244556942348019 O
atom 0.0000135269537312 4.8192422200000014 25.9603593632547565 Pd
atom 0.0000017606964189 0.0000025199999997 22.7211106656858597 Pd
atom 1.9966437143094091 4.8192479500000012 25.9603420899787700 O
atom 10.9603690081961336 4.8192457800000010 25.9603302078968632 O
atom 0.0000340246344983 6.4256586599999999 24.7177620238197413 O
atom 0.0000311352571634 6.4256573700000015 27.2029598351758146 O
atom 0.0000111510748273 1.6064164200000008 25.9603609047473576 Pd
atom 0.0000016617014703 3.2128302800000013 22.7211106656858526 Pd
atom 1.9966421869587534 1.6064143800000010 25.9603421889736019 O
atom 10.9603670565814539 1.6064132700000004 25.9603297412062339 O
atom 0.0000513699635999 3.2128303400000013 24.7177650855934665 O
atom 0.0000505241248800 3.2128312600000015 27.2029626211780489 O
atom 3.2392336149808316 4.8192423700000004 22.7211111040902658 Pd
atom 9.7177628652772157 6.4256591100000016 25.9603665828138084 Pd
atom 5.2358988748289690 4.8192460900000009 22.7211432717231752 O
atom 1.2426024235334270 4.8192472800000008 22.7211296077319673 O
atom 9.7177241286232778 6.4256574100000012 27.9570194895059636 O
atom 3.2392166457630953 6.4256586000000020 23.9637059898650264 O
atom 3.2392364080527232 1.6064164500000009 22.7211097393743948 Pd
atom 9.7177627238558717 3.2128299000000000 25.9603664696767176 Pd
atom 5.2359011446417307 1.6064131700000002 22.7211432787944219 O
atom 1.2426041347318364 1.6064150500000005 22.7211296643006442 O
atom 9.7177057509182756 3.2128313900000003 27.9570164277321602 O
atom 3.2392000853225551 3.2128305700000008 23.9637024684719577 O
atom 3.2392703986760911 4.8192422100000014 29.1996142267940293 Pd
atom 3.2392510451636594 0.0000024899999997 25.9603573055726748 Pd
atom 5.2359071974800893 4.8192473800000011 29.1995980071076708 O
atom 1.2426002315069551 4.8192461100000008 29.1995812813432742 O
atom 3.2392863496607083 6.4256584800000009 27.9570110820119773 O
atom 9.7177997563825418 6.4256572900000002 23.9637126366745505 O
atom 9.7177783367737263 1.6064163000000009 22.7211100787881897 Pd
atom 3.2392510098083198 3.2128303200000006 25.9603573267858714 Pd
atom 5.2359055499212861 1.6064149500000011 29.1995980283207466 O
atom 1.2425980465470219 1.6064131200000005 29.1995809914293183 O
atom 3.2393029878829949 3.2128304100000005 27.9570145963339947 O
atom 9.7178183532906512 3.2128312100000009 23.9637156065244916 O
atom 6.4784910948151646 4.8192420900000013 25.9603641432940897 Pd
atom 12.9570124820845809 6.4256591900000002 29.1996140924419940 Pd
atom 8.4751560435361490 4.8192458300000007 25.9603984746737275 O
atom 4.4818591679773343 4.8192478999999997 25.9603747131976483 O
atom 6.4784689539573836 6.4256572000000016 24.7177622500880467 O
atom 6.4784756246633943 6.4256583400000000 27.2029642899434201 O
atom 6.4784937818210313 1.6064163300000005 25.9603628987863608 Pd
atom 12.9570125669373795 3.2128300699999999 29.1996142338633540 Pd
atom 8.4751582497093008 1.6064131700000004 25.9603985171003053 O
atom 4.4818607801807691 1.6064144000000005 25.9603750526090273 O
atom 6.4784497560084819 3.2128312700000010 24.7177596125782451 O
atom 6.4784586258166126 3.2128304999999999 27.2029612352407888 O
atom 6.4785102998355555 0.0000025199999997 29.1996162066918465 Pd
atom 6.4785102008406072 3.2128302800000013 29.1996162066918394 Pd
atom 9.7177421541199696 4.8192423700000004 29.1996166450962527 Pd
atom 11.7144074139681091 4.8192460900000009 29.1996488127291620 O
atom 7.7211109626725696 4.8192472800000008 29.1996351487379577 O
atom 9.7177251849022355 6.4256586000000020 30.4422115308710168 O
atom 9.7177449471918607 1.6064164500000009 29.1996152803803817 Pd
atom 11.7144096837808700 1.6064131700000002 29.1996488198004123 O
atom 7.7211126738709730 1.6064150500000005 29.1996352053066310 O
atom 9.7177086244616948 3.2128305700000008 30.4422080094779410 O
atom 3.2392891807765065 6.4256572900000002 30.4422181776805409 O
atom 3.2392677611676866 1.6064163000000009 29.1996156197941836 Pd
atom 3.2393077776846115 3.2128312100000009 30.4422211475304785 O
