#===============================================================================
# Created using the Atomic Simulation Environment (ASE)

# Mon Mar 23 14:01:18 2026

#=======================================================
lattice_vector 12.9570191147451741 0.0000000000000000 0.0000000000000000 
lattice_vector 0.0000000000000000 6.4256598000000000 0.0000000000000000 
lattice_vector 0.0000000000000000 0.0000000000000000 32.4852100655185012 
atom 9.7177241286232778 6.4256574100000012 15.0000084074939863 O
atom 9.7177057509182756 3.2128313900000003 15.0000053457201830 O
atom 3.2392703986760911 4.8192422100000014 16.2426031447820520 Pd
atom 5.2359071974800893 4.8192473800000011 16.2425869250956936 O
atom 1.2426002315069551 4.8192461100000008 16.2425701993312970 O
atom 3.2392863496607083 6.4256584800000009 15.0000000000000000 O
atom 5.2359055499212861 1.6064149500000011 16.2425869463087693 O
atom 1.2425980465470219 1.6064131200000005 16.2425699094173410 O
atom 3.2393029878829949 3.2128304100000005 15.0000035143220174 O
atom 12.9570124820845809 6.4256591900000002 16.2426030104300168 Pd
atom 12.9570125669373795 3.2128300699999999 16.2426031518513767 Pd
atom 6.4785102998355555 0.0000025199999997 16.2426051246798693 Pd
atom 6.4785102008406072 3.2128302800000013 16.2426051246798622 Pd
atom 9.7177421541199696 4.8192423700000004 16.2426055630842754 Pd
atom 11.7144074139681091 4.8192460900000009 16.2426377307171848 O
atom 7.7211109626725696 4.8192472800000008 16.2426240667259805 O
atom 9.7177251849022355 6.4256586000000020 17.4852004488590396 O
atom 9.7177449471918607 1.6064164500000009 16.2426041983684044 Pd
atom 11.7144096837808700 1.6064131700000002 16.2426377377884350 O
atom 7.7211126738709730 1.6064150500000005 16.2426241232946538 O
atom 9.7177086244616948 3.2128305700000008 17.4851969274659638 O
atom 3.2392891807765065 6.4256572900000002 17.4852070956685637 O
atom 3.2392677611676866 1.6064163000000009 16.2426045377822064 Pd
atom 3.2393077776846115 3.2128312100000009 17.4852100655185012 O
