#===============================================================================
# Created using the Atomic Simulation Environment (ASE)

# Mon Mar 23 14:01:16 2026

#=======================================================
lattice_vector 9.1619939600004408 0.0000000000000000 0.0000000000000000 
lattice_vector 0.0000000000000000 6.4256598000000000 0.0000000000000000 
lattice_vector 0.0000000000000000 0.0000000000000000 34.0478532699879963 
atom 2.2904666599986596 1.6064175800000002 15.8786988223441625 Pd
atom 0.8786231523686295 1.6064118500000002 17.2905168047063498 O
atom 1.4118035023545032 0.0000011400000000 15.0000639699794647 O
atom 3.1691050876337772 0.0000024300000000 16.7573628347011976 O
atom 2.2904694299988422 4.8192433800000005 15.8786982323450161 Pd
atom 0.8786243023689426 4.8192454200000006 17.2905157947067067 O
atom 1.4117934023500303 3.2128294600000005 15.0000783999763172 O
atom 3.1690933476289169 3.2128285399999994 16.7573785146975496 O
atom 6.8714917200056069 1.6064174299999998 15.8786771223528618 Pd
atom 5.4596583723570511 1.6064137100000000 17.2905548647182030 O
atom 5.9928559323698547 0.0000023900000000 15.0000151599966429 O
atom 7.7501506476495283 0.0000012000000000 16.7573127347162512 O
atom 6.8714887800052935 4.8192433499999998 15.8786781323519506 Pd
atom 5.4596567723565537 4.8192466300000012 17.2905564747177110 O
atom 5.9928667623745540 3.2128284100000006 15.0000000000000000 O
atom 7.7501598676539301 3.2128292299999996 16.7572985347191121 O
atom 9.1619714600033344 6.4256573100000001 18.1691832923471566 Pd
atom 3.7022997276476532 1.6064136899999999 19.0478166399789473 O
atom 9.1619715000033377 3.2128294799999999 18.1691832823471771 Pd
atom 3.7023010676481971 4.8192466800000009 19.0478148899793638 O
atom 4.5809790100027596 0.0000006100000000 18.1691844423485662 Pd
atom 8.2833267976369491 1.6064119000000001 19.0478518899882800 O
atom 4.5809790500027114 3.2128297300000006 18.1691846023485795 Pd
atom 8.2833258976365212 4.8192453999999998 19.0478532699879963 O
