#===============================================================================
# Created using the Atomic Simulation Environment (ASE)

# Mon Mar 23 14:01:17 2026

#=======================================================
lattice_vector 11.1906751718508950 0.0000000000000000 0.0000000000000000 
lattice_vector -0.0000046503111567 9.1619939599992613 0.0000000000000000 
lattice_vector 0.0000000000000000 0.0000000000000000 34.2518033649156166 
atom 0.1218778987118002 9.1619865318619667 15.8107039607535533 Pd
atom 1.7636252151739122 3.7023142928014545 15.0000146971610633 O
atom 4.5613432927126683 3.1691070228084786 15.0000453594041225 O
atom 2.9195350778757359 6.8715016218602827 15.8106962460434382 Pd
atom 1.7636549414434199 8.2833478928056046 15.0000350019442088 O
atom 4.5612750903822770 7.7501735427994642 15.0000000000000000 O
atom 7.3589626307535436 3.7023148228020708 15.0000109867053375 O
atom 10.1566712307293887 3.1691200328063935 15.0000433198669931 O
atom 5.7172078355219673 9.1619857618605263 15.8107011611226689 Pd
atom 8.5148714048580203 6.8715024818591957 15.8107005663633267 Pd
atom 7.3589901931674628 8.2833418928059466 15.0000297616762914 O
atom 10.1566290065546543 7.7501649028011066 15.0000140546634206 O
atom 5.7172110978329993 4.5809933118609623 15.8107021237435852 Pd
atom 1.0747524734432075 2.2904785655052335 18.4411089642819128 Pd
atom 2.2306354236373336 0.8786356445612178 19.2517668930175425 O
atom 11.1095037882802412 3.7023123064459948 17.6304109989812439 O
atom 1.2778005068553095 1.4118155109211212 16.6213989160242797 O
atom 2.7165287816164487 3.1691178264493178 17.6304369157156096 O
atom 2.9195538420165055 2.2904822718627673 15.8107078119744635 Pd
atom 9.4677522870631350 9.1619856655049379 18.4411031294063257 Pd
atom 4.0754319868340056 0.8786377309164422 16.6213718609754473 O
atom 10.6236889026165944 1.4118044745667049 19.2518033649156202 O
atom 1.0747324682580177 6.8715036255026174 18.4410963813895954 Pd
atom 0.1218786263067606 4.5809937018614360 15.8107067610941705 Pd
atom 2.2306631908215144 5.4596708645643250 19.2517902698013579 O
atom 11.1095309303724452 8.2833481264497539 17.6304298333803082 O
atom 1.2777575023769734 5.9928679409152350 16.6213719128408961 O
atom 2.7164861450055962 7.7501633864440196 17.6304071413986172 O
atom 9.4677545495787285 4.5809927855052166 18.4411035496169653 Pd
atom 4.0754622722851144 5.4596702009200149 16.6213962099908663 O
atom 10.6236229929608186 5.9928778345583646 19.2517574881780327 O
atom 8.5148922691725062 2.2904791418619821 15.8107134220124514 Pd
atom 3.8724095348920233 9.1619847855047301 18.4410969289139821 Pd
atom 9.6707793352613773 0.8786322909183746 16.6213749213801911 O
atom 5.0283352171523985 1.4118133245642464 19.2517942233951977 O
atom 6.6700943423435408 2.2904810555066519 18.4411071068323018 Pd
atom 7.8259774436104061 0.8786325345611156 19.2517737891991736 O
atom 5.5141599263218133 3.7023152264445858 17.6304099684870899 O
atom 6.8731474320556698 1.4118049809226845 16.6214034506661541 O
atom 8.3118864121905389 3.1691080464527164 17.6304464056748991 O
atom 3.8724110215578098 4.5809923355043178 18.4411001272638551 Pd
atom 9.6708032114239018 5.4596714709210472 16.6213951906000368 O
atom 5.0282923591918021 5.9928644845583712 19.2517673596126322 O
atom 6.6700751197218464 6.8714987655041107 18.4410952193502702 Pd
atom 7.8260034309918769 5.4596690045640095 19.2517958200250270 O
atom 5.5141897584787110 8.2833400564486439 17.6304309582419059 O
atom 6.8730814951743007 5.9928771309142990 16.6213577869042872 O
atom 8.3118190825904108 7.7501738264438114 17.6304016827784800 O
