#===============================================================================
# Created using the Atomic Simulation Environment (ASE)

# Mon Mar 23 14:01:15 2026

#=======================================================
lattice_vector 11.1906751718508950 0.0000000000000000 0.0000000000000000 
lattice_vector 3.6895943445015020 10.5649482138552457 0.0000000000000000 
lattice_vector 0.0000000000000000 0.0000000000000000 30.0000482899408070 
atom 4.7643468179447055 3.3826550380116815 15.0000230589396040 Pd
atom 5.9202297681388325 1.7546296356981350 15.0000068267300364 O
atom 3.6084229609308585 5.0106924154909915 15.0000000000000000 O
atom 6.6091294223772552 8.6651585459259746 15.0000223425213406 Pd
atom 7.7650566167866204 7.0371221851448915 15.0000482899408070 O
atom 5.4532492859449269 10.2931885042624156 15.0000373677512542 O
atom 10.3596886868450415 3.3826581222713945 15.0000226880377525 Pd
atom 11.5155717881119148 1.7546235047447321 15.0000112585278700 O
atom 9.2037542708233211 5.0106954608663905 15.0000005603558435 O
atom 12.2044657493595281 8.6651571404282723 15.0000265173672318 Pd
atom 13.3603975559254042 7.0371237941021638 15.0000480383125421 O
atom 11.0485845376689724 10.2931859104023697 15.0000298356669504 O
