#===============================================================================
# Created using the Atomic Simulation Environment (ASE)

# Mon Mar 23 14:01:17 2026

#=======================================================
lattice_vector 11.1906751718508950 0.0000000000000000 0.0000000000000000 
lattice_vector -0.0000046503111567 9.1619939599992613 0.0000000000000000 
lattice_vector 0.0000000000000000 0.0000000000000000 42.1429915093086791 
atom 8.4539504630685283 2.2904823109308352 15.8107072815034293 Pd
atom 3.8114768935244649 9.1619884045747657 18.4410971915608393 Pd
atom 9.6098334132626544 0.8786393899868195 16.6213652102390554 O
atom 7.2980266060546652 3.7023160518715965 15.0000093162027639 O
atom 10.0957267712417611 3.1691215718749195 15.0000352329371260 O
atom 5.6562751048375590 9.1619894109305378 15.8107014466278422 Pd
atom 5.4532242099865673 3.7023161655142554 17.6304079279683492 O
atom 6.8122117203910175 1.4118082199923063 16.6214016821371331 O
atom 8.2509422875253229 3.1691088955212798 17.6304385902114049 O
atom 8.4539304578833327 6.8715073709282191 15.8106946986111154 Pd
atom 9.6098611804468419 5.4596746099899258 16.6213885870228708 O
atom 7.2980537481468604 8.2833518718753538 15.0000281506018283 O
atom 10.0956841346309112 7.7501671318696204 15.0000054586201230 O
atom 6.6091340726883958 6.8715034945730844 18.4410894768507205 Pd
atom 5.6562773673531437 4.5809965309308183 15.8107018668384747 Pd
atom 5.4532539362560772 8.2833497655184036 17.6304282327514983 O
atom 6.8121458107352417 5.9928815799839663 16.6213558053995420 O
atom 8.2508740851949369 7.7501754155122660 17.6303932308072859 O
atom 0.0609323526664484 9.1619885309303299 15.8106952461354950 Pd
atom 11.0485616255661991 3.7023166955148716 17.6304042175126270 O
atom 1.2168580349268237 1.4118170699898476 16.6213925406167071 O
atom 2.6555950536911568 3.1691219055191944 17.6304365506742826 O
atom 2.8586171601179604 2.2904848009322536 15.8107054240538076 Pd
atom 9.4068068303346291 9.1619876345733253 18.4410943919299513 Pd
atom 4.0145002613848320 0.8786362799867171 16.6213721064206830 O
atom 1.7026827440962335 3.7023189718701879 15.0000082857085992 O
atom 4.5004092299649594 3.1691117918783176 15.0000447228964084 O
atom 1.0137952278197873 6.8715043545719965 18.4410937971706090 Pd
atom 0.0609338393322451 4.5809960809299195 15.8106984444853715 Pd
atom 11.0485891879801166 8.2833437655187456 17.6304229924835809 O
atom 1.2168151769662270 5.9928682299839728 16.6213656768341451 O
atom 2.6555528295164166 7.7501667755139083 17.6304072854707101 O
atom 2.8585979374962638 6.8715025109297132 15.8106935365717831 Pd
atom 9.4068100926456584 4.5809951845737640 18.4410953545508782 Pd
atom 4.0145262487662974 5.4596727499896121 16.6213941372465435 O
atom 1.7027125762531363 8.2833438018742438 15.0000292754634224 O
atom 4.5003419003648339 7.7501775718694121 15.0000000000000000 O
atom 4.7643514682558648 2.2904804382180344 21.0715021950892023 Pd
atom 0.1218778987118002 9.1619865318619667 23.7018921051466123 Pd
atom 5.9202344184499909 0.8786375172740185 21.8821601238248284 O
atom 3.6084276112420124 3.7023141791587961 20.2608042297885333 O
atom 4.9673995016679617 1.4118173836339221 19.2517921468315620 O
atom 6.4061277764291011 3.1691196991621187 20.2608301465228955 O
atom 6.6091528368291650 2.2904841445755681 18.4411010427817459 Pd
atom 1.9666761100248971 9.1619875382177387 21.0714963602136152 Pd
atom 7.7650309816466603 0.8786396036292428 19.2517650917827297 O
atom 1.7636252151739122 3.7023142928014545 22.8912028415541222 O
atom 3.1226127255783580 1.4118063472795057 21.8821965957229061 O
atom 4.5613432927126683 3.1691070228084786 22.8912335037971815 O
atom 4.7643314630706755 6.8715054982154173 21.0714896121968849 Pd
atom 3.8114776211194181 4.5809955745742368 18.4410999919014529 Pd
atom 5.9202621856341819 5.4596727372771250 21.8821835006086474 O
atom 3.6084547533342026 8.2833499991625548 20.2608230641876013 O
atom 4.9673564971896358 5.9928698136280358 19.2517651436481891 O
atom 6.4060851398182486 7.7501652591568186 20.2608003722058960 O
atom 2.9195350778757359 6.8715016218602827 23.7018843904364971 Pd
atom 1.9666783725404906 4.5809946582180165 21.0714967804242477 Pd
atom 7.7650612670977726 5.4596720736328157 19.2517894407981522 O
atom 1.7636549414434199 8.2833478928056046 22.8912231463372677 O
atom 3.1225468159225822 5.9928797072711655 21.8821507189853151 O
atom 4.5612750903822770 7.7501735427994642 22.8911881443930589 O
atom 1.0138160921342687 2.2904810145747829 18.4411066528197338 Pd
atom 7.5620085297046842 9.1619866582175309 21.0714901597212645 Pd
atom 2.1697031582231401 0.8786341636311753 19.2517681521874771 O
atom 7.3589626307535436 3.7023148228020708 22.8911991310983964 O
atom 8.7179342119650656 1.4118151972770472 21.8821874542024837 O
atom 10.1566712307293887 3.1691200328063935 22.8912314642600521 O
atom 10.3596933371561946 2.2904829282194528 21.0715003376395771 Pd
atom 5.7172078355219673 9.1619857618605263 23.7018893055157278 Pd
atom 0.3249012665721743 0.8786344072739164 21.8821670200064560 O
atom 9.2037589211344724 3.7023170991573866 20.2608031992943722 O
atom 10.5627464268683244 1.4118068536354851 19.2517966814734436 O
atom 0.8108102351523013 3.1691099191655168 20.2608396364821814 O
atom 8.5148714048580203 6.8715024818591957 23.7018887107563856 Pd
atom 7.5620100163704773 4.5809942082171178 21.0714933580711445 Pd
atom 2.1697270343856636 5.4596733436338472 19.2517884214073192 O
atom 7.3589901931674628 8.2833418928059466 22.8912179060693504 O
atom 8.7178913540044594 5.9928663572711729 21.8821605904199146 O
atom 10.1566290065546543 7.7501649028011066 22.8912021990564796 O
atom 10.3596741145344975 6.8715006382169115 21.0714884501575526 Pd
atom 5.7172110978329993 4.5809933118609623 23.7018902681366441 Pd
atom 0.3249272539536447 5.4596708772768103 21.8821890508323165 O
atom 9.2037887532913736 8.2833419291614447 20.2608241890491918 O
atom 10.5626804899869633 5.9928790036270998 19.2517510177115767 O
atom 0.8107429055521735 7.7501756991566104 20.2607949135857695 O
atom 1.0747524734432075 2.2904785655052335 26.3322971086749718 Pd
atom 2.2306354236373336 0.8786356445612178 27.1429550374106014 O
atom 11.1095037882802412 3.7023123064459948 25.5215991433743028 O
atom 1.2778005068553095 1.4118155109211212 24.5125870604173386 O
atom 2.7165287816164487 3.1691178264493178 25.5216250601086685 O
atom 2.9195538420165055 2.2904822718627673 23.7018959563675224 Pd
atom 9.4677522870631350 9.1619856655049379 26.3322912737993846 Pd
atom 4.0754319868340056 0.8786377309164422 24.5125600053685062 O
atom 10.6236889026165944 1.4118044745667049 27.1429915093086791 O
atom 1.0747324682580177 6.8715036255026174 26.3322845257826543 Pd
atom 0.1218786263067606 4.5809937018614360 23.7018949054872294 Pd
atom 2.2306631908215144 5.4596708645643250 27.1429784141944168 O
atom 11.1095309303724452 8.2833481264497539 25.5216179777733672 O
atom 1.2777575023769734 5.9928679409152350 24.5125600572339550 O
atom 2.7164861450055962 7.7501633864440196 25.5215952857916761 O
atom 9.4677545495787285 4.5809927855052166 26.3322916940100242 Pd
atom 4.0754622722851144 5.4596702009200149 24.5125843543839252 O
atom 10.6236229929608186 5.9928778345583646 27.1429456325710916 O
atom 8.5148922691725062 2.2904791418619821 23.7019015664055104 Pd
atom 3.8724095348920233 9.1619847855047301 26.3322850733070410 Pd
atom 9.6707793352613773 0.8786322909183746 24.5125630657732501 O
atom 5.0283352171523985 1.4118133245642464 27.1429823677882567 O
atom 6.6700943423435408 2.2904810555066519 26.3322952512253607 Pd
atom 7.8259774436104061 0.8786325345611156 27.1429619335922325 O
atom 5.5141599263218133 3.7023152264445858 25.5215981128801488 O
atom 6.8731474320556698 1.4118049809226845 24.5125915950592130 O
atom 8.3118864121905389 3.1691080464527164 25.5216345500679580 O
atom 3.8724110215578098 4.5809923355043178 26.3322882716569140 Pd
atom 9.6708032114239018 5.4596714709210472 24.5125833349930957 O
atom 5.0282923591918021 5.9928644845583712 27.1429555040056911 O
atom 6.6700751197218464 6.8714987655041107 26.3322833637433291 Pd
atom 7.8260034309918769 5.4596690045640095 27.1429839644180859 O
atom 5.5141897584787110 8.2833400564486439 25.5216191026349648 O
atom 6.8730814951743007 5.9928771309142990 24.5125459312973462 O
atom 8.3118190825904108 7.7501738264438114 25.5215898271715389 O
