#===============================================================================
# Created using the Atomic Simulation Environment (ASE)

# Mon Mar 23 14:01:16 2026

#=======================================================
lattice_vector 9.1619939600004408 0.0000000000000000 0.0000000000000000 
lattice_vector 0.0000000000000000 6.4256598000000000 0.0000000000000000 
lattice_vector 0.0000000000000000 0.0000000000000000 56.9528386499852104 
atom 2.2904804999965149 1.6064175900000004 15.8787062223445545 Pd
atom 0.8786330623648043 1.6064124199999998 17.2905296247055276 O
atom 1.4118164523546273 0.0000013200000000 15.0000640499795743 O
atom 3.1691205576306127 0.0000025100000000 16.7573735247020963 O
atom 2.2904833499967876 4.8192434999999998 15.8787053423454374 Pd
atom 0.8786342423651609 4.8192448500000005 17.2905284747058943 O
atom 1.4118071723502099 3.2128293900000005 15.0000782999766997 O
atom 3.1691095076258842 3.2128285900000004 16.7573887746986685 O
atom 6.8715038400037285 1.6064177100000003 15.8786836623527261 Pd
atom 5.4596722423547668 1.6064139700000002 17.2905627147186109 O
atom 5.9928676123699134 0.0000026000000000 15.0000154399963712 O
atom 7.7501654276461664 0.0000014600000000 16.7573240547169391 O
atom 6.8715010600034123 4.8192434700000009 15.8786846823518637 Pd
atom 5.4596707123542751 4.8192466300000012 17.2905643047181385 O
atom 5.9928793223747023 3.2128285299999999 15.0000000000000000 O
atom 7.7501752876505625 3.2128293000000006 16.7573098747199971 O
atom 2.2904780199977668 1.6064175800000002 20.4596991623440054 Pd
atom 9.1619864699997819 6.4256572800000011 18.1691952323479171 Pd
atom 0.8786345123677368 1.6064118500000002 21.8715171447061962 O
atom 3.7023123476453037 1.6064140200000003 19.0478246999789675 O
atom 1.4118148623536104 0.0000011400000000 19.5810643099793040 O
atom 3.1691164476328844 0.0000024300000000 21.3383631747010405 O
atom 2.2904807899979498 4.8192433800000005 20.4596985723448661 Pd
atom 9.1619865399998037 3.2128295200000001 18.1691951623479433 Pd
atom 0.8786356623680500 4.8192454200000006 21.8715161347065532 O
atom 3.7023133976458347 4.8192465300000009 19.0478229899792915 O
atom 1.4118047623491372 3.2128294600000005 19.5810787399761743 O
atom 3.1691047076280245 3.2128285399999994 21.3383788546974031 O
atom 6.8715030800047145 1.6064174299999998 20.4596774623527082 Pd
atom 4.5809936399994733 0.0000006900000000 18.1691955323492067 Pd
atom 5.4596697323561596 1.6064137100000000 21.8715552047180566 O
atom 8.2833481676346956 1.6064125200000001 19.0478596399910103 O
atom 5.9928672923689614 0.0000023900000000 19.5810154999964929 O
atom 7.7501620076486351 0.0000012000000000 21.3383130747161012 O
atom 6.8715001400044011 4.8192433499999998 20.4596784723517970 Pd
atom 4.5809936599995256 3.2128299000000009 18.1691953523492131 Pd
atom 5.4596681323556622 4.8192466300000012 21.8715568147175574 O
atom 8.2833469976343039 4.8192447500000002 19.0478608899906448 O
atom 5.9928781223736607 3.2128284100000006 19.5810003399998500 O
atom 7.7501712276530377 3.2128292299999996 21.3382988747189586 O
atom 2.2904748199969611 1.6064175900000004 25.0406987423432383 Pd
atom 9.1619828200024411 6.4256573100000001 22.7501836323470101 Pd
atom 0.8786273823652507 1.6064124199999998 26.4525221447042114 O
atom 3.7023110876467604 1.6064136899999999 23.6288169799787937 O
atom 1.4118107723550735 0.0000013200000000 24.1620565699782546 O
atom 3.1691148776310589 0.0000025100000000 25.9193660447007765 O
atom 2.2904776699972338 4.8192434999999998 25.0406978623441248 Pd
atom 9.1619828600024444 3.2128294799999999 22.7501836223470200 Pd
atom 0.8786285623656073 4.8192448500000005 26.4525209947045781 O
atom 3.7023124276473047 4.8192466800000009 23.6288152299792102 O
atom 1.4118014923506561 3.2128293900000005 24.1620708199753835 O
atom 3.1691038276263308 3.2128285900000004 25.9193812946973523 O
atom 6.8714981600041760 1.6064177100000003 25.0406761823514117 Pd
atom 4.5809903700018673 0.0000006100000000 22.7501847823484127 Pd
atom 5.4596665623552134 1.6064139700000002 26.4525552347172912 O
atom 8.2833381576360559 1.6064119000000001 23.6288522299881265 O
atom 5.9928619323703600 0.0000026000000000 24.1620079599950515 O
atom 7.7501597476466131 0.0000014600000000 25.9193165747156229 O
atom 6.8714953800038598 4.8192434700000009 25.0406772023505475 Pd
atom 4.5809904100018191 3.2128297300000006 22.7501849423484259 Pd
atom 5.4596650323547218 4.8192466300000012 26.4525568247168188 O
atom 8.2833372576356279 4.8192453999999998 23.6288536099878428 O
atom 5.9928736423751490 3.2128285299999999 24.1619925199986838 O
atom 7.7501696076510092 3.2128293000000006 25.9193023947186809 O
atom 2.2904723399982130 1.6064175800000002 29.6216916823426857 Pd
atom 9.1619807900002304 6.4256572800000011 27.3311877523466009 Pd
atom 0.8786288323681830 1.6064118500000002 31.0335096647048836 O
atom 3.7023066676457508 1.6064140200000003 28.2098172199776513 O
atom 1.4118091823540571 0.0000011400000000 28.7430568299779878 O
atom 3.1691107676333310 0.0000024300000000 30.5003556946997243 O
atom 2.2904751099983960 4.8192433800000005 29.6216910923435464 Pd
atom 9.1619808600002521 3.2128295200000001 27.3311876823466235 Pd
atom 0.8786299823684963 4.8192454200000006 31.0335086547052370 O
atom 3.7023077176462813 4.8192465300000009 28.2098155099779753 O
atom 1.4117990823495838 3.2128294600000005 28.7430712599748581 O
atom 3.1690990276284703 3.2128285399999994 30.5003713746960834 O
atom 6.8714974000051594 1.6064174299999998 29.6216699823513920 Pd
atom 4.5809879599999190 0.0000006900000000 27.3311880523478905 Pd
atom 5.4596640523566053 1.6064137100000000 31.0335477247167333 O
atom 8.2833424876351422 1.6064125200000001 28.2098521599896870 O
atom 5.9928616123694081 0.0000023900000000 28.7430080199951767 O
atom 7.7501563276490808 0.0000012000000000 30.5003055947147814 O
atom 6.8714944600048460 4.8192433499999998 29.6216709923504844 Pd
atom 4.5809879799999722 3.2128299000000009 27.3311878723478934 Pd
atom 5.4596624523561079 4.8192466300000012 31.0335493347162412 O
atom 8.2833413176347523 4.8192447500000002 28.2098534099893250 O
atom 5.9928724423741064 3.2128284100000006 28.7429928599985303 O
atom 7.7501655476534825 3.2128292299999996 30.5002913947176424 O
atom 2.2904691399974073 1.6064175900000004 34.2026912623419150 Pd
atom 9.1619771400028895 6.4256573100000001 31.9121761523456939 Pd
atom 0.8786217023656969 1.6064124199999998 35.6145146647028952 O
atom 3.7023054076472075 1.6064136899999999 32.7908094999774846 O
atom 1.4118050923555201 0.0000013200000000 33.3240490899769384 O
atom 3.1691091976315056 0.0000025100000000 35.0813585646994568 O
atom 2.2904719899976800 4.8192434999999998 34.2026903823428015 Pd
atom 9.1619771800028929 3.2128294799999999 31.9121761423457038 Pd
atom 0.8786228823660536 4.8192448500000005 35.6145135147032619 O
atom 3.7023067476477509 4.8192466800000009 32.7908077499778869 O
atom 1.4117958123511025 3.2128293900000005 33.3240633399740602 O
atom 3.1690981476267766 3.2128285900000004 35.0813738146960361 O
atom 6.8714924800046218 1.6064177100000003 34.2026687023500884 Pd
atom 4.5809846900023130 0.0000006100000000 31.9121773023470965 Pd
atom 5.4596608823556600 1.6064139700000002 35.6145477547159786 O
atom 8.2833324776365025 1.6064119000000001 32.7908447499868032 O
atom 5.9928562523708049 0.0000026000000000 33.3240004799937353 O
atom 7.7501540676470588 0.0000014600000000 35.0813090947142996 O
atom 6.8714897000043056 4.8192434700000009 34.2026697223492278 Pd
atom 4.5809847300022648 3.2128297300000006 31.9121774623471097 Pd
atom 5.4596593523551666 4.8192466300000012 35.6145493447154990 O
atom 8.2833315776360763 4.8192453999999998 32.7908461299865195 O
atom 5.9928679623755947 3.2128285299999999 33.3239850399973605 O
atom 7.7501639276514549 3.2128293000000006 35.0812949147173612 O
atom 2.2904666599986596 1.6064175800000002 38.7836842023413766 Pd
atom 9.1619751100006752 6.4256572800000011 36.4931802723452847 Pd
atom 0.8786231523686295 1.6064118500000002 40.1955021847035638 O
atom 3.7023009876461970 1.6064140200000003 37.3718097399763280 O
atom 1.4118035023545032 0.0000011400000000 37.9050493499766787 O
atom 3.1691050876337772 0.0000024300000000 39.6623482146984117 O
atom 2.2904694299988422 4.8192433800000005 38.7836836123422302 Pd
atom 9.1619751800006970 3.2128295200000001 36.4931802023453002 Pd
atom 0.8786243023689426 4.8192454200000006 40.1955011747039208 O
atom 3.7023020376467271 4.8192465300000009 37.3718080299766626 O
atom 1.4117934023500303 3.2128294600000005 37.9050637799735313 O
atom 3.1690933476289169 3.2128285399999994 39.6623638946947636 O
atom 6.8714917200056069 1.6064174299999998 38.7836625023500758 Pd
atom 4.5809822800003657 0.0000006900000000 36.4931805723465743 Pd
atom 5.4596583723570511 1.6064137100000000 40.1955402447154171 O
atom 8.2833368076355889 1.6064125200000001 37.3718446799883708 O
atom 5.9928559323698547 0.0000023900000000 37.9050005399938570 O
atom 7.7501506476495283 0.0000012000000000 39.6622981147134652 O
atom 6.8714887800052935 4.8192433499999998 38.7836635123491646 Pd
atom 4.5809823000004188 3.2128299000000009 36.4931803923465736 Pd
atom 5.4596567723565537 4.8192466300000012 40.1955418547149250 O
atom 8.2833356376351990 4.8192447500000002 37.3718459299880124 O
atom 5.9928667623745540 3.2128284100000006 37.9049853799972141 O
atom 7.7501598676539301 3.2128292299999996 39.6622839147163262 O
atom 9.1619714600033344 6.4256573100000001 41.0741686723443706 Pd
atom 3.7022997276476532 1.6064136899999999 41.9528020199761613 O
atom 9.1619715000033377 3.2128294799999999 41.0741686623443911 Pd
atom 3.7023010676481971 4.8192466800000009 41.9528002699765779 O
atom 4.5809790100027596 0.0000006100000000 41.0741698223457803 Pd
atom 8.2833267976369491 1.6064119000000001 41.9528372699854941 O
atom 4.5809790500027114 3.2128297300000006 41.0741699823457935 Pd
atom 8.2833258976365212 4.8192453999999998 41.9528386499852104 O
