#===============================================================================
# Created using the Atomic Simulation Environment (ASE)

# Mon Mar 23 14:01:16 2026

#=======================================================
lattice_vector 9.1619939600004408 0.0000000000000000 0.0000000000000000 
lattice_vector 0.0000000000000000 6.4256598000000000 0.0000000000000000 
lattice_vector 0.0000000000000000 0.0000000000000000 36.3383251352819485 
atom 0.8786217023656969 1.6064124199999998 15.0000011499996333 O
atom 0.8786228823660536 4.8192448500000005 15.0000000000000000 O
atom 5.4596608823556600 1.6064139700000002 15.0000342400127167 O
atom 5.4596593523551666 4.8192466300000012 15.0000358300122372 O
atom 2.2904666599986596 1.6064175800000002 18.1691706876381147 Pd
atom 9.1619751100006752 6.4256572800000011 15.8786667576420228 Pd
atom 0.8786231523686295 1.6064118500000002 19.5809886700003020 O
atom 3.7023009876461970 1.6064140200000003 16.7572962252730662 O
atom 1.4118035023545032 0.0000011400000000 17.2905358352734169 O
atom 3.1691050876337772 0.0000024300000000 19.0478346999951498 O
atom 2.2904694299988422 4.8192433800000005 18.1691700976389683 Pd
atom 9.1619751800006970 3.2128295200000001 15.8786666876420384 Pd
atom 0.8786243023689426 4.8192454200000006 19.5809876600006589 O
atom 3.7023020376467271 4.8192465300000009 16.7572945152734007 O
atom 1.4117934023500303 3.2128294600000005 17.2905502652702694 O
atom 3.1690933476289169 3.2128285399999994 19.0478503799915018 O
atom 6.8714917200056069 1.6064174299999998 18.1691489876468140 Pd
atom 4.5809822800003657 0.0000006900000000 15.8786670576433124 Pd
atom 5.4596583723570511 1.6064137100000000 19.5810267300121552 O
atom 8.2833368076355889 1.6064125200000001 16.7573311652851089 O
atom 5.9928559323698547 0.0000023900000000 17.2904870252905951 O
atom 7.7501506476495283 0.0000012000000000 19.0477846000102033 O
atom 6.8714887800052935 4.8192433499999998 18.1691499976459028 Pd
atom 4.5809823000004188 3.2128299000000009 15.8786668776433118 Pd
atom 5.4596567723565537 4.8192466300000012 19.5810283400116631 O
atom 8.2833356376351990 4.8192447500000002 16.7573324152847505 O
atom 5.9928667623745540 3.2128284100000006 17.2904718652939522 O
atom 7.7501598676539301 3.2128292299999996 19.0477704000130643 O
atom 9.1619714600033344 6.4256573100000001 20.4596551576411088 Pd
atom 3.7022997276476532 1.6064136899999999 21.3382885052728994 O
atom 9.1619715000033377 3.2128294799999999 20.4596551476411292 Pd
atom 3.7023010676481971 4.8192466800000009 21.3382867552733160 O
atom 4.5809790100027596 0.0000006100000000 20.4596563076425184 Pd
atom 8.2833267976369491 1.6064119000000001 21.3383237552822322 O
atom 4.5809790500027114 3.2128297300000006 20.4596564676425317 Pd
atom 8.2833258976365212 4.8192453999999998 21.3383251352819485 O
