#===============================================================================
# Created using the Atomic Simulation Environment (ASE)

# Mon Mar 23 14:01:15 2026

#=======================================================
lattice_vector 11.1906751718508950 0.0000000000000000 0.0000000000000000 
lattice_vector 3.6895943445015020 10.5649482138552457 0.0000000000000000 
lattice_vector 0.0000000000000000 0.0000000000000000 38.8589172685531352 
atom 7.5010758883371231 5.3257387143016777 15.8750471325560483 Pd
atom 10.5018060648925253 7.4561870943199899 15.0000045144220699 O
atom 8.6569554920022984 2.1737867606800445 15.0000076739677652 O
atom 4.9064523794283295 7.4561993211006747 15.0000009936712608 O
atom 1.9057306532963922 5.3257394406217475 15.8750443212761851 Pd
atom 0.0609338393322445 0.0432684758759028 15.8750478659798944 Pd
atom 3.0616043129487331 2.1738017642924996 15.0000000000000000 O
atom 8.4539458127573663 6.0022590077028530 19.2966953994408925 Pd
atom 3.8114768935244636 2.7061347446105071 20.4372437706670951 Pd
atom 9.6098287629514996 4.3742336053893061 19.2966791672313178 O
atom 7.2980219557435149 7.6302963851821630 19.2966723405012743 O
atom 8.6569938461694669 6.1463973499637206 17.2811017991555573 O
atom 10.0957221209306045 7.1678935557984644 19.0311916866890769 O
atom 10.2987471813306648 7.3120652348866102 17.0155952549262359 Pd
atom 5.6562751048375564 4.0159359377428068 18.1561469710043006 Pd
atom 11.4546253261481716 5.6840353801219656 17.0155835235759945 O
atom 9.1428185544880751 8.9400987054778067 17.0155755458909681 O
atom 6.8122070700798627 4.8365831246288193 19.5622011525331203 O
atom 11.9405366320268271 8.4776824215046567 16.7500926386634106 O
atom 8.4539304578833345 2.0296175024143617 17.0156001507934498 Pd
atom 7.5010719656209313 9.2984130408674748 18.1561499465700180 Pd
atom 9.6098611804468419 0.4015830048786485 17.0156201622172141 O
atom 7.2980537481468595 3.6576485668676386 17.0156096950689673 O
atom 8.6569508416911383 10.1191310048441192 19.5622043120788121 O
atom 10.0956841346309130 3.1952783886844611 16.7500917374526068 O
atom 6.6091340726884065 0.7198143017619025 19.2966946830226149 Pd
atom 5.6562773673531499 0.0432671619658724 15.8750510579451216 Pd
atom 11.4546556115992768 9.6567261548360612 19.2967206304420884 O
atom 5.4532539362560808 2.3478442600983396 19.2967097082525321 O
atom 6.8121458107352444 0.8640000840318399 17.2811010821197399 O
atom 8.2508740851949476 1.8854892219156529 19.0311862490315207 O
atom 4.7034104366357754 7.3120597270211363 17.0155985614121512 Pd
atom 11.2516075245173468 4.0159382621233801 18.1561411557002934 Pd
atom 5.8592975027246439 5.6840291385957400 17.0155834687438627 O
atom 3.5474807982168084 8.9401010127120237 17.0155725920709742 O
atom 12.4075285564665716 4.8365953514095033 19.5621976317823112 O
atom 6.3451893981926659 8.4776947194478680 16.7500973482653137 O
atom 2.8586125098068078 6.0022620919625655 19.2966950285390340 Pd
atom 9.4068068303346202 2.7061354709305765 20.4372409593872355 Pd
atom 4.0144956110736763 4.3742274744359024 19.2966835990291514 O
atom 12.8933532656359766 7.6302994305575629 19.2966729008571178 O
atom 3.0616655995189346 6.1463859602606856 17.2811004882364756 O
atom 4.5004045796538055 7.1678803490117540 19.0311950465172863 O
atom 1.0137952278197857 0.7198128962641953 19.2966988578685168 Pd
atom 11.2516043608719869 7.9886127200399786 20.4372445040909412 Pd
atom 5.8593213788871719 9.6567277637933344 19.2967203788138271 O
atom 11.0485891879801166 2.3478416662382959 19.2967021761682318 O
atom 1.2168151769662261 0.8639835913587356 17.2811029950898920 O
atom 2.6555528295164113 1.8854747307579431 19.0311941350624352 O
atom 2.8585979374962620 2.0296138664253642 17.0155967230383673 Pd
atom 13.0964044371471662 9.2984150118158588 18.1561457308277099 Pd
atom 4.0145262487663027 0.4015786281507487 17.0156240492259485 O
atom 1.7027125762531388 3.6576410083845214 17.0156066521157143 O
atom 14.2522748344884640 10.1191460084565747 19.5621966381110468 O
atom 4.5003419003648322 3.1952901604331796 16.7500922022767398 O
atom 4.7643468179447055 3.3826550380116815 23.8588920375519322 Pd
atom 5.9202297681388325 1.7546296356981350 23.8588758053423646 O
atom 3.6084229609308585 5.0106924154909915 23.8588689786123282 O
atom 4.9673948513568149 3.5267933802725495 21.8432984372666077 O
atom 6.4061231261179579 4.5482895861072903 23.5933883248001237 O
atom 6.6091481865180128 4.6924612651954378 21.5777918930372863 Pd
atom 1.9666761100249095 1.3963319680516337 22.7183436091153510 Pd
atom 7.7650263313355135 3.0644314104307933 21.5777801616870413 O
atom 5.4532195596754187 6.3204947357866352 21.5777721840020149 O
atom 8.2509376372141716 5.8580784518134843 21.3122892767744538 O
atom 8.4539258075721815 9.9749617465784350 21.5777967889044966 Pd
atom 3.8114729708082691 6.6788090711763024 22.7183465846810648 Pd
atom 9.6098565301356924 8.3469272490427233 21.5778168003282644 O
atom 3.6084547533342124 1.0380445971764651 21.5778063331800212 O
atom 6.4060851398182557 0.5756744189932899 21.3122883755636536 O
atom 6.6091294223772552 8.6651585459259746 23.8588913211336688 Pd
atom 5.6562727170419942 7.9886114061299445 20.4372476960561684 Pd
atom 7.7650566167866204 7.0371221851448915 23.8589172685531352 O
atom 5.4532492859449269 10.2931885042624156 23.8589063463635824 O
atom 6.8121411604240851 8.8093443281959161 21.8432977202307868 O
atom 8.2508694348837892 9.8308334660797296 23.5933828871425604 O
atom 12.2044866136740158 4.6924557573299666 21.5777951995231945 Pd
atom 7.5620085297046886 1.3963342924322093 22.7183377938113402 Pd
atom 2.1696985079119964 3.0644251689045676 21.5777801068549131 O
atom 11.0485569752550443 6.3204970430208558 21.5777692301820139 O
atom 2.6555904033800095 5.8580907497566965 21.3122939863763605 O
atom 10.3596886868450415 3.3826581222713945 23.8588916666500808 Pd
atom 11.5155717881119148 1.7546235047447321 23.8588802371401982 O
atom 9.2037542708233211 5.0106954608663905 23.8588695389681718 O
atom 10.5627417765571732 3.5267819905695137 21.8432971263475224 O
atom 12.0014807566920503 4.5482763793205834 23.5933916846283225 O
atom 12.2044657493595281 8.6651571404282723 23.8588954959795601 Pd
atom 13.3603975559254042 7.0371237941021638 23.8589170169248703 O
atom 11.0485845376689724 10.2931859104023697 23.8588988142792786 O
atom 12.4074856985059707 8.8093278355228080 21.8432996332009424 O
atom 13.8462233510561514 9.8308189749220194 23.5933907731734820 O
atom 14.0492684590359982 9.9749581105894389 21.5777933611494177 Pd
atom 9.4068054423345107 6.6788110421246891 22.7183423689387638 Pd
atom 4.0145215984551434 8.3469228723148241 21.5778206873369918 O
atom 9.2037887532913789 1.0380370386933513 21.5778032902267540 O
atom 0.8107429055521764 0.5756861907420102 21.3122888403877866 O
