#===============================================================================
# Created using the Atomic Simulation Environment (ASE)

# Mon Mar 23 14:01:17 2026

#=======================================================
lattice_vector 11.1906751718508950 0.0000000000000000 0.0000000000000000 
lattice_vector -0.0000046503111567 9.1619939599992613 0.0000000000000000 
lattice_vector 0.0000000000000000 0.0000000000000000 47.4037864228944557 
atom 0.9528742860302876 2.2904841836436360 15.8107072815034329 Pd
atom 7.5010758883371214 9.1619902772875683 18.4410971915608499 Pd
atom 2.1087572362244162 0.8786412626996201 16.6213652102390625 O
atom 10.9876256008673270 3.7023179245843973 15.0000093162027692 O
atom 2.5946505942035265 3.1691234445877208 15.0000352329371296 O
atom 9.3458740996502154 9.1619912836433386 15.8107014466278475 Pd
atom 9.1428232047992282 3.7023180382270562 17.6304079279683563 O
atom 10.5018107152036730 1.4118100927051074 16.6214016821371402 O
atom 0.7498661104870882 3.1691107682340802 17.6304385902114120 O
atom 0.9528542808450929 6.8715092436410190 15.8106946986111172 Pd
atom 2.1087850034086046 5.4596764827027267 16.6213885870228779 O
atom 10.9876527429595185 8.2833537445881547 15.0000281506018336 O
atom 2.5946079575926713 7.7501690045824203 15.0000054586201301 O
atom 10.2987330675010522 6.8715053672858843 18.4410894768507241 Pd
atom 9.3458763621658036 4.5809984036436182 15.8107018668384800 Pd
atom 9.1428529310687345 8.2833516382312062 17.6304282327515054 O
atom 10.5017448055478972 5.9928834526967680 16.6213558053995492 O
atom 0.7497979081566996 7.7501772882250659 17.6303932308072930 O
atom 3.7505313474791051 9.1619904036431326 15.8106952461354986 Pd
atom 3.5474854485279641 3.7023185682276729 17.6304042175126305 O
atom 4.9064570297394781 1.4118189427026484 16.6213925406167107 O
atom 6.3451940485038172 3.1691237782319952 17.6304365506742897 O
atom 6.5482161549306177 2.2904866736450544 15.8107054240538112 Pd
atom 1.9057306532963876 9.1619895072861279 18.4410943919299584 Pd
atom 7.7040992561974893 0.8786381526995178 16.6213721064206901 O
atom 5.3922817389088920 3.7023208445829883 15.0000082857086028 O
atom 8.1900082247776176 3.1691136645911184 15.0000447228964138 O
atom 4.7033942226324399 6.8715062272847982 18.4410937971706161 Pd
atom 3.7505328341448978 4.5809979536427203 15.8106984444853769 Pd
atom 3.5475130109418798 8.2833456382315465 17.6304229924835845 O
atom 4.9064141717788816 5.9928701026967737 16.6213656768341522 O
atom 6.3451518243290712 7.7501686482267091 17.6304072854707137 O
atom 6.5481969323089224 6.8715043836425123 15.8106935365717867 Pd
atom 1.9057339156074244 4.5809970572865639 18.4410953545508818 Pd
atom 7.7041252435789556 5.4596746227024111 16.6213941372465470 O
atom 5.3923115710657950 8.2833456745870446 15.0000292754634259 O
atom 8.1899408951774912 7.7501794445822121 15.0000000000000000 O
atom 8.4539504630685283 2.2904823109308352 21.0715021950892059 Pd
atom 3.8114768935244649 9.1619884045747657 23.7018921051466158 Pd
atom 9.6098334132626544 0.8786393899868195 21.8821601238248320 O
atom 7.2980266060546652 3.7023160518715965 20.2608042297885405 O
atom 8.6569984964806199 1.4118192563467227 19.2517921468315691 O
atom 10.0957267712417611 3.1691215718749195 20.2608301465229026 O
atom 10.2987518316418232 2.2904860172883690 18.4411010427817530 Pd
atom 5.6562751048375590 9.1619894109305378 21.0714963602136187 Pd
atom 0.2639548046084276 0.8786414763420436 19.2517650917827368 O
atom 5.4532242099865673 3.7023161655142554 22.8912028415541258 O
atom 6.8122117203910175 1.4118082199923063 21.8821965957229096 O
atom 8.2509422875253229 3.1691088955212798 22.8912335037971815 O
atom 8.4539304578833327 6.8715073709282191 21.0714896121968920 Pd
atom 7.5010766159320781 4.5809974472870385 18.4410999919014600 Pd
atom 9.6098611804468419 5.4596746099899258 21.8821835006086474 O
atom 7.2980537481468604 8.2833518718753538 20.2608230641876048 O
atom 8.6569554920022913 5.9928716863408376 19.2517651436481962 O
atom 10.0956841346309112 7.7501671318696204 20.2608003722058996 O
atom 6.6091340726883958 6.8715034945730844 23.7018843904364971 Pd
atom 5.6562773673531437 4.5809965309308183 21.0714967804242512 Pd
atom 0.2639850900595326 5.4596739463456165 19.2517894407981558 O
atom 5.4532539362560772 8.2833497655184036 22.8912231463372748 O
atom 6.8121458107352417 5.9928815799839663 21.8821507189853186 O
atom 8.2508740851949369 7.7501754155122660 22.8911881443930625 O
atom 4.7034150869469267 2.2904828872875838 18.4411066528197409 Pd
atom 0.0609323526664484 9.1619885309303299 21.0714901597212716 Pd
atom 5.8593021530357969 0.8786360363439762 19.2517681521874806 O
atom 11.0485616255661991 3.7023166955148716 22.8911991310984035 O
atom 1.2168580349268237 1.4118170699898476 21.8821874542024837 O
atom 2.6555950536911568 3.1691219055191944 22.8912314642600592 O
atom 2.8586171601179604 2.2904848009322536 21.0715003376395842 Pd
atom 9.4068068303346291 9.1619876345733253 23.7018893055157278 Pd
atom 4.0145002613848320 0.8786362799867171 21.8821670200064595 O
atom 1.7026827440962335 3.7023189718701879 20.2608031992943758 O
atom 3.0616702498300894 1.4118087263482857 19.2517966814734507 O
atom 4.5004092299649594 3.1691117918783176 20.2608396364821850 O
atom 1.0137952278197873 6.8715043545719965 23.7018887107563856 Pd
atom 0.0609338393322451 4.5809960809299195 21.0714933580711481 Pd
atom 5.8593260291983205 5.4596752163466489 19.2517884214073227 O
atom 11.0485891879801166 8.2833437655187456 22.8912179060693575 O
atom 1.2168151769662270 5.9928682299839728 21.8821605904199217 O
atom 2.6555528295164166 7.7501667755139083 22.8912021990564867 O
atom 2.8585979374962638 6.8715025109297132 21.0714884501575597 Pd
atom 9.4068100926456584 4.5809951845737640 23.7018902681366548 Pd
atom 4.0145262487662974 5.4596727499896121 21.8821890508323200 O
atom 1.7027125762531363 8.2833438018742438 20.2608241890491989 O
atom 3.0616043129487256 5.9928808763399006 19.2517510177115838 O
atom 4.5003419003648339 7.7501775718694121 20.2607949135857766 O
atom 4.7643514682558648 2.2904804382180344 26.3322971086749789 Pd
atom 0.1218778987118002 9.1619865318619667 28.9626870187323888 Pd
atom 5.9202344184499909 0.8786375172740185 27.1429550374106050 O
atom 3.6084276112420124 3.7023141791587961 25.5215991433743099 O
atom 4.9673995016679617 1.4118173836339221 24.5125870604173386 O
atom 6.4061277764291011 3.1691196991621187 25.5216250601086720 O
atom 6.6091528368291650 2.2904841445755681 23.7018959563675224 Pd
atom 1.9666761100248971 9.1619875382177387 26.3322912737993917 Pd
atom 7.7650309816466603 0.8786396036292428 24.5125600053685062 O
atom 1.7636252151739122 3.7023142928014545 28.1519977551398988 O
atom 3.1226127255783580 1.4118063472795057 27.1429915093086827 O
atom 4.5613432927126683 3.1691070228084786 28.1520284173829580 O
atom 4.7643314630706755 6.8715054982154173 26.3322845257826614 Pd
atom 3.8114776211194181 4.5809955745742368 23.7018949054872294 Pd
atom 5.9202621856341819 5.4596727372771250 27.1429784141944239 O
atom 3.6084547533342026 8.2833499991625548 25.5216179777733778 O
atom 4.9673564971896358 5.9928698136280358 24.5125600572339657 O
atom 6.4060851398182486 7.7501652591568186 25.5215952857916726 O
atom 2.9195350778757359 6.8715016218602827 28.9626793040222736 Pd
atom 1.9666783725404906 4.5809946582180165 26.3322916940100242 Pd
atom 7.7650612670977726 5.4596720736328157 24.5125843543839288 O
atom 1.7636549414434199 8.2833478928056046 28.1520180599230443 O
atom 3.1225468159225822 5.9928797072711655 27.1429456325710916 O
atom 4.5612750903822770 7.7501735427994642 28.1519830579788355 O
atom 1.0138160921342687 2.2904810145747829 23.7019015664055104 Pd
atom 7.5620085297046842 9.1619866582175309 26.3322850733070410 Pd
atom 2.1697031582231401 0.8786341636311753 24.5125630657732536 O
atom 7.3589626307535436 3.7023148228020708 28.1519940446841730 O
atom 8.7179342119650656 1.4118151972770472 27.1429823677882602 O
atom 10.1566712307293887 3.1691200328063935 28.1520263778458286 O
atom 10.3596933371561946 2.2904829282194528 26.3322952512253536 Pd
atom 5.7172078355219673 9.1619857618605263 28.9626842191015044 Pd
atom 0.3249012665721743 0.8786344072739164 27.1429619335922325 O
atom 9.2037589211344724 3.7023170991573866 25.5215981128801488 O
atom 10.5627464268683244 1.4118068536354851 24.5125915950592201 O
atom 0.8108102351523013 3.1691099191655168 25.5216345500679580 O
atom 8.5148714048580203 6.8715024818591957 28.9626836243421621 Pd
atom 7.5620100163704773 4.5809942082171178 26.3322882716569211 Pd
atom 2.1697270343856636 5.4596733436338472 24.5125833349930957 O
atom 7.3589901931674628 8.2833418928059466 28.1520128196551269 O
atom 8.7178913540044594 5.9928663572711729 27.1429555040056911 O
atom 10.1566290065546543 7.7501649028011066 28.1519971126422561 O
atom 10.3596741145344975 6.8715006382169115 26.3322833637433291 Pd
atom 5.7172110978329993 4.5809933118609623 28.9626851817224207 Pd
atom 0.3249272539536447 5.4596708772768103 27.1429839644180930 O
atom 9.2037887532913736 8.2833419291614447 25.5216191026349684 O
atom 10.5626804899869633 5.9928790036270998 24.5125459312973533 O
atom 0.8107429055521735 7.7501756991566104 25.5215898271715460 O
atom 1.0747524734432075 2.2904785655052335 31.5930920222607483 Pd
atom 2.2306354236373336 0.8786356445612178 32.4037499509963780 O
atom 11.1095037882802412 3.7023123064459948 30.7823940569600794 O
atom 1.2778005068553095 1.4118155109211212 29.7733819740031151 O
atom 2.7165287816164487 3.1691178264493178 30.7824199736944450 O
atom 2.9195538420165055 2.2904822718627673 28.9626908699532990 Pd
atom 9.4677522870631350 9.1619856655049379 31.5930861873851612 Pd
atom 4.0754319868340056 0.8786377309164422 29.7733549189542828 O
atom 10.6236889026165944 1.4118044745667049 32.4037864228944557 O
atom 1.0747324682580177 6.8715036255026174 31.5930794393684309 Pd
atom 0.1218786263067606 4.5809937018614360 28.9626898190730060 Pd
atom 2.2306631908215144 5.4596708645643250 32.4037733277801934 O
atom 11.1095309303724452 8.2833481264497539 30.7824128913591437 O
atom 1.2777575023769734 5.9928679409152350 29.7733549708197316 O
atom 2.7164861450055962 7.7501633864440196 30.7823901993774527 O
atom 9.4677545495787285 4.5809927855052166 31.5930866075958008 Pd
atom 4.0754622722851144 5.4596702009200149 29.7733792679697018 O
atom 10.6236229929608186 5.9928778345583646 32.4037405461568682 O
atom 8.5148922691725062 2.2904791418619821 28.9626964799912869 Pd
atom 3.8724095348920233 9.1619847855047301 31.5930799868928176 Pd
atom 9.6707793352613773 0.8786322909183746 29.7733579793590266 O
atom 5.0283352171523985 1.4118133245642464 32.4037772813740332 O
atom 6.6700943423435408 2.2904810555066519 31.5930901648111373 Pd
atom 7.8259774436104061 0.8786325345611156 32.4037568471780091 O
atom 5.5141599263218133 3.7023152264445858 30.7823930264659253 O
atom 6.8731474320556698 1.4118049809226845 29.7733865086449896 O
atom 8.3118864121905389 3.1691080464527164 30.7824294636537346 O
atom 3.8724110215578098 4.5809923355043178 31.5930831852426905 Pd
atom 9.6708032114239018 5.4596714709210472 29.7733782485788723 O
atom 5.0282923591918021 5.9928644845583712 32.4037504175914677 O
atom 6.6700751197218464 6.8714987655041107 31.5930782773291057 Pd
atom 7.8260034309918769 5.4596690045640095 32.4037788780038625 O
atom 5.5141897584787110 8.2833400564486439 30.7824140162207414 O
atom 6.8730814951743007 5.9928771309142990 29.7733408448831227 O
atom 8.3118190825904108 7.7501738264438114 30.7823847407573155 O
