#===============================================================================
# Created using the Atomic Simulation Environment (ASE)

# Mon Mar 23 14:01:16 2026

#=======================================================
lattice_vector 9.1619925200004406 0.0000000000000000 0.0000000000000000 
lattice_vector -0.0000056800004464 9.1619939599986804 0.0000000000000000 
lattice_vector 0.0000000000000000 0.0000000000000000 39.6384946299999967 
atom 2.2905060700041426 2.2904851200025718 15.0000057299999980 Pd
atom -0.0000021199998853 9.1619921499997847 19.8192454299999987 Pd
atom 3.7023249276418824 0.8786424876328058 15.0000000000000000 O
atom 0.8786307323692488 3.7023185723548306 15.0000021700000019 O
atom 2.2905054800032838 2.2904878900023888 18.2128315299999990 Pd
atom -0.0000021899999070 9.1619922199997639 16.6064176699999990 Pd
atom 3.7023239176415266 0.8786436376324930 18.2128335699999973 O
atom 0.8786290223689234 3.7023196223543002 18.2128346800000003 O
atom 1.4118861923721027 1.4118113176512423 16.6064176099999976 O
atom 3.1691852176506181 3.1691123523722737 16.6064166899999996 O
atom 2.2904815299952155 6.8715101799951874 15.0000055799999998 Pd
atom 3.7023601476298058 5.4596777076439436 15.0000018599999976 O
atom 0.8786628323569862 8.2833543923650037 15.0000006699999986 O
atom 2.2904825399961268 6.8715072399954993 18.2128315000000001 Pd
atom 0.0000008399990453 4.5809993400004814 16.6064180499999985 Pd
atom 3.7023617576303010 5.4596761076444444 18.2128347799999979 O
atom 0.8786640823573487 8.2833532223653883 18.2128328999999987 O
atom 1.4118049523482039 5.9928846776262814 16.6064165599999995 O
atom 3.1691023976288393 7.7501788723468223 16.6064173799999999 O
atom 6.8715056500044742 2.2904847600036007 15.0000057399999989 Pd
atom 4.5809862800005865 9.1619913399973480 19.8192454600000012 Pd
atom 8.2833299276434325 0.8786381976355150 15.0000005699999974 O
atom 5.4596230123689775 3.7023201523535967 15.0000018399999995 O
atom 6.8715047700035905 2.2904876100033285 18.2128316499999983 Pd
atom 4.5809862700005732 9.1619913799973443 16.6064176299999993 Pd
atom 8.2833287776430673 0.8786393776351586 18.2128329999999998 O
atom 5.4596212623685618 3.7023214923530543 18.2128348299999985 O
atom 5.9928782723724563 1.4118108876499467 16.6064175399999989 O
atom 7.7501876576502315 3.1691143123741887 16.6064167400000002 O
atom 6.8714802499960799 6.8715080999959479 15.0000058600000017 Pd
atom 8.2833601776301293 5.4596773776451117 15.0000021199999978 O
atom 5.4596554223594280 8.2833472223638633 15.0000000499999970 O
atom 6.8714812699969414 6.8715053199962659 18.2128316199999993 Pd
atom 4.5809904299993924 4.5809989299984153 16.6064178799999986 Pd
atom 8.2833617676306037 5.4596758476456051 18.2128347799999979 O
atom 5.4596568023597065 8.2833463223642916 18.2128335499999991 O
atom 5.9927971323489313 5.9928830376250177 16.6064166799999988 O
atom 7.7501059176286811 7.7501800923490736 16.6064174499999986 O
atom 2.2905060700041426 2.2904851200025718 21.4256655299999998 Pd
atom 3.7023249276418824 0.8786424876328058 21.4256598000000018 O
atom 0.8786307323692488 3.7023185723548306 21.4256619700000002 O
atom 1.4118717623689716 1.4118214176467696 19.8192490899999996 O
atom 3.1691695376469786 3.1691240923674124 19.8192503799999997 O
atom 2.2905054800032838 2.2904878900023888 24.6384913300000008 Pd
atom -0.0000021899999070 9.1619922199997639 23.0320774700000008 Pd
atom 3.7023239176415266 0.8786436376324930 24.6384933700000062 O
atom 0.8786290223689234 3.7023196223543002 24.6384944800000056 O
atom 1.4118861923721027 1.4118113176512423 23.0320774100000030 O
atom 3.1691852176506181 3.1691123523722737 23.0320764900000015 O
atom 2.2904815299952155 6.8715101799951874 21.4256653800000016 Pd
atom 0.0000010199990515 4.5809993200005383 19.8192486400000014 Pd
atom 3.7023601476298058 5.4596777076439436 21.4256616599999994 O
atom 0.8786628323569862 8.2833543923650037 21.4256604700000004 O
atom 1.4118201123515606 5.9928738476309800 19.8192503400000000 O
atom 3.1691165976316968 7.7501696523512242 19.8192491500000010 O
atom 2.2904825399961268 6.8715072399954993 24.6384912999999983 Pd
atom 0.0000008399990453 4.5809993400004814 23.0320778500000003 Pd
atom 3.7023617576303010 5.4596761076444444 24.6384945799999997 O
atom 0.8786640823573487 8.2833532223653883 24.6384927000000005 O
atom 1.4118049523482039 5.9928846776262814 23.0320763600000014 O
atom 3.1691023976288393 7.7501788723468223 23.0320771800000017 O
atom 6.8715056500044742 2.2904847600036007 21.4256655400000007 Pd
atom 8.2833299276434325 0.8786381976355150 21.4256603699999992 O
atom 5.4596230123689775 3.7023201523535967 21.4256616400000013 O
atom 5.9928640223695799 1.4118201676455298 19.8192492700000003 O
atom 7.7501724076468053 3.1691253623694617 19.8192504600000028 O
atom 6.8715047700035905 2.2904876100033285 24.6384914500000036 Pd
atom 4.5809862700005732 9.1619913799973443 23.0320774300000011 Pd
atom 8.2833287776430673 0.8786393776351586 24.6384927999999945 O
atom 5.4596212623685618 3.7023214923530543 24.6384946299999967 O
atom 5.9928782723724563 1.4118108876499467 23.0320773399999972 O
atom 7.7501876576502315 3.1691143123741887 23.0320765400000020 O
atom 6.8714802499960799 6.8715080999959479 21.4256656599999999 Pd
atom 4.5809902699994050 4.5809988899983649 19.8192485599999983 Pd
atom 8.2833601776301293 5.4596773776451117 21.4256619199999996 O
atom 5.4596554223594280 8.2833472223638633 21.4256598500000024 O
atom 5.9928125723525625 5.9928713276298016 19.8192505499999996 O
atom 7.7501200976317381 7.7501702323534687 19.8192494100000012 O
atom 6.8714812699969414 6.8715053199962659 24.6384914200000011 Pd
atom 4.5809904299993924 4.5809989299984153 23.0320776799999969 Pd
atom 8.2833617676306037 5.4596758476456051 24.6384945799999997 O
atom 5.4596568023597065 8.2833463223642916 24.6384933500000045 O
atom 5.9927971323489313 5.9928830376250177 23.0320764800000006 O
atom 7.7501059176286811 7.7501800923490736 23.0320772500000004 O
