#===============================================================================
# Created using the Atomic Simulation Environment (ASE)

# Mon Mar 23 14:01:22 2026

#=======================================================
lattice_vector 11.2383934762033828 0.0000000000000000 0.0000000000000000 
lattice_vector 3.7416502063603971 10.5972441125269068 0.0000000000000000 
lattice_vector 0.0000000000000000 0.0000000000000000 36.6080257147128521 
atom 8.4355181438485651 5.9674960480428769 17.0206533266278726 Pt
atom 7.2753254139380239 7.6075166037332966 17.0206500042996502 O
atom 9.5957086741799476 4.3274717795906783 17.0206474965000609 O
atom 8.6569366469715341 6.1241375917565266 15.0000068208649786 O
atom 10.0849214745496774 7.1343291581707629 16.7476177378278344 O
atom 5.6259238666167803 3.9799153154413074 15.8738141157190142 Pt
atom 6.7861195511369452 4.8006558871617973 17.2936889095151685 O
atom 7.4967436489985255 9.2785354222381482 15.8738071596760442 Pt
atom 8.6569405917836093 10.0992779927640850 17.2936855325288086 O
atom 6.5646934306748204 0.6688698806043322 17.0206501770430769 Pt
atom 5.6259210016507728 7.9550690190092705 18.1674909623870704 Pt
atom 5.4045067988851283 2.3088967337476887 17.0206584307724107 O
atom 11.4665394773137450 9.6260932645251955 17.0206530387074046 O
atom 6.7861041255472188 0.8255125959514117 15.0000000000000000 O
atom 8.2140940677546315 1.8357069837150251 16.7476155716008783 O
atom 11.2451139255133477 3.9799135396679226 15.8738046676664162 Pt
atom 12.4053039539144159 4.8006649213636878 17.2936837571640396 O
atom 2.8163209832150784 5.9674892746252644 17.0206490383612312 Pt
atom 9.3742879078257513 2.6564512050340987 18.1674897228724070 Pt
atom 12.8945240324792518 7.6075148115126634 17.0206483482373478 O
atom 3.9765146008117771 4.3274669823024103 17.0206525491598022 O
atom 3.0377435231434093 6.1241176068978564 15.0000004779870402 O
atom 4.4657348840454159 7.1343134573422313 16.7476167360794683 O
atom 0.9455038387131879 0.6688749316252358 17.0206578105363810 Pt
atom 11.2451190463146364 7.9550716886051189 18.1674935189674649 Pt
atom 11.0237030979646438 2.3088980818593341 17.0206564545374768 O
atom 5.8473439586052098 9.6260933172987801 17.0206574492680538 O
atom 1.1669237269959685 0.8255020983069350 15.0000067682126108 O
atom 2.5949133281600543 1.8356963314239045 16.7476231880904898 O
atom 13.1159449481549402 9.2785382460760157 15.8738109896328972 Pt
atom 14.2761319668850621 10.0992937176507667 17.2936906344419121 O
atom 4.6938693072154898 3.3205644084303660 21.6080206105683139 Pt
atom 3.7551004425910373 2.6564501210663729 18.1674988447363823 Pt
atom 3.5336765773049486 4.9605849641207866 21.6080172882400845 O
atom 5.8540598375468686 1.6805401399781716 21.6080147804405023 O
atom 4.9152878103384587 3.4772059521440162 19.5873741048054271 O
atom 6.3432726379166029 4.4873975185582555 21.3349850217682793 O
atom 6.5646959061743058 4.6440311039360047 19.3143373017645708 Pt
atom 1.8842750299837050 1.3329836758287985 20.4611813996594556 Pt
atom 5.4045015140509589 6.2840512459535036 19.3143335158381220 O
atom 7.7248824897187989 3.0040045284791401 19.3143339892155161 O
atom 8.2141109359753930 5.8108518065085573 19.0413040677532841 O
atom 8.4355193568907350 9.9426476907475330 19.3143349254840295 Pt
atom 3.7550948123654546 6.6316037826256382 20.4611744436164855 Pt
atom 3.5336831619409392 0.9854311115794033 19.3143415801510265 O
atom 9.5957142147200951 8.3026268387956783 19.3143382010075761 O
atom 6.3432797529486340 0.5122251157455041 19.0412976432588117 O
atom 6.5646948004021377 8.6191823535187311 21.6080174609835183 Pt
atom 5.4045081686124501 10.2592092066620868 21.6080257147128521 O
atom 7.7248906406806706 6.9791616249126864 21.6080203226478460 O
atom 6.7861054952745459 8.7758250688658084 19.5873672839404414 O
atom 8.2140954374819639 9.7860194566294219 21.3349828555413197 O
atom 12.1838892993083370 4.6440225316251240 19.3143322493960561 Pt
atom 7.5034650888802830 1.3329819000554102 20.4611719516068611 Pt
atom 11.0236989693579641 6.2840479985401361 19.3143331812145327 O
atom 2.1056908366436575 3.0040014433638129 19.3143353742131367 O
atom 2.5948977379189446 5.8108609457285434 19.0412986933791508 O
atom 10.3130656227853859 3.3205576350127566 21.6080163223016726 Pt
atom 9.1528751958461871 4.9605831719001534 21.6080156321777928 O
atom 11.4732592403820846 1.6805353426899023 21.6080198331002435 O
atom 10.5344881627137177 3.4771859672853460 19.5873677619274851 O
atom 11.9624795236157286 4.4873818177297231 21.3349840200199097 O
atom 12.1838986846439017 8.6191874045396322 21.6080250944768224 Pt
atom 11.0237044676919744 10.2592105547737305 21.6080237384779181 O
atom 13.3440885981755208 6.9791616776862684 21.6080247332084987 O
atom 12.4053185729266726 8.7758145712213320 19.5873740521530557 O
atom 13.8333081740907726 9.7860088043383016 21.3349904720309382 O
atom 14.0547238826944838 9.9426514113458548 19.3143446046004570 Pt
atom 9.3742961115218701 6.6316066064635049 20.4611782735733456 Pt
atom 9.1528799701618464 0.9854316765454247 19.3143399207093474 O
atom 3.9765217101650823 8.3026272742205283 19.3143399475005566 O
atom 0.7240792212104361 0.5122447052106659 19.0413054917571962 O
