#===============================================================================
# Created using the Atomic Simulation Environment (ASE)

# Mon Mar 23 14:01:20 2026

#=======================================================
lattice_vector 11.1064369649213504 0.0000000000000000 0.0000000000000000 
lattice_vector 0.0000051885324174 9.2039351799990605 0.0000000000000000 
lattice_vector 0.0000000000000000 0.0000000000000000 44.9474834164489891 
atom 3.6547337309176022 4.6019491766485876 15.9504634653439474 Pt
atom 5.0119073144624515 5.7860780096323410 15.0000000000000000 O
atom 7.7885050514117014 5.7188429621348726 15.0000039923222666 O
atom 6.4313052157334756 2.3009805791605538 15.9504569210203684 Pt
atom 5.0118974220516828 1.1840791996334576 15.0000075344111501 O
atom 7.7885179246225054 1.1168672521272875 15.0000227837923781 O
atom 0.8780971053700299 6.9029447141556242 15.9504684803375483 Pt
atom 10.5651159259584730 5.7860656146333875 15.0000092995971812 O
atom 2.2353016519225428 5.7188336271264530 15.0000252505827305 O
atom 10.5651133300374056 1.1841271746342446 15.0000072924848968 O
atom 2.2352883383124222 1.1168753671344642 15.0000020473404909 O
atom 9.2079543202174374 9.2039169116489727 15.9504597535095449 Pt
atom 9.2079197048471393 4.6019597516559028 15.9504739806695994 Pt
atom 3.6547007044654465 9.2039263066555321 15.9504781135488471 Pt
atom 2.7054704321950331 6.9029472274734109 18.5597920050778704 Pt
atom 2.2975208890277790 8.0198099736721122 16.9009491540431895 O
atom 1.2860582298134000 5.7860757679552366 17.6093028178639877 O
atom 4.0626353693186159 5.7188338504654208 17.6092977948989926 O
atom 1.3482659400766246 8.0870594845029729 19.5102331334912122 O
atom 7.3094448115385351 4.6019471433012287 21.1690748859326021 Pt
atom 2.7054649995098212 2.3009834374792346 18.5597684101745699 Pt
atom 2.2975163311993283 3.4178752636733960 16.9009478494379906 O
atom 1.2860376486681571 1.1840996679581668 17.6093168977982764 O
atom 4.0626521446777391 1.1168686204587694 17.6093058937305713 O
atom 1.3482742967382531 3.4850847944975216 19.5102475676250791 O
atom 11.0352719356360005 0.0000114649807780 18.5597907155268445 Pt
atom 6.4313196202392477 6.9029564391532467 15.9504748309723396 Pt
atom 9.6780950785840911 8.0198333219979610 19.5102570549323175 O
atom 8.6666183950833844 5.7860759762849820 20.2186114205886582 O
atom 0.3367791671112842 5.7188409287875119 20.2186154129109212 O
atom 5.0741345996406553 8.0870696461721074 16.9009425253213159 O
atom 11.0353009880224313 4.6019674649757993 18.5597746462986493 Pt
atom 10.0860162963544102 2.3009785458131944 21.1690683416090266 Pt
atom 9.6780997765617514 3.4178767919979309 19.5102487799328941 O
atom 8.6666085026726165 1.1840771662860992 20.2186189549998083 O
atom 0.3367920403220889 1.1168652187799286 20.2186342043810363 O
atom 5.0741368904595339 3.4850839861664324 16.9009671774073666 O
atom 5.4820798773108343 0.0000099499766328 18.5597728022168447 Pt
atom 4.5328081859909641 6.9029426808082652 21.1690799009262030 Pt
atom 4.1249097774896706 8.0198172369924201 19.5102363260953950 O
atom 3.1133900416580533 5.7860635812860286 20.2186207201858394 O
atom 5.8900127325434752 5.7188315937790941 20.2186366711713852 O
atom 10.6273689705345848 8.0870640111647720 16.9009569321714572 O
atom 5.4820503609672766 4.6019763699813785 18.5597936479688812 Pt
atom 0.8781078282366377 2.3009822141492653 15.9504841141364562 Pt
atom 4.1248735250016555 3.4178475969978934 19.5102605752716727 O
atom 3.1133874457369872 1.1841251412868858 20.2186187130735533 O
atom 5.8899994189333569 1.1168733337871055 20.2186134679291456 O
atom 10.6273476375574365 3.4850951011735449 16.9009417501241899 O
atom 1.7562284359170188 9.2039148783016138 21.1690711740981996 Pt
atom 8.2586898106493773 6.9029522624759219 18.5597776126182126 Pt
atom 7.8507561484897366 8.0198182586698863 16.9009356650369327 O
atom 6.8392454410038024 5.7860919029605453 17.6093219160159720 O
atom 9.6158709911607172 5.7188328754584727 17.6093083224160729 O
atom 6.9014988311759362 8.0870629594970289 19.5102425335177543 O
atom 1.7561938205467198 4.6019577183085438 21.1690854012582577 Pt
atom 8.2586852684674703 2.3009811424720259 18.5598032287833945 Pt
atom 7.8507393762441229 3.4178266986721879 16.9009473216750727 O
atom 6.8392605778807658 1.1841332629587520 17.6093072094246779 O
atom 9.6158465970345386 1.1168625954671108 17.6092984095116378 O
atom 6.9014673371608035 3.4850841095058960 19.5102420244732073 O
atom 7.3094117850863807 9.2039242733081732 21.1690895341375054 Pt
atom 6.3601815128159656 6.9029451941260520 23.7784034256665251 Pt
atom 5.9522319696487109 8.0198079403247533 22.1195605746318478 O
atom 4.9407693104343338 5.7860737346078777 22.8279142384526423 O
atom 7.7173464499395479 5.7188318171180619 22.8279092154876544 O
atom 5.0029770206975543 8.0870574511556139 24.7288445540798634 O
atom 10.9641558921594680 4.6019451099538689 26.3876863065212603 Pt
atom 6.3601760801307536 2.3009814041318757 23.7783798307632210 Pt
atom 5.9522274118202603 3.4178732303260375 22.1195592700266488 O
atom 4.9407487292890933 1.1840976346108079 22.8279283183869310 O
atom 7.7173632252986746 1.1168665871114103 22.8279173143192260 O
atom 5.0029853773591855 3.4850827611501631 24.7288589882137337 O
atom 3.5835460513355821 0.0000094316334191 23.7784021361155027 Pt
atom 10.0860307008601797 6.9029544058058878 21.1690862515609943 Pt
atom 2.2263691942836745 8.0198312886506020 24.7288684755209758 O
atom 1.2148925107829673 5.7860739429376231 25.4372228411773129 O
atom 3.9914902477322136 5.7188388954401539 25.4372268334995795 O
atom 8.7288456802615872 8.0870676128247467 22.1195539459099706 O
atom 3.5835751037220160 4.6019654316284395 23.7783860668873039 Pt
atom 2.6342904120539874 2.3009765124658359 26.3876797621976777 Pt
atom 2.2263738922613321 3.4178747586505720 24.7288602005215452 O
atom 1.2148826183721952 1.1840751329387398 25.4372303755884630 O
atom 3.9915031209430207 1.1168631854325695 25.4372456249696910 O
atom 8.7288479710804658 3.4850819528190740 22.1195785979960213 O
atom 9.1367909579317654 0.0000079166292738 23.7783842228055065 Pt
atom 8.1875192666118934 6.9029406474609054 26.3876913215148647 Pt
atom 7.7796208581106034 8.0198152036450612 24.7288477466840533 O
atom 6.7681011222789875 5.7860615479386697 25.4372321407744941 O
atom 9.5447238131644081 5.7188295604317352 25.4372480917600434 O
atom 3.1756430862341674 8.0870619778174131 22.1195683527601155 O
atom 9.1367614415882077 4.6019743366340196 23.7784050685575323 Pt
atom 4.5328189088575694 2.3009801808019068 21.1690955347251162 Pt
atom 7.7795846056225830 3.4178455636505345 24.7288719958603309 O
atom 6.7680985263579192 1.1841231079395267 25.4372301336622080 O
atom 9.5447104995542880 1.1168713004397464 25.4372248885178038 O
atom 3.1756217532570203 3.4850930678261864 22.1195531707128481 O
atom 5.4109395165379510 9.2039128449542549 26.3876825946868578 Pt
atom 0.8069639263489589 6.9029502291285629 23.7783890332068708 Pt
atom 0.3990302641893171 8.0198162253225274 22.1195470856255874 O
atom 10.4939565216247335 5.7860898696131864 22.8279333366046302 O
atom 2.1641451068602975 5.7188308421111138 22.8279197430047276 O
atom 10.5562099117968682 8.0870609261496682 24.7288539541064090 O
atom 5.4109049011676573 4.6019556849611849 26.3876968218469159 Pt
atom 0.8069593841670519 2.3009791091246674 23.7784146493720527 Pt
atom 0.3990134919437055 3.4178246653248290 22.1195587422637310 O
atom 10.4939716585016978 1.1841312296113931 22.8279186300133361 O
atom 2.1641207127341193 1.1168605621197516 22.8279098301002925 O
atom 10.5561784177817373 3.4850820761585379 24.7288534450618656 O
atom 10.9641228657073100 9.2039222399608143 26.3877009547261565 Pt
atom 10.0148925934368940 6.9029431607786931 28.9970148462551833 Pt
atom 9.6069430502696438 8.0198059069773944 27.3381719952205060 O
atom 8.5954803910552648 5.7860717012605187 28.0465256590412970 O
atom 0.2656205656391268 5.7188297837707038 28.0465206360763055 O
atom 8.6576881013184863 8.0870554178082550 29.9474559746685216 O
atom 10.0148871607516856 2.3009793707845168 28.9969912513518828 Pt
atom 9.6069384924411931 3.4178711969786786 27.3381706906152999 O
atom 8.5954598099100199 1.1840956012634489 28.0465397389755857 O
atom 0.2656373409982533 1.1168645537640516 28.0465287349078878 O
atom 8.6576964579801174 3.4850807278028038 29.9474704088023884 O
atom 7.2382571319565141 0.0000073982860601 28.9970135567041609 Pt
atom 2.6343048165597649 6.9029523724585280 26.3876976721496490 Pt
atom 5.8810802749046038 8.0198292553032431 29.9474798961096305 O
atom 1.2771197959611704 8.0870655794773878 27.3381653664986253 O
atom 7.2382861843429405 4.6019633982810806 28.9969974874759586 Pt
atom 5.8810849728822614 3.4178727253032135 29.9474716211102070 O
atom 1.2771220867800470 3.4850799194717146 27.3381900185846796 O
atom 1.6850650736313455 0.0000058832819149 28.9969956433941611 Pt
atom 0.3278949738101869 8.0198131702977005 29.9474591672727044 O
atom 6.8303541668550967 8.0870599444700542 27.3381797733487701 O
atom 1.6850355572877878 4.6019723032866597 28.9970164891461870 Pt
atom 8.1875299894785005 2.3009781474545474 26.3877069553137673 Pt
atom 0.3278587213221672 3.4178435303031756 29.9474834164489891 O
atom 6.8303328338779501 3.4850910344788271 27.3381645913014992 O
atom 4.4616750069698936 6.9029481957812040 28.9970004537955219 Pt
atom 4.0537413448102466 8.0198141919751684 27.3381585062142456 O
atom 3.0422306373243160 5.7860878362658275 28.0465447571932884 O
atom 5.8188561874812290 5.7188288087637549 28.0465311635933823 O
atom 3.1044840274964516 8.0870588928023093 29.9474653746950636 O
atom 4.4616704647879839 2.3009770757773085 28.9970260699607039 Pt
atom 4.0537245725646374 3.4178226319774700 27.3381701628523892 O
atom 3.0422457742012767 1.1841291962640341 28.0465300506019908 O
atom 5.8188317933550540 1.1168585287723927 28.0465212506889507 O
atom 3.1044525334813193 3.4850800428111786 29.9474648656505167 O
