#===============================================================================
# Created using the Atomic Simulation Environment (ASE)

# Mon Mar 23 14:01:19 2026

#=======================================================
lattice_vector 9.2039351800005225 0.0000000000000000 0.0000000000000000 
lattice_vector -0.0000000269221396 6.3710923900000003 0.0000000000000000 
lattice_vector 0.0000000000000000 0.0000000000000000 58.5270008776482626 
atom 4.6019902040997414 0.0000022350000342 17.8917645588184939 Pt
atom 2.3009813763512770 1.5927705025000043 15.6174490038267955 Pt
atom 1.1841026901248413 0.0000021812865244 15.0000226000054155 O
atom 3.4178605791148624 6.3710907637134842 16.2348701376479987 O
atom 1.1168689344182283 1.5927705012134774 17.2743563126507098 O
atom 6.9029572363513569 1.5927490575000132 15.6174484038240102 Pt
atom 5.7860591931993532 6.3710919762865128 15.0000118800091400 O
atom 8.0198594160407293 0.0000003587135193 16.2348804376374822 O
atom 5.7188545944218774 1.5927934962134969 17.2743664526446210 O
atom 9.2039284006415105 3.1855475000000015 17.8917722088283924 Pt
atom 2.3009845228855927 4.7783227025000068 15.6174353238257311 Pt
atom 1.1841187566561631 3.1855450612865415 15.0000000000000000 O
atom 3.4178456825838635 3.1855478537134680 16.2348936976530211 O
atom 1.1168745909536579 4.7783170112134830 17.2743459226487985 O
atom 6.9029556428913192 4.7783425675000109 15.6174516138245423 Pt
atom 5.7861103166625849 3.1855464762865671 15.0000182999919254 O
atom 8.0198043225763929 3.1855459787134590 16.2348707376560348 O
atom 5.7188534409618113 4.7783000162134952 17.2743693026450060 O
atom 0.0000130471900084 6.3710861900000229 17.8918021388217099 Pt
atom 2.3009926884032805 1.5927877825000214 20.1661288438232447 Pt
atom 1.1841301721780677 0.0000002912865591 19.5487060099964154 O
atom 3.4178649480862151 0.0000039537134949 20.7835416576467935 O
atom 3.4851053003367833 1.5927545437865482 18.5092227749992730 O
atom 1.1168811964705061 1.5927548512134957 21.8230368626468341 O
atom 4.6019964382069460 0.0000022350000506 26.9891336188169078 Pt
atom 6.9029564783997897 1.5927668275000169 20.1661176338245234 Pt
atom 5.7860648552564804 6.3710904862865227 19.5487068700074929 O
atom 8.0198410480941575 0.0000051687135041 20.7835644676439273 O
atom 8.0870705303332464 1.5927722887865450 18.5092115550000713 O
atom 5.7188558864705152 1.5927729562135036 21.8230361726444428 O
atom 9.2039300161669324 0.0000008200000088 22.4404886588281087 Pt
atom 2.3009876104584803 1.5927705025000207 24.7148180638252128 Pt
atom 1.1841089242320446 0.0000021812865408 24.0973916600038294 O
atom 3.4178668132220658 6.3710907637135001 25.3322391976464161 O
atom 3.4851003223908119 1.5927681637865474 23.0579086150012103 O
atom 1.1168751685254319 1.5927705012134941 26.3717253726491236 O
atom 4.6019740161562668 0.0000028350000214 22.4404577688242028 Pt
atom 6.9029634704585607 1.5927490575000296 24.7148174638224276 Pt
atom 5.7860654273065570 6.3710919762865288 24.0973809400075538 O
atom 8.0198656501479331 0.0000003587135357 25.3322494976358996 O
atom 8.0870760323904101 1.5927924287865560 23.0579067249984746 O
atom 5.7188608285290803 1.5927934962135135 26.3717355126430384 O
atom 9.2039346347487143 3.1855475000000175 26.9891412688268097 Pt
atom 2.3009962049437025 4.7783091825000223 20.1661331938220556 Pt
atom 1.1841218787042116 3.1855504312865501 19.5486680599992084 O
atom 3.4178761046340518 3.1855465237135054 20.7835680876430331 O
atom 3.4851065268760579 4.7783404237865490 18.5092239249988566 O
atom 1.1168776730091374 4.7783376112134910 21.8230360926480174 O
atom 4.6019619806541368 3.1855461550000022 17.8918104688279982 Pt
atom 6.9029587049432868 4.7783296275000193 20.1661312538237709 Pt
atom 5.7860915187184414 3.1855509862865521 19.5487095399985158 O
atom 8.0198145446339275 3.1855448787134746 20.7835669376528500 O
atom 8.0870647868748176 4.7783152687865389 18.5092193950019990 O
atom 5.7188465830116586 4.7783144262134920 21.8230427326475720 O
atom 0.0000255726914343 3.1855451100000418 22.4404473588177495 Pt
atom 2.3009907569927965 4.7783227025000237 24.7148043838241485 Pt
atom 1.1841249907633664 3.1855450612865575 24.0973690599984138 O
atom 3.4178519166910672 3.1855478537134845 25.3322627576514350 O
atom 3.4851093789266003 4.7783191937865563 23.0578993049981555 O
atom 1.1168808250608617 4.7783170112134989 26.3717149826472124 O
atom 4.6019827327032843 3.1855383950000298 22.4404817488212665 Pt
atom 6.9029618769985222 4.7783425675000277 24.7148206738229597 Pt
atom 5.7861165507697896 3.1855464762865831 24.0973873599903392 O
atom 8.0198105566835931 3.1855459787134750 25.3322397976544522 O
atom 8.0870796589309819 4.7782985687865596 23.0579114749972476 O
atom 5.7188596750690142 4.7783000162135103 26.3717383626434199 O
atom 0.0000192812972119 6.3710861900000380 26.9891711988201273 Pt
atom 2.3009989225104839 1.5927877825000374 29.2634979038216585 Pt
atom 1.1841364062852715 0.0000002912865755 28.6460750699948328 O
atom 3.4178711821934185 0.0000039537135113 29.8809107176452073 O
atom 3.4851115344439867 1.5927545437865651 27.6065918349976904 O
atom 1.1168874305777099 1.5927548512135119 30.9204059226452515 O
atom 4.6020026723141489 0.0000022350000670 36.0865026788153287 Pt
atom 6.9029627125069926 1.5927668275000333 29.2634866938229443 Pt
atom 5.7860710893636833 6.3710904862865387 28.6460759300059067 O
atom 8.0198472822013631 0.0000051687135205 29.8809335276423447 O
atom 8.0870767644404502 1.5927722887865619 27.6065806149984851 O
atom 5.7188621205777181 1.5927729562135198 30.9204052326428602 O
atom 0.0000010702736137 0.0000008200000252 31.5378577188265261 Pt
atom 2.3009938445656841 1.5927705025000367 33.8121871238236267 Pt
atom 1.1841151583392484 0.0000021812865572 33.1947607200022503 O
atom 3.4178730473292696 6.3710907637135161 34.4296082576448299 O
atom 3.4851065564980157 1.5927681637865638 32.1552776749996241 O
atom 1.1168814026326355 1.5927705012135105 35.4690944326475446 O
atom 4.6019802502634697 0.0000028350000378 31.5378268288226238 Pt
atom 6.9029697045657645 1.5927490575000460 33.8121865238208414 Pt
atom 5.7860716614137608 6.3710919762865457 33.1947500000059748 O
atom 8.0198718842551369 0.0000003587135521 34.4296185576343134 O
atom 8.0870822664976139 1.5927924287865727 32.1552757849968884 O
atom 5.7188670626362832 1.5927934962135297 35.4691045726414558 O
atom 0.0000056888553951 3.1855475000000339 36.0865103288252200 Pt
atom 2.3010024390509063 4.7783091825000392 29.2635022538204730 Pt
atom 1.1841281128114152 3.1855504312865670 28.6460371199976223 O
atom 3.4178823387412551 3.1855465237135223 29.8809371476414469 O
atom 3.4851127609832617 4.7783404237865632 27.6065929849972740 O
atom 1.1168839071163410 4.7783376112135079 30.9204051526464347 O
atom 4.6019682147613405 3.1855461550000190 26.9891795288264156 Pt
atom 6.9029649390504897 4.7783296275000353 29.2635003138221848 Pt
atom 5.7860977528256443 3.1855509862865690 28.6460785999969332 O
atom 8.0198207787411313 3.1855448787134915 29.8809359976512674 O
atom 8.0870710209820231 4.7783152687865558 27.6065884550004128 O
atom 5.7188528171188615 4.7783144262135071 30.9204117926459894 O
atom 0.0000318067986378 3.1855451100000578 31.5378164188161669 Pt
atom 2.3009969911000003 4.7783227025000405 33.8121734438225587 Pt
atom 1.1841312248705702 3.1855450612865739 33.1947381199968277 O
atom 3.4178581507982715 3.1855478537135014 34.4296318176498559 O
atom 3.4851156130338046 4.7783191937865732 32.1552683649965729 O
atom 1.1168870591680653 4.7783170112135158 35.4690840426456333 O
atom 4.6019889668104872 3.1855383950000458 31.5378508088196767 Pt
atom 6.9029681111057251 4.7783425675000419 33.8121897338213770 Pt
atom 5.7861227848769925 3.1855464762865995 33.1947564199887566 O
atom 8.0198167907908005 3.1855459787134919 34.4296088576528660 O
atom 8.0870858930381839 4.7782985687865747 32.1552805349956685 O
atom 5.7188659091762171 4.7783000162135272 35.4691074226418408 O
atom 0.0000255154044155 6.3710861900000548 36.0865402588185447 Pt
atom 2.3010051566176877 1.5927877825000543 38.3608669638200723 Pt
atom 1.1841426403924749 0.0000002912865919 37.7434441299932502 O
atom 3.4178774163006223 0.0000039537135277 38.9782797776436212 O
atom 3.4851177685511900 1.5927545437865811 36.7039608949961078 O
atom 1.1168936646849135 1.5927548512135283 40.0177749826436724 O
atom 6.9029689466141964 1.5927668275000499 38.3608557538213546 Pt
atom 5.7860773234708880 6.3710904862865547 37.7434449900043276 O
atom 8.0198535163085651 0.0000051687135369 38.9783025876407621 O
atom 8.0870829985476540 1.5927722887865778 36.7039496749969061 O
atom 5.7188683546849228 1.5927729562135362 40.0177742926412776 O
atom 0.0000073043808177 0.0000008200000416 40.6352267788249435 Pt
atom 2.3010000786728870 1.5927705025000536 42.9095561838220476 Pt
atom 1.1841213924464515 0.0000021812865736 42.2921297800006641 O
atom 3.4178792814364733 6.3710907637135330 43.5269773176432579 O
atom 3.4851127906052191 1.5927681637865805 41.2526467349980521 O
atom 4.6019864843706726 0.0000028350000542 40.6351958888210447 Pt
atom 6.9029759386729683 1.5927490575000625 42.9095555838192553 Pt
atom 5.7860778955209646 6.3710919762865617 42.2921190600043957 O
atom 8.0198781183623407 0.0000003587135684 43.5269876176327415 O
atom 8.0870885006048177 1.5927924287865889 41.2526448449953165 O
atom 2.3010086731581092 4.7783091825000561 38.3608713138188904 Pt
atom 1.1841343469186185 3.1855504312865826 37.7434061799960432 O
atom 3.4178885728484589 3.1855465237135387 38.9783062076398679 O
atom 3.4851189950904646 4.7783404237865810 36.7039620449956914 O
atom 1.1168901412235444 4.7783376112135247 40.0177742126448521 O
atom 4.6019744488685435 3.1855461550000350 36.0865485888248259 Pt
atom 6.9029711731576935 4.7783296275000504 38.3608693738206057 Pt
atom 5.7861039869328481 3.1855509862865845 37.7434476599953541 O
atom 8.0198270128483351 3.1855448787135074 38.9783050576496777 O
atom 8.0870772550892251 4.7783152687865709 36.7039575149988337 O
atom 5.7188590512260644 4.7783144262135240 40.0177808526444068 O
atom 0.0000380409058414 3.1855451100000747 40.6351854788145914 Pt
atom 2.3010032252072037 4.7783227025000556 42.9095425038209868 Pt
atom 1.1841374589777733 3.1855450612865899 42.2921071799952415 O
atom 3.4178643849054744 3.1855478537135178 43.5270008776482626 O
atom 3.4851218471410079 4.7783191937865901 41.2526374249949868 O
atom 4.6019952009176910 3.1855383950000618 40.6352198688180977 Pt
atom 6.9029743452129289 4.7783425675000588 42.9095587938197980 Pt
atom 5.7861290189841963 3.1855464762866159 42.2921254799871775 O
atom 8.0198230248980025 3.1855459787135079 43.5269779176512799 O
atom 8.0870921271453895 4.7782985687865915 41.2526495949940823 O
