#===============================================================================
# Created using the Atomic Simulation Environment (ASE)

# Mon Mar 23 14:01:20 2026

#=======================================================
lattice_vector 11.1938930464403850 0.0000000000000000 0.0000000000000000 
lattice_vector -0.0000051258591119 9.0973690599991084 0.0000000000000000 
lattice_vector 0.0000000000000000 0.0000000000000000 39.2056660725613995 
atom 7.2523057158824136 0.0000187462713876 18.2932062941164091 Pt
atom 2.6407690559209533 2.2743444297099793 15.6739741049126273 Pt
atom 0.8158996598779230 2.8917569806748435 15.0000186303720184 O
atom 1.6671392847917659 0.6174386237309126 16.3478944404377309 O
atom 3.6143602449772403 3.9312521856676983 15.0000000000000000 O
atom 11.0361653528663428 9.0973492047035656 15.6739725606388305 Pt
atom 10.0507854940849786 2.2743342412722360 18.2932008110682780 Pt
atom 10.0625884603777322 1.6569227187390130 16.3478939401741421 O
atom 8.2259185946327822 2.8917808122427973 17.6192705716549085 O
atom 11.0243899521569908 3.9312525172412291 17.6192650262102539 O
atom 7.2523247071250880 4.5487052662756433 18.2931999117919375 Pt
atom 2.6407633961025749 6.8230336497049331 15.6739552325585656 Pt
atom 0.8158949282734285 7.4404545206727475 15.0000133451173525 O
atom 1.6671511297298920 5.1661244637357635 16.3479010318533575 O
atom 3.6143741086447911 8.4799406956733208 15.0000076629226982 O
atom 11.0361841304047772 4.5486733547064198 15.6739620663812538 Pt
atom 10.0507696310812094 6.8230340712656465 18.2931884055558385 Pt
atom 10.0625888380672297 6.2055967887393377 16.3478937167895246 O
atom 8.2258956284795346 7.4404658422383401 17.6192788450938664 O
atom 11.0243975791595510 8.4799518572471602 17.6192829534889022 O
atom 5.4392424573934770 9.0973568547066375 15.6739550741066118 Pt
atom 4.4538307583610868 2.2743498012701626 18.2932018256359150 Pt
atom 4.4656252049824587 1.6568839087381566 16.3479129899471225 O
atom 2.6289671295602912 2.8917844322409394 17.6192681060293701 O
atom 5.4274626594330657 3.9312524372483670 17.6192741657788723 O
atom 1.6553780496740420 0.0000270762755069 18.2932007328632729 Pt
atom 8.2377143859797997 2.2743468397087638 15.6739696403329312 Pt
atom 6.4128579672932151 2.8917822606752188 15.0000040637654486 O
atom 7.2641007297034639 0.6174352437365009 16.3479017829277957 O
atom 9.2113161842080906 3.9312580556722403 15.0000097549572011 O
atom 5.4392196221951323 4.5486629447029614 15.6739697483134606 Pt
atom 4.4656195897816868 6.2055849087359896 16.3479085717323116 O
atom 2.6289877745505383 7.4404791022440531 17.6192536587351150 O
atom 5.4274483430748175 8.4799313272413119 17.6192572477983624 O
atom 1.6553565700876756 4.5486983562705463 18.2932043894737646 Pt
atom 8.2377191427292633 6.8230362597124614 15.6739803112693252 Pt
atom 6.4128618723723410 7.4404551206759395 15.0000009243521362 O
atom 7.2640789965420813 5.1661273237293495 16.3478947421651988 O
atom 9.2112972179835619 8.4799536856660271 15.0000035839955999 O
atom 10.8784631502357154 0.0000207894084682 23.5316984916095038 Pt
atom 6.2669264902742583 2.2743464728470602 20.9124663024057220 Pt
atom 6.2786948687707866 1.6569228803044813 18.9671605576228757 O
atom 4.4420570942312256 2.8917590238119244 20.2385108278651096 O
atom 5.2932967191450659 0.6174406668679931 21.5863866379308220 O
atom 7.2405176793305452 3.9312542288047783 20.2384921974930911 O
atom 3.4684297407792601 9.0973512478406455 20.9124647581319216 Pt
atom 2.4830498819978963 2.2743362844093173 23.5316930085613727 Pt
atom 2.4948528482906482 1.6569247618760936 21.5863861376672332 O
atom 0.6581829825456968 2.8917828553798772 22.8577627691480032 O
atom 9.0771765653569325 0.6174284253054144 18.9671537864143858 O
atom 3.4566543400699095 3.9312545603783104 22.8577572237033451 O
atom 10.8784821414783917 4.5487073094127233 23.5316921092850286 Pt
atom 6.2669208304558799 6.8230356928420131 20.9124474300516532 Pt
atom 6.2787134151408575 6.2056085303074395 18.9671482441023969 O
atom 4.4420523626267334 7.4404565638098275 20.2385055426104437 O
atom 5.2933085640831967 5.1661265068728426 21.5863932293464487 O
atom 7.2405315429980908 8.4799427388104025 20.2384998604157857 O
atom 3.4684485183176972 4.5486753978435006 20.9124542638743414 Pt
atom 2.4830340189941289 6.8230361144027265 23.5316806030489296 Pt
atom 2.4948532259801501 6.2055988318764177 21.5863859142826193 O
atom 0.6581600163924517 7.4404678853754209 22.8577710425869576 O
atom 9.0771835042496711 5.1661235953111513 18.9671717035309619 O
atom 3.4566619670724648 8.4799539003842401 22.8577751509819898 O
atom 9.0653998917467788 9.0973588978437192 20.9124472715997065 Pt
atom 8.0799881927143886 2.2743518444072439 23.5316940231290026 Pt
atom 8.0917826393357615 1.6568859518752375 21.5864051874402172 O
atom 6.2551245639135935 2.8917864753780198 22.8577603035224577 O
atom 3.4802395694353963 0.6174407953120369 18.9671738750683048 O
atom 9.0536200937863693 3.9312544803854474 22.8577663632719634 O
atom 5.2815354840273470 0.0000291194125875 23.5316929303563676 Pt
atom 0.6699787738927185 2.2743488828458451 20.9124618378260223 Pt
atom 0.6817560292421225 1.6569264103066399 18.9671607117957741 O
atom 10.0390154016465178 2.8917843038122997 20.2384962612585433 O
atom 10.8902581640567657 0.6174372868735817 21.5863939804208833 O
atom 1.6435805721210071 3.9312600988093211 20.2385019524502958 O
atom 9.0653770565484333 4.5486649878400423 20.9124619458065517 Pt
atom 4.4538429328347648 6.8230209912750359 18.2932080673274164 Pt
atom 8.0917770241349878 6.2055869518730704 21.5864007692254063 O
atom 6.2551452089038380 7.4404811453811330 22.8577458562282096 O
atom 3.4802251411771379 5.1661161753048139 18.9671562683373303 O
atom 9.0536057774281193 8.4799333703783919 22.8577494452914571 O
atom 5.2815140044409778 4.5487003994076272 23.5316965869668557 Pt
atom 0.6699835306421805 6.8230383028495432 20.9124725087624199 Pt
atom 0.6817328802800851 6.2056042303022299 18.9671694766425212 O
atom 10.0390193067256437 7.4404571638130195 20.2384931218452273 O
atom 10.8902364308953814 5.1661293668664294 21.5863869396582899 O
atom 1.6435616058964784 8.4799557288031071 20.2384957814886910 O
atom 9.9048523031240894 1.6569249234415622 24.2056527551159668 O
atom 1.5094409532698496 0.6174304684424949 24.2056459839074769 O
atom 9.9048708494941593 6.2056105734445204 24.2056404415954880 O
atom 1.5094478921625889 5.1661256384482321 24.2056639010240495 O
atom 7.1063970037887012 0.6174428384491175 24.2056660725613959 O
atom 4.3079134635954253 1.6569284534437203 24.2056529092888617 O
atom 8.0800003671880702 6.8230230344121159 23.5317002648205111 Pt
atom 7.1063825755304402 5.1661182184418930 24.2056484658304250 O
atom 4.3078903146333873 6.2056062734393107 24.2056616741356159 O
