#===============================================================================
# Created using the Atomic Simulation Environment (ASE)

# Mon Mar 23 14:01:21 2026

#=======================================================
lattice_vector 6.3710923900000003 0.0000000000000000 0.0000000000000000 
lattice_vector 0.0000000388927909 12.9411912842237733 0.0000000000000000 
lattice_vector 0.0000000000000000 0.0000000000000000 32.4485402518030384 
atom 1.5927667983303844 9.4798297416018755 16.2242597736717329 Pt
atom 6.3710904618365047 9.8401503080289885 15.0000000000000000 O
atom 1.5927722546132368 7.4729057170484214 15.8782542799264519 O
atom 1.5927704538840028 3.0092484026090580 16.2242679923583566 Pt
atom 0.0000021373900854 3.3695487927200856 15.0000061707683514 O
atom 1.5927681101668598 1.0023229620457648 15.8782591598384215 O
atom 0.0000028155535839 12.7151262306725954 16.2242580953476896 Pt
atom 3.1855474611072192 6.2445370299559588 16.2242502803011597 Pt
atom 3.1855509618364222 9.8401332311759937 15.0000206332860415 O
atom 4.7783152346132534 7.4729153036372393 15.8782558277684913 O
atom 4.7783226538839925 3.0092365384469177 16.2242604843854679 Pt
atom 3.1855450173900346 3.3695214691383857 15.0000014012523515 O
atom 4.7783191401668299 1.0023099666315982 15.8782589144593338 O
atom 6.3710861511071561 6.2445439596234404 16.2242855139527968 Pt
atom 0.0000051348242854 9.1195395385054994 17.4485402518030348 O
atom 1.5927729320474902 11.4867529523395770 16.5702835911967803 O
atom 6.3710907103779197 2.6489439308643101 17.4485264384385914 O
atom 1.5927704576011459 5.0161721467732949 16.5702754926882818 O
atom 4.7783295983303766 9.4798377230399016 16.2242710350503003 Pt
atom 3.1855448448243679 9.1195601148687739 17.4485233866236520 O
atom 4.7783144020475179 11.4867641710323589 16.5702817260875008 O
atom 3.1855478003779658 2.6489710971862088 17.4485327132018639 O
atom 4.7783169676011275 5.0161608102646529 16.5702720890766955 O
atom 3.1855383755535556 12.7151368791906929 16.2242812872075035 Pt
