#===============================================================================
# Created using the Atomic Simulation Environment (ASE)

# Mon Mar 23 14:01:20 2026

#=======================================================
lattice_vector 6.3710923900000003 0.0000000000000000 0.0000000000000000 
lattice_vector -0.0000000000000100 9.0973690600005526 0.0000000000000000 
lattice_vector 0.0000000000000000 0.0000000000000000 32.2337694647093542 
atom 1.5927876560983907 2.2743618631834850 16.1168864648577852 Pt
atom 0.0000001696044221 1.6569382640101797 15.0000243650003924 O
atom 0.0000038225923299 2.8917754423601822 17.2337582947185695 O
atom 1.5927703760984111 6.8230510831809061 16.1168782698560875 Pt
atom 0.0000020596044936 6.2056239140019658 15.0000000000000000 O
atom 6.3710906325923267 7.4404729823600313 17.2337570697140166 O
atom 4.7783090560983785 2.2743662131847162 16.1168899948561872 Pt
atom 3.1855503096044475 1.6569003140072947 15.0000160850136268 O
atom 3.1855463925922933 2.8918018723640753 17.2337694647093542 O
atom 4.7783225760984003 6.8230374031820062 16.1168814298608680 Pt
atom 3.1855449396044424 6.2056013140075681 15.0000160800078817 O
atom 3.1855477225923750 7.4404965423548362 17.2337421597058196 O
