#===============================================================================
# Created using the Atomic Simulation Environment (ASE)

# Mon Mar 23 14:01:20 2026

#=======================================================
lattice_vector 11.1938930464403850 0.0000000000000000 0.0000000000000000 
lattice_vector -0.0000051258591119 9.0973690599991084 0.0000000000000000 
lattice_vector 0.0000000000000000 0.0000000000000000 36.5864124138262810 
atom 7.2523057158824136 0.0000187462713876 15.6739526353812941 Pt
atom 10.0507854940849786 2.2743342412722360 15.6739471523331630 Pt
atom 8.2259185946327822 2.8917808122427973 15.0000169129197936 O
atom 11.0243899521569908 3.9312525172412291 15.0000113674751390 O
atom 7.2523247071250880 4.5487052662756433 15.6739462530568225 Pt
atom 10.0507696310812094 6.8230340712656465 15.6739347468207235 Pt
atom 8.2258956284795346 7.4404658422383401 15.0000251863587515 O
atom 11.0243975791595510 8.4799518572471602 15.0000292947537872 O
atom 4.4538307583610868 2.2743498012701626 15.6739481669008001 Pt
atom 2.6289671295602912 2.8917844322409394 15.0000144472942551 O
atom 5.4274626594330657 3.9312524372483670 15.0000205070437573 O
atom 1.6553780496740420 0.0000270762755069 15.6739470741281579 Pt
atom 2.6289877745505383 7.4404791022440531 15.0000000000000000 O
atom 5.4274483430748175 8.4799313272413119 15.0000035890632475 O
atom 1.6553565700876756 4.5486983562705463 15.6739507307386496 Pt
atom 10.8784631502357154 0.0000207894084682 20.9124448328743888 Pt
atom 6.2669264902742583 2.2743464728470602 18.2932126436706071 Pt
atom 6.2786948687707866 1.6569228803044813 16.3479068988877607 O
atom 4.4420570942312256 2.8917590238119244 17.6192571691299946 O
atom 5.2932967191450659 0.6174406668679931 18.9671329791957071 O
atom 7.2405176793305452 3.9312542288047783 17.6192385387579762 O
atom 3.4684297407792601 9.0973512478406455 18.2932110993968067 Pt
atom 2.4830498819978963 2.2743362844093173 20.9124393498262577 Pt
atom 2.4948528482906482 1.6569247618760936 18.9671324789321183 O
atom 0.6581829825456968 2.8917828553798772 20.2385091104128882 O
atom 9.0771765653569325 0.6174284253054144 16.3479001276792708 O
atom 3.4566543400699095 3.9312545603783104 20.2385035649682301 O
atom 10.8784821414783917 4.5487073094127233 20.9124384505499137 Pt
atom 6.2669208304558799 6.8230356928420131 18.2931937713165382 Pt
atom 6.2787134151408575 6.2056085303074395 16.3478945853672819 O
atom 4.4420523626267334 7.4404565638098275 17.6192518838753287 O
atom 5.2933085640831967 5.1661265068728426 18.9671395706113337 O
atom 7.2405315429980908 8.4799427388104025 17.6192462016806708 O
atom 3.4684485183176972 4.5486753978435006 18.2932006051392264 Pt
atom 2.4830340189941289 6.8230361144027265 20.9124269443138147 Pt
atom 2.4948532259801501 6.2055988318764177 18.9671322555475044 O
atom 0.6581600163924517 7.4404678853754209 20.2385173838518426 O
atom 9.0771835042496711 5.1661235953111513 16.3479180447958470 O
atom 3.4566619670724648 8.4799539003842401 20.2385214922468748 O
atom 9.0653998917467788 9.0973588978437192 18.2931936128645916 Pt
atom 8.0799881927143886 2.2743518444072439 20.9124403643938876 Pt
atom 8.0917826393357615 1.6568859518752375 18.9671515287051022 O
atom 6.2551245639135935 2.8917864753780198 20.2385066447873427 O
atom 3.4802395694353963 0.6174407953120369 16.3479202163331898 O
atom 9.0536200937863693 3.9312544803854474 20.2385127045368485 O
atom 5.2815354840273470 0.0000291194125875 20.9124392716212526 Pt
atom 0.6699787738927185 2.2743488828458451 18.2932081790909074 Pt
atom 0.6817560292421225 1.6569264103066399 16.3479070530606592 O
atom 10.0390154016465178 2.8917843038122997 17.6192426025234283 O
atom 10.8902581640567657 0.6174372868735817 18.9671403216857684 O
atom 1.6435805721210071 3.9312600988093211 17.6192482937151809 O
atom 9.0653770565484333 4.5486649878400423 18.2932082870714368 Pt
atom 4.4538429328347648 6.8230209912750359 15.6739544085923015 Pt
atom 8.0917770241349878 6.2055869518730704 18.9671471104902913 O
atom 6.2551452089038380 7.4404811453811330 20.2384921974930947 O
atom 3.4802251411771379 5.1661161753048139 16.3479026096022153 O
atom 9.0536057774281193 8.4799333703783919 20.2384957865563422 O
atom 5.2815140044409778 4.5487003994076272 20.9124429282317408 Pt
atom 0.6699835306421805 6.8230383028495432 18.2932188500273050 Pt
atom 0.6817328802800851 6.2056042303022299 16.3479158179074062 O
atom 10.0390193067256437 7.4404571638130195 17.6192394631101124 O
atom 10.8902364308953814 5.1661293668664294 18.9671332809231750 O
atom 1.6435616058964784 8.4799557288031071 17.6192421227535760 O
atom 9.9048523031240894 1.6569249234415622 21.5863990963808519 O
atom 1.5094409532698496 0.6174304684424949 21.5863923251723620 O
atom 9.9048708494941593 6.2056105734445204 21.5863867828603730 O
atom 1.5094478921625889 5.1661256384482321 21.5864102422889346 O
atom 7.1063970037887012 0.6174428384491175 21.5864124138262810 O
atom 4.3079134635954253 1.6569284534437203 21.5863992505537468 O
atom 8.0800003671880702 6.8230230344121159 20.9124466060853962 Pt
atom 7.1063825755304402 5.1661182184418930 21.5863948070953100 O
atom 4.3078903146333873 6.2056062734393107 21.5864080154005009 O
