#===============================================================================
# Created using the Atomic Simulation Environment (ASE)

# Mon Mar 23 14:01:19 2026

#=======================================================
lattice_vector 9.2039351800005225 0.0000000000000000 0.0000000000000000 
lattice_vector -0.0000000269221396 6.3710923900000003 0.0000000000000000 
lattice_vector 0.0000000000000000 0.0000000000000000 51.7039647850002453 
atom 1.1168811964705061 1.5927548512134957 15.0000007699988167 O
atom 4.6019964382069460 0.0000022350000506 20.1660975261688904 Pt
atom 5.7188558864705152 1.5927729562135036 15.0000000799964255 O
atom 9.2039300161669324 0.0000008200000088 15.6174525661800914 Pt
atom 2.3009876104584803 1.5927705025000207 17.8917819711771955 Pt
atom 1.1841089242320446 0.0000021812865408 17.2743555673558120 O
atom 3.4178668132220658 6.3710907637135001 18.5092031049983987 O
atom 3.4851003223908119 1.5927681637865474 16.2348725223531929 O
atom 1.1168751685254319 1.5927705012134941 19.5486892800011063 O
atom 4.6019740161562668 0.0000028350000214 15.6174216761761855 Pt
atom 6.9029634704585607 1.5927490575000296 17.8917813711744103 Pt
atom 5.7860654273065570 6.3710919762865288 17.2743448473595365 O
atom 8.0198656501479331 0.0000003587135357 18.5092134049878823 O
atom 8.0870760323904101 1.5927924287865560 16.2348706323504572 O
atom 5.7188608285290803 1.5927934962135135 19.5486994199950210 O
atom 9.2039346347487143 3.1855475000000175 20.1661051761787924 Pt
atom 1.1168776730091374 4.7783376112134910 15.0000000000000000 O
atom 5.7188465830116586 4.7783144262134920 15.0000066399995546 O
atom 0.0000255726914343 3.1855451100000418 15.6174112661697322 Pt
atom 2.3009907569927965 4.7783227025000237 17.8917682911761311 Pt
atom 1.1841249907633664 3.1855450612865575 17.2743329673503965 O
atom 3.4178519166910672 3.1855478537134845 18.5092266650034176 O
atom 3.4851093789266003 4.7783191937865563 16.2348632123501382 O
atom 1.1168808250608617 4.7783170112134989 19.5486788899991950 O
atom 4.6019827327032843 3.1855383950000298 15.6174456561732491 Pt
atom 6.9029618769985222 4.7783425675000277 17.8917845811749423 Pt
atom 5.7861165507697896 3.1855464762865831 17.2743512673423218 O
atom 8.0198105566835931 3.1855459787134750 18.5092037050064349 O
atom 8.0870796589309819 4.7782985687865596 16.2348753823492302 O
atom 5.7188596750690142 4.7783000162135103 19.5487022699954025 O
atom 0.0000192812972119 6.3710861900000380 20.1661351061721099 Pt
atom 2.3009989225104839 1.5927877825000374 22.4404618111736411 Pt
atom 1.1841364062852715 0.0000002912865755 21.8230389773468154 O
atom 3.4178711821934185 0.0000039537135113 23.0578746249971900 O
atom 3.4851115344439867 1.5927545437865651 20.7835557423496731 O
atom 1.1168874305777099 1.5927548512135119 24.0973698299972341 O
atom 4.6020026723141489 0.0000022350000670 29.2634665861673113 Pt
atom 6.9029627125069926 1.5927668275000333 22.4404506011749270 Pt
atom 5.7860710893636833 6.3710904862865387 21.8230398373578893 O
atom 8.0198472822013631 0.0000051687135205 23.0578974349943273 O
atom 8.0870767644404502 1.5927722887865619 20.7835445223504678 O
atom 5.7188621205777181 1.5927729562135198 24.0973691399948429 O
atom 0.0000010702736137 0.0000008200000252 24.7148216261785088 Pt
atom 2.3009938445656841 1.5927705025000367 26.9891510311756093 Pt
atom 1.1841151583392484 0.0000021812865572 26.3717246273542330 O
atom 3.4178730473292696 6.3710907637135161 27.6065721649968125 O
atom 3.4851065564980157 1.5927681637865638 25.3322415823516067 O
atom 1.1168814026326355 1.5927705012135105 28.6460583399995272 O
atom 4.6019802502634697 0.0000028350000378 24.7147907361746064 Pt
atom 6.9029697045657645 1.5927490575000460 26.9891504311728241 Pt
atom 5.7860716614137608 6.3710919762865457 26.3717139073579574 O
atom 8.0198718842551369 0.0000003587135521 27.6065824649862961 O
atom 8.0870822664976139 1.5927924287865727 25.3322396923488711 O
atom 5.7188670626362832 1.5927934962135297 28.6460684799934384 O
atom 0.0000056888553951 3.1855475000000339 29.2634742361772027 Pt
atom 2.3010024390509063 4.7783091825000392 22.4404661611724556 Pt
atom 1.1841281128114152 3.1855504312865670 21.8230010273496049 O
atom 3.4178823387412551 3.1855465237135223 23.0579010549934296 O
atom 3.4851127609832617 4.7783404237865632 20.7835568923492566 O
atom 1.1168839071163410 4.7783376112135079 24.0973690599984174 O
atom 4.6019682147613405 3.1855461550000190 20.1661434361783982 Pt
atom 6.9029649390504897 4.7783296275000353 22.4404642211741674 Pt
atom 5.7860977528256443 3.1855509862865690 21.8230425073489158 O
atom 8.0198207787411313 3.1855448787134915 23.0578999050032500 O
atom 8.0870710209820231 4.7783152687865558 20.7835523623523954 O
atom 5.7188528171188615 4.7783144262135071 24.0973756999979720 O
atom 0.0000318067986378 3.1855451100000578 24.7147803261681496 Pt
atom 2.3009969911000003 4.7783227025000405 26.9891373511745414 Pt
atom 1.1841312248705702 3.1855450612865739 26.3717020273488103 O
atom 3.4178581507982715 3.1855478537135014 27.6065957250018386 O
atom 3.4851156130338046 4.7783191937865732 25.3322322723485556 O
atom 1.1168870591680653 4.7783170112135158 28.6460479499976159 O
atom 4.6019889668104872 3.1855383950000458 24.7148147161716594 Pt
atom 6.9029681111057251 4.7783425675000419 26.9891536411733597 Pt
atom 5.7861227848769925 3.1855464762865995 26.3717203273407392 O
atom 8.0198167907908005 3.1855459787134919 27.6065727650048487 O
atom 8.0870858930381839 4.7782985687865747 25.3322444423476512 O
atom 5.7188659091762171 4.7783000162135272 28.6460713299938234 O
atom 0.0000255154044155 6.3710861900000548 29.2635041661705273 Pt
atom 2.3010051566176877 1.5927877825000543 31.5378308711720550 Pt
atom 1.1841426403924749 0.0000002912865919 30.9204080373452328 O
atom 3.4178774163006223 0.0000039537135277 32.1552436849956038 O
atom 3.4851177685511900 1.5927545437865811 29.8809248023480905 O
atom 1.1168936646849135 1.5927548512135283 33.1947388899956550 O
atom 6.9029689466141964 1.5927668275000499 31.5378196611733372 Pt
atom 5.7860773234708880 6.3710904862865547 30.9204088973563103 O
atom 8.0198535163085651 0.0000051687135369 32.1552664949927447 O
atom 8.0870829985476540 1.5927722887865778 29.8809135823488887 O
atom 5.7188683546849228 1.5927729562135362 33.1947381999932603 O
atom 0.0000073043808177 0.0000008200000416 33.8121906861769261 Pt
atom 2.3010000786728870 1.5927705025000536 36.0865200911740303 Pt
atom 1.1841213924464515 0.0000021812865736 35.4690936873526468 O
atom 3.4178792814364733 6.3710907637135330 36.7039412249952406 O
atom 3.4851127906052191 1.5927681637865805 34.4296106423500348 O
atom 4.6019864843706726 0.0000028350000542 33.8121597961730274 Pt
atom 6.9029759386729683 1.5927490575000625 36.0865194911712379 Pt
atom 5.7860778955209646 6.3710919762865617 35.4690829673563783 O
atom 8.0198781183623407 0.0000003587135684 36.7039515249847241 O
atom 8.0870885006048177 1.5927924287865889 34.4296087523472991 O
atom 2.3010086731581092 4.7783091825000561 31.5378352211708730 Pt
atom 1.1841343469186185 3.1855504312865826 30.9203700873480258 O
atom 3.4178885728484589 3.1855465237135387 32.1552701149918505 O
atom 3.4851189950904646 4.7783404237865810 29.8809259523476740 O
atom 1.1168901412235444 4.7783376112135247 33.1947381199968348 O
atom 4.6019744488685435 3.1855461550000350 29.2635124961768085 Pt
atom 6.9029711731576935 4.7783296275000504 31.5378332811725883 Pt
atom 5.7861039869328481 3.1855509862865845 30.9204115673473368 O
atom 8.0198270128483351 3.1855448787135074 32.1552689650016603 O
atom 8.0870772550892251 4.7783152687865709 29.8809214223508164 O
atom 5.7188590512260644 4.7783144262135240 33.1947447599963894 O
atom 0.0000380409058414 3.1855451100000747 33.8121493861665741 Pt
atom 2.3010032252072037 4.7783227025000556 36.0865064111729694 Pt
atom 1.1841374589777733 3.1855450612865899 35.4690710873472241 O
atom 3.4178643849054744 3.1855478537135178 36.7039647850002453 O
atom 3.4851218471410079 4.7783191937865901 34.4296013323469694 O
atom 4.6019952009176910 3.1855383950000618 33.8121837761700803 Pt
atom 6.9029743452129289 4.7783425675000588 36.0865227011717806 Pt
atom 5.7861290189841963 3.1855464762866159 35.4690893873391602 O
atom 8.0198230248980025 3.1855459787135079 36.7039418250032625 O
atom 8.0870921271453895 4.7782985687865915 34.4296135023460650 O
