#===============================================================================
# Created using the Atomic Simulation Environment (ASE)

# Mon Mar 23 14:01:22 2026

#=======================================================
lattice_vector 9.1788542800000368 0.0000000000000000 0.0000000000000000 
lattice_vector 0.0000016600002026 9.1788565199998882 0.0000000000000000 
lattice_vector 0.0000000000000000 0.0000000000000000 33.2423073300000240 
atom 2.2947116645399652 2.2947169395398386 15.0000031100000086 Pt
atom 0.8741960129899407 3.7152273679902983 15.0000025299999997 O
atom 3.7152220160892901 0.8741987210898620 15.0000000000000000 O
atom 2.2947133510076885 2.2947178560073263 18.2423049900000080 Pt
atom 0.0000033552736368 0.0000018452731725 16.6211550950000131 Pt
atom 0.8741962294576098 3.7152276944579183 18.2423052100000049 O
atom 3.7152224025569405 0.8741988975574626 18.2423068800000010 O
atom 1.4205220137233183 1.4205088968224537 16.6211548180951993 O
atom 3.1689232118229169 3.1689102187228833 16.6211534019048273 O
atom 2.2947132295396142 6.8841401995397158 15.0000032350000048 Pt
atom 0.8742060579905870 8.3046616579894081 15.0000029750000188 O
atom 3.7152306810896158 5.4636294910890948 15.0000026750000117 O
atom 2.2947124160072407 6.8841400560074293 18.2423055950000048 Pt
atom 9.1788529002732719 4.5894245152736222 16.6211533700000018 Pt
atom 0.8742057144582306 8.3046617244570733 18.2423071150000169 O
atom 3.7152304275572345 5.4636292475567592 18.2423041250000111 O
atom 1.4205044387241961 6.0099457368240605 16.6211543130951895 O
atom 3.1689051068236913 7.7583459387245393 16.6211546469048130 O
atom 6.8841377145391691 2.2947079145399361 15.0000035849999982 Pt
atom 5.4636247329897207 3.7152247229901545 15.0000026250000005 O
atom 8.3046552860891438 0.8741969260893044 15.0000029250000040 O
atom 6.8841382610068989 2.2947089210075271 18.2423063449999958 Pt
atom 4.5894208852736318 9.1788558302740793 16.6211534899999975 Pt
atom 5.4636243694573841 3.7152249794578287 18.2423042650000014 O
atom 8.3046552325567937 0.8741970825569477 18.2423072550000001 O
atom 6.0099449137228005 1.4205029518228369 16.6211552430951848 O
atom 7.7583466618224417 3.1689047637232157 16.6211546469048166 O
atom 6.8841477595403644 6.8841482545390491 15.0000015500000181 Pt
atom 5.4636311279906300 8.3046619129895891 15.0000021600000153 O
atom 8.3046607610898135 5.4636315060888299 15.0000032600000175 O
atom 6.8841504860079992 6.8841482510064385 18.2423073300000240 Pt
atom 4.5894288902736875 4.5894293002733386 16.6211529650000074 Pt
atom 5.4636322544582141 8.3046613094571331 18.2423047900000199 O
atom 8.3046620175573853 5.4636307325563553 18.2423045500000143 O
atom 6.0099385987247524 6.0099516818234244 16.6211550380951998 O
atom 7.7583395168242744 7.7583521437238820 16.6211540019048272 O
