#===============================================================================
# Created using the Atomic Simulation Environment (ASE)

# Mon Mar 23 14:01:23 2026

#=======================================================
lattice_vector 11.2383934762033828 0.0000000000000000 0.0000000000000000 
lattice_vector 0.0000013697273223 9.1788565199999361 0.0000000000000000 
lattice_vector 0.0000000000000000 0.0000000000000000 31.6392949962925947 
atom 0.9522191008550924 2.2947188895077621 15.8196457005306428 Pt
atom 11.0304198471479324 3.7152292341886750 15.0000007873196424 O
atom 2.1124096311864733 0.8742007548267039 16.6392845418433204 O
atom 2.6016224315561973 3.1689207341888057 15.0000000000000000 O
atom 9.3810182998266818 0.0000037995076309 15.8196492678607079 Pt
atom 10.5412139843468644 1.4205109348265470 16.6392949197333841 O
atom 0.9522203138972659 6.8841421495077180 15.8196462267219964 Pt
atom 11.0304278015112391 8.3046635241883902 15.0000064678678413 O
atom 2.1124151717266177 5.4636315248266545 16.6392912474570913 O
atom 2.6016309163155587 7.7583331241884377 15.0000048431257085 O
atom 9.3810154348606805 4.5894264695076270 15.8196446479516517 Pt
atom 10.5411999284844562 6.0099477748270491 16.6392838875062488 O
atom 3.7618162522471987 9.1788540595076924 15.8196419718706736 Pt
atom 4.9220049109209425 1.4205161848270089 16.6392859419262358 O
atom 6.5714154164249887 2.2947108795077771 15.8196453714149854 Pt
atom 5.4112249894857802 3.7152268541885070 15.0000002486208999 O
atom 7.7316090340216883 0.8741991248268524 16.6392913157968003 O
atom 8.2208293172553226 3.1689066341884047 15.0000069792195241 O
atom 3.7618200033211586 4.5894300595075741 15.8196455281480368 Pt
atom 4.9220195299331939 6.0099420648263990 16.6392949962925947 O
atom 6.5714248397010122 6.8841502095074691 15.8196527508733240 Pt
atom 5.4112311335287684 8.3046631841882963 15.0000047481779788 O
atom 7.7316161433749899 5.4636327748264026 16.6392925425760545 O
atom 8.2208238607807402 7.7583540141885674 15.0000018508077737 O
