#===============================================================================
# Created using the Atomic Simulation Environment (ASE)

# Mon Mar 23 14:01:23 2026

#=======================================================
lattice_vector 9.1788565200000374 0.0000000000000000 0.0000000000000000 
lattice_vector -0.0000000170647224 6.4846065199999998 0.0000000000000000 
lattice_vector 0.0000000000000000 0.0000000000000000 50.1061123130984569 
atom 4.5894266429347468 6.4846063308451694 15.8741952965497397 Pt
atom 4.5894262264672614 3.2423024008451669 15.8741969915497769 Pt
atom 0.8741984791839861 1.6211519581456841 15.0000000450000144 O
atom 0.8741986356516196 4.8634562881456835 15.0000000000000000 O
atom 5.4636330591844251 1.6211522931456832 15.0000046899994359 O
atom 5.4636322856521806 4.8634535831456809 15.0000059549995051 O
atom 2.2947190657333709 1.6211521348064655 18.1689104465491553 Pt
atom 0.0000046500002116 0.0000008058451631 15.8742037315491729 Pt
atom 3.7152292372829319 1.6211515585446519 16.7483945380992267 O
atom 0.8742011041833334 1.6211490210682786 19.5894210549997894 O
atom 1.4205253913851756 6.4846059452021789 17.2947111730982925 O
atom 3.1689211565488540 0.0000005644107653 19.0431058349992561 O
atom 2.2947199822011632 4.8634540148064636 18.1689121415490717 Pt
atom 0.0000035564677441 3.2423041258451630 15.8742025565492710 Pt
atom 3.7152295637505923 4.8634542385446506 16.7483947630991921 O
atom 0.8742012806510041 4.8634559010682779 19.5894214499997759 O
atom 1.4205108649184204 3.2423038452021493 17.2947209580996102 O
atom 3.1689125030179408 3.2423024244107310 19.0431218400000333 O
atom 6.8841423257334577 1.6211522598064587 18.1689111815496069 Pt
atom 4.5894283029345440 6.4846063066903357 25.0530495765496219 Pt
atom 8.3046635272837843 1.6211520035446436 16.7484037530986782 O
atom 5.4636318741840597 1.6211516960682695 19.5894288899995672 O
atom 6.0099374884503467 0.0000005202021555 17.2947159380997562 O
atom 7.7583335465497019 0.0000000194107339 19.0431150000006859 O
atom 6.8841421822010220 4.8634546198064585 18.1689103765496185 Pt
atom 4.5894278864670595 3.2423023766903341 25.0530512715496592 Pt
atom 8.3046635937513908 4.8634561435446440 16.7484034180986718 O
atom 5.4636316306516761 4.8634531460682693 19.5894286449995860 O
atom 6.0099477049167742 3.2423033402021870 17.2947025530988334 O
atom 7.7583482230162462 3.2423036694107688 19.0431029049993619 O
atom 2.2947108707331698 1.6211525977290411 22.7583364965499158 Pt
atom 9.1788546379344478 6.4846052687677540 20.4636200315497767 Pt
atom 3.7152274222829726 1.6211516414672298 21.3378232580994052 O
atom 0.8742001391837835 1.6211519339908511 24.1788543249999002 O
atom 1.4205169534493016 0.0000003581247622 21.8841328430990814 O
atom 3.1689185715485020 0.0000011173333493 23.6325302149995018 O
atom 2.2947118772008595 4.8634553577290403 22.7583370515498196 Pt
atom 0.0000018514666248 3.2423025087677617 20.4636184265494450 Pt
atom 3.7152276787505816 4.8634532814672307 21.3378229030993793 O
atom 0.8742002956514170 4.8634562639908507 24.1788542799998858 O
atom 1.4205057499179354 3.2423042581247321 21.8841438581000922 O
atom 3.1689078780175040 3.2423036573333142 23.6325452900004684 O
atom 6.8841512107340250 1.6211505627290397 22.7583457115488166 Pt
atom 4.5894306379349397 6.4846056137677524 20.4636257065493936 Pt
atom 8.3046646122834940 1.6211511764672306 21.3378288230985973 O
atom 5.4636347191842223 1.6211522689908504 24.1788589699993288 O
atom 6.0099428163861006 6.4846062331247349 21.8841494480992935 O
atom 7.7583436415503098 0.0000009023333153 23.6325499899997951 O
atom 6.8841512072019064 4.8634563427290347 22.7583484465488226 Pt
atom 4.5894318414674435 3.2423019837677498 20.4636272615492842 Pt
atom 8.3046640087512387 4.8634538064672288 21.3378299580986486 O
atom 5.4636339456519769 4.8634535589908472 24.1788602349993909 O
atom 6.0099544799173064 3.2423040531247662 21.8841367130982398 O
atom 7.7583552580168043 3.2423030123333474 23.6325373149987392 O
atom 2.2947207257331685 1.6211521106516320 27.3477647265490411 Pt
atom 0.0000063100000091 0.0000007816903301 25.0530580115490586 Pt
atom 3.7152308972827299 1.6211515343898188 25.9272488180991090 O
atom 0.8742027641831310 1.6211489969134456 28.7682753349996680 O
atom 1.4205270513849730 6.4846059210473461 26.4735654530981783 O
atom 3.1689228165486516 0.0000005402559322 28.2219601149991384 O
atom 2.2947216422009613 4.8634539906516308 27.3477664215489575 Pt
atom 0.0000052164675415 3.2423041016903298 25.0530568365491568 Pt
atom 3.7152312237503899 4.8634542143898178 25.9272490430990779 O
atom 0.8742029406508016 4.8634558769134459 28.7682757299996616 O
atom 1.4205125249182180 3.2423038210473170 26.4735752380994960 O
atom 3.1689141630177384 3.2423024002558982 28.2219761199999155 O
atom 6.8841439857332549 1.6211522356516253 27.3477654615494963 Pt
atom 4.5894299629343411 6.4846062825355029 34.2319038565495148 Pt
atom 8.3046651872835824 1.6211519793898104 25.9272580330985676 O
atom 5.4636335341838569 1.6211516719134360 28.7682831699994459 O
atom 6.0099391484501421 0.0000004960473224 26.4735702180996419 O
atom 7.7583351894847761 6.4846065152559005 28.2219692800005717 O
atom 6.8841438422008183 4.8634545956516257 27.3477646565495007 Pt
atom 4.5894295464668566 3.2423023525355008 34.2319055515495450 Pt
atom 8.3046652537511889 4.8634561193898111 25.9272576980985612 O
atom 5.4636332906514742 4.8634531219134365 28.7682829249994647 O
atom 6.0099493649165723 3.2423033160473547 26.4735568330987192 O
atom 7.7583498830160424 3.2423036452559355 28.2219571849992477 O
atom 2.2947125307329674 1.6211525735742076 31.9371907765498051 Pt
atom 9.1788562979342476 6.4846052446129212 29.6424743115496625 Pt
atom 3.7152290822827707 1.6211516173123963 30.5166775380992874 O
atom 0.8742017991835810 1.6211519098360179 33.3577086049997789 O
atom 1.4205186134490990 0.0000003339699292 31.0629871230989707 O
atom 3.1689202315482996 0.0000010931785162 32.8113844949993947 O
atom 2.2947135372006571 4.8634553335742075 31.9371913315497054 Pt
atom 0.0000035114664226 3.2423024846129285 29.6424727065493236 Pt
atom 3.7152293387503792 4.8634532573123970 30.5166771830992687 O
atom 0.8742019556512145 4.8634562398360170 33.3577085599997716 O
atom 1.4205074099177328 3.2423042339699002 31.0629981380999780 O
atom 3.1689095380173016 3.2423036331784809 32.8113995700003542 O
atom 6.8841528707338231 1.6211505385742067 31.9371999915487024 Pt
atom 4.5894322979347377 6.4846055896129187 29.6424799865492758 Pt
atom 8.3046662722832920 1.6211511523123974 30.5166831030984795 O
atom 5.4636363791840195 1.6211522448360174 33.3577132499992075 O
atom 6.0099444763858969 6.4846062089699004 31.0630037280991829 O
atom 7.7583453015501060 0.0000008781784823 32.8114042699996773 O
atom 6.8841528672017027 4.8634563185742010 31.9372027265487120 Pt
atom 4.5894335014672407 3.2423019596129166 29.6424815415491665 Pt
atom 8.3046656687510367 4.8634537823123951 30.5166842380985273 O
atom 5.4636356056517750 4.8634535348360144 33.3577145149992802 O
atom 6.0099561399171044 3.2423040289699343 31.0629909930981256 O
atom 7.7583569180166005 3.2423029881785146 32.8113915949986321 O
atom 0.0000079699998065 0.0000007575354970 34.2319122915489444 Pt
atom 3.7152325572825271 1.6211515102349856 35.1061030980989912 O
atom 0.0000068764673390 3.2423040775354970 34.2319111165490426 Pt
atom 3.7152328837501871 4.8634541902349850 35.1061033230989636 O
atom 8.3046668472833787 1.6211519552349776 35.1061123130984569 O
atom 8.3046669137509852 4.8634560952349775 35.1061119780984470 O
