#===============================================================================
# Created using the Atomic Simulation Environment (ASE)

# Mon Mar 23 14:01:23 2026

#=======================================================
lattice_vector 9.1788565200000374 0.0000000000000000 0.0000000000000000 
lattice_vector -0.0000000170647224 6.4846065199999998 0.0000000000000000 
lattice_vector 0.0000000000000000 0.0000000000000000 34.0431251899994862 
atom 4.5894299629343411 6.4846062825355029 18.1689167334505441 Pt
atom 4.5894295464668566 3.2423023525355008 18.1689184284505743 Pt
atom 2.2947125307329674 1.6211525735742076 15.8742036534508344 Pt
atom 0.8742017991835810 1.6211519098360179 17.2947214819008082 O
atom 1.4205186134490990 0.0000003339699292 15.0000000000000000 O
atom 3.1689202315482996 0.0000010931785162 16.7483973719004240 O
atom 2.2947135372006571 4.8634553335742075 15.8742042084507347 Pt
atom 0.8742019556512145 4.8634562398360170 17.2947214369008009 O
atom 1.4205074099177328 3.2423042339699002 15.0000110150010073 O
atom 3.1689095380173016 3.2423036331784809 16.7484124469013835 O
atom 6.8841528707338231 1.6211505385742067 15.8742128684497317 Pt
atom 5.4636363791840195 1.6211522448360174 17.2947261269002368 O
atom 6.0099444763858969 6.4846062089699004 15.0000166050002122 O
atom 7.7583453015501060 0.0000008781784823 16.7484171469007066 O
atom 6.8841528672017027 4.8634563185742010 15.8742156034497413 Pt
atom 5.4636356056517750 4.8634535348360144 17.2947273919003095 O
atom 6.0099561399171044 3.2423040289699343 15.0000038699991549 O
atom 7.7583569180166005 3.2423029881785146 16.7484044718996614 O
atom 0.0000079699998065 0.0000007575354970 18.1689251684499737 Pt
atom 3.7152325572825271 1.6211515102349856 19.0431159750000205 O
atom 0.0000068764673390 3.2423040775354970 18.1689239934500719 Pt
atom 3.7152328837501871 4.8634541902349850 19.0431161999999929 O
atom 8.3046668472833787 1.6211519552349776 19.0431251899994862 O
atom 8.3046669137509852 4.8634560952349775 19.0431248549994763 O
