#===============================================================================
# Created using the Atomic Simulation Environment (ASE)

# Mon Mar 23 14:01:18 2026

#=======================================================
lattice_vector 9.0973690600005526 0.0000000000000000 0.0000000000000000 
lattice_vector 0.0000063071332193 9.2039351799983606 0.0000000000000000 
lattice_vector 0.0000000000000000 0.0000000000000000 42.7422287787134678 
atom 0.0000146600023695 0.0000067861506193 16.5927876212134713 Pt
atom 1.6569233561656611 5.7860574587971678 16.5927919174999694 O
atom 7.4404540609603611 3.4178554535119230 16.5927921949269326 O
atom 6.2055974261650491 5.7860549138008119 16.5927934074999648 O
atom 2.2743472917850469 2.3009883853846551 15.0000106137134672 Pt
atom 0.6174388343914143 3.4850998427384061 15.0000418549999956 O
atom 3.9312493791758167 1.1168687180330577 15.0000390424269305 O
atom 2.2743485053498818 6.9029508853844872 15.0000310587134642 Pt
atom 0.6174374579547731 8.0870581027391903 15.0000166999999855 O
atom 3.9312591727428874 5.7188376280299495 15.0000158574269342 O
atom 6.8230184817823369 2.3009798203892879 15.0000241337134597 Pt
atom 5.1661142143915990 3.4850995777416172 15.0000206249999941 O
atom 8.4799282691761064 1.1168687530350454 15.0000184424269314 O
atom 6.8230379253501781 6.9029509403827687 15.0000439987134619 Pt
atom 5.1661295379591454 8.0870698577365783 15.0000000000000000 O
atom 8.4799548027466400 5.7188476030260942 15.0000014474269427 O
atom 0.0000146600023625 0.0000067592284797 22.9638800112134760 Pt
atom 2.2743429417838121 2.3009848419250734 18.1855816037134694 Pt
atom 1.6569193426105084 1.1841227487982855 16.5927941125000054 O
atom 2.8917565209605112 3.4178566785164493 16.5927977749269395 O
atom 0.6174376843909789 3.4850985892777793 18.1855483649999989 O
atom 3.9312501491770369 1.1168722145717598 18.1855486724269362 O
atom 9.0973492935728544 4.6019839161628848 16.5927960562134835 Pt
atom 2.2743348853490981 6.9029486319281821 18.1855606487134587 Pt
atom 1.6569233561656542 5.7860574318750286 22.9638843074999741 O
atom 2.8917824845300872 8.0198327785076788 16.5927989899269441 O
atom 0.6174296179567662 8.0870638192808499 18.1855661099999928 O
atom 3.9312526127461207 5.7188469045711621 18.1855667774269456 O
atom 4.5487074871284223 9.2039206111482788 16.5927946412134482 Pt
atom 6.8230321617812333 2.3009766469234574 18.1855643237134572 Pt
atom 6.2056049926022929 1.1840983837978933 16.5927960024999770 O
atom 7.4404540609603531 3.4178554265897829 22.9638845849269337 O
atom 5.1661235243884338 3.4850904942773089 18.1855619849999890 O
atom 8.4799386591741257 1.1168630695703559 18.1855643224269308 O
atom 4.5486734435658533 4.6019646111598593 16.5927966562134621 Pt
atom 6.8230347153507243 6.9029525069228699 18.1855428787134663 Pt
atom 6.2055974261650437 5.7860548868786710 22.9638857974999624 O
atom 7.4404675145378478 8.0198542635075114 16.5927941799269725 O
atom 5.1661247879578731 8.0870662042771215 18.1855862499999965 O
atom 8.4799519527470313 5.7188487295659760 18.1855873174269469 O
atom 9.0973600971292221 9.2039221126983310 19.7783413212134498 Pt
atom 2.2743472917850398 2.3009883584625150 21.3711030037134684 Pt
atom 1.6568813926076194 1.1841144553504355 19.7783442524999948 O
atom 2.8917829509644011 3.4178678350461746 19.7783403449269493 O
atom 0.6174388343914073 3.4850998158162660 21.3711342450000004 O
atom 3.9312493791758096 1.1168686911109182 21.3711314324269352 O
atom 0.0000261435624700 4.6019556926858192 19.7783399762134486 Pt
atom 2.2743485053498746 6.9029508584623480 21.3711234487134654 Pt
atom 1.6569260261749432 5.7860840953351600 19.7783448075000017 O
atom 2.8917849545208529 8.0198062750457577 19.7783386999269162 O
atom 0.6174374579547661 8.0870580758170512 21.3711090899999903 O
atom 3.9312591727428803 5.7188376011078104 21.3711082474269354 O
atom 4.5486598800059150 0.0000161677032416 19.7783389312134830 Pt
atom 6.8230184817823316 2.3009797934671483 21.3711165237134573 Pt
atom 6.2055823926078943 1.1841144503447025 19.7783388824999982 O
atom 7.4404776209551624 3.4178405300426395 19.7783416749269207 O
atom 5.1661142143915919 3.4850995508194775 21.3711130149999953 O
atom 8.4799282691760993 1.1168687261129060 21.3711108324269361 O
atom 4.5486974235688908 4.6019733276904446 19.7783322162134674 Pt
atom 6.8230379253501718 6.9029509134606286 21.3711363887134631 Pt
atom 6.2056038461828544 5.7861060103375035 19.7783402975000229 O
atom 7.4404578145186520 8.0197991700498221 19.7783397999269113 O
atom 5.1661295379591374 8.0870698308144373 21.3710923899999941 O
atom 8.4799548027466329 5.7188475761039559 21.3710938374269439 O
atom 2.2743429417838050 2.3009848150029342 24.5566739937134670 Pt
atom 1.6569193426105013 1.1841227218761461 22.9638865025000030 O
atom 2.8917565209605041 3.4178566515943096 22.9638901649269371 O
atom 0.6174376843909719 3.4850985623556401 24.5566407549999965 O
atom 3.9312501491770302 1.1168721876496202 24.5566410624269373 O
atom 9.0973492935728473 4.6019838892407448 22.9638884462134847 Pt
atom 2.2743348853490910 6.9029486050060429 24.5566530387134634 Pt
atom 2.8917824845300801 8.0198327515855397 22.9638913799269488 O
atom 0.6174296179567593 8.0870637923587108 24.5566584999999904 O
atom 3.9312526127461136 5.7188468776490220 24.5566591674269468 O
atom 4.5487074871284161 9.2039205842261378 22.9638870312134529 Pt
atom 6.8230321617812253 2.3009766200013178 24.5566567137134548 Pt
atom 6.2056049926022867 1.1840983568757539 22.9638883924999746 O
atom 5.1661235243884258 3.4850904673551693 24.5566543749999830 O
atom 8.4799386591741204 1.1168630426482162 24.5566567124269248 O
atom 4.5486734435658462 4.6019645842377201 22.9638890462134597 Pt
atom 6.8230347153507171 6.9029524800007298 24.5566352687134604 Pt
atom 7.4404675145378407 8.0198542365853722 22.9638865699269736 O
atom 5.1661247879578660 8.0870661773549823 24.5566786399999906 O
atom 8.4799519527470242 5.7188487026438359 24.5566797074269481 O
atom 9.0973600971292150 9.2039220857761901 26.1494337112134509 Pt
atom 2.2743472917850327 2.3009883315403759 27.7421953937134695 Pt
atom 1.6568813926076122 1.1841144284282958 26.1494366424999960 O
atom 2.8917829509643940 3.4178678081240350 26.1494327349269504 O
atom 0.6174388343914005 3.4850997888941264 27.7422266349999909 O
atom 3.9312493791758030 1.1168686641887786 27.7422238224269329 O
atom 0.0000261435624631 4.6019556657636800 26.1494323662134533 Pt
atom 2.2743485053498675 6.9029508315402088 27.7422158387134594 Pt
atom 1.6569260261749366 5.7860840684130208 26.1494371974999993 O
atom 2.8917849545208463 8.0198062481236168 26.1494310899269209 O
atom 0.6174374579547590 8.0870580488949120 27.7422014799999879 O
atom 3.9312591727428732 5.7188375741856703 27.7422006374269365 O
atom 4.5486598800059079 0.0000161407811020 26.1494313212134841 Pt
atom 6.8230184817823245 2.3009797665450087 27.7422089137134584 Pt
atom 6.2055823926078864 1.1841144234225629 26.1494312724999958 O
atom 7.4404776209551544 3.4178405031204999 26.1494340649269184 O
atom 5.1661142143915848 3.4850995238973379 27.7422054049999964 O
atom 8.4799282691760922 1.1168686991907664 27.7422032224269337 O
atom 4.5486974235688828 4.6019733007683064 26.1494246062134721 Pt
atom 6.8230379253501638 6.9029508865384903 27.7422287787134643 Pt
atom 6.2056038461828482 5.7861059834153643 26.1494326875000169 O
atom 7.4404578145186457 8.0197991431276829 26.1494321899269089 O
atom 5.1661295379591312 8.0870698038922981 27.7421847799999988 O
atom 8.4799548027466258 5.7188475491818167 27.7421862274269451 O
