#===============================================================================
# Created using the Atomic Simulation Environment (ASE)

# Mon Mar 23 14:01:21 2026

#=======================================================
lattice_vector 6.3710923900000003 0.0000000000000000 0.0000000000000000 
lattice_vector 0.0000000388927909 12.9411912842237733 0.0000000000000000 
lattice_vector 0.0000000000000000 0.0000000000000000 45.3888628693726304 
atom 1.5927668372231956 9.6305344905667933 16.2242597736717293 Pt
atom 6.3710905007293173 9.9908550569939045 15.0000000000000000 O
atom 1.5927722935060475 7.6236104660133366 15.8782542799264483 O
atom 1.5927704927768140 3.1599531515739749 16.2242679923583530 Pt
atom 0.0000021762828962 3.5202535416850012 15.0000061707683514 O
atom 1.5927681490596703 1.1530277110106797 15.8782591598384144 O
atom 0.0000028544463947 12.8658309796375132 16.2242580953476860 Pt
atom 3.1855475000000295 6.3952417789208758 16.2242502803011561 Pt
atom 3.1855510007292338 9.9908379801409115 15.0000206332860397 O
atom 4.7783152735060641 7.6236200526021536 15.8782558277684878 O
atom 4.7783226927768032 3.1599412874118351 16.2242604843854643 Pt
atom 3.1855450562828449 3.5202262181033026 15.0000014012523479 O
atom 4.7783191790596398 1.1530147155965145 15.8782589144593338 O
atom 6.3710861899999660 6.3952487085883538 16.2242855139527933 Pt
atom 1.5927877727767832 6.3575656600410229 19.4593510720663723 Pt
atom 0.0000002862828147 6.7178570594817941 18.2351031566493305 O
atom 0.0000039392707225 5.9972602966721498 20.6835987011088029 O
atom 1.5927545290596401 4.3506426666628748 19.1133445731455645 O
atom 1.5927548464939234 8.3644892276678267 19.8053597451854273 O
atom 0.0000022155535382 3.1222414974341204 19.4593461473990672 Pt
atom 1.5927667983303948 3.0845864739724491 22.6944210824565289 Pt
atom 6.3710904618365163 3.4449070403995607 21.4701613087847960 O
atom 0.0000051737170962 9.2702442874704136 17.4485402518030277 O
atom 1.5927722546132468 1.0776624494189910 22.3484155887112479 O
atom 1.5927729709403009 11.6374577013044931 16.5702835911967803 O
atom 0.0000008200000306 9.5928869292629155 19.4593525715733549 Pt
atom 1.5927704927768043 9.5551964192034031 22.6944293011431455 Pt
atom 0.0000021762828862 9.9154968093144298 21.4701674795531474 O
atom 6.3710907492707296 2.7996486798292244 17.4485264384385879 O
atom 1.5927681490596606 7.5482709786401072 22.3484204686232104 O
atom 1.5927704964939569 5.1668768957382083 16.5702754926882818 O
atom 0.0000028155535938 6.3198829630431677 22.6944194041324820 Pt
atom 1.5927490672231783 12.8281641239899553 19.4593540336471449 Pt
atom 6.3710919518365294 0.2472798634752944 18.2350714260360185 O
atom 0.0000003637170238 12.4678509923816065 20.6836363652725055 O
atom 1.5927924335060351 10.8212378832674379 19.1133441782170586 O
atom 1.5927934720474997 1.8938971640296727 19.8053760615745205 O
atom 3.1855475000000197 12.7904850465503053 22.6944115890859521 Pt
atom 4.7783091727767708 6.3575662074143278 19.4593566473494981 Pt
atom 3.1855504262828402 6.7178362703229482 18.2350703454961334 O
atom 3.1855465092706861 5.9972709321274849 20.6836253507033518 O
atom 4.7783404090596342 4.3506425931838590 19.1133462627316533 O
atom 4.7783376064939320 8.3644911827296120 19.8053567301012485 O
atom 3.1855461355536256 3.1222938344236919 19.4593589681526709 Pt
atom 4.7783296372231874 9.6305424720048158 16.2242710350503003 Pt
atom 3.1855509618364333 3.4448899635465651 21.4701819420708375 O
atom 3.1855448837171791 9.2702648638336882 17.4485233866236484 O
atom 4.7783152346132631 1.0776720360078085 22.3484171365532873 O
atom 4.7783144409403278 11.6374689199972732 16.5702817260875008 O
atom 3.1855451099999335 9.5928360265207395 19.4593448150703736 Pt
atom 4.7783226927767926 9.5551845550412633 22.6944217931702639 Pt
atom 3.1855450562828351 9.9154694857327321 21.4701627100371439 O
atom 3.1855478392707766 2.7996758461511249 17.4485327132018604 O
atom 4.7783191790596300 7.5482579832259438 22.3484202232441298 O
atom 4.7783170064939382 5.1668655592295671 16.5702720890766955 O
atom 3.1855384144463659 12.8658416281556072 16.2242812872075035 Pt
atom 4.7783425772231816 12.8281675042626819 19.4593552059337256 Pt
atom 3.1855464518363683 0.2472480265395328 18.2351119211964878 O
atom 3.1855459837171960 12.4678833470633439 20.6835907465157263 O
atom 4.7782985735060226 10.8212386335984316 19.1133501153125174 O
atom 4.7782999920475016 1.8938999782973704 19.8053772871346325 O
atom 6.3710861899999562 12.7904919762177816 22.6944468227375893 Pt
atom 1.5927877727767732 12.7528089276704524 25.9295123808511754 Pt
atom 0.0000002473900138 0.1719090428874496 24.7052644654341300 O
atom 0.0000039392707126 12.3925035643015811 27.1537600098935989 O
atom 1.5927545290596301 10.7458859342923034 25.5835058819303640 O
atom 1.5927548076011220 1.8185412110734833 26.2755210539702304 O
atom 0.0000022155535283 9.5174847650635481 25.9295074561838668 Pt
atom 1.5927667983303844 9.4798297416018755 29.1645823912413249 Pt
atom 6.3710904618365047 9.8401503080289885 27.9403226175695920 O
atom 0.0000051348242954 2.7242962708760690 23.9187015605878273 O
atom 1.5927722546132368 7.4729057170484214 28.8185768974960439 O
atom 1.5927729320475001 5.0915096847101493 23.0404448999815763 O
atom 0.0000007811072298 3.0469389126685713 25.9295138803581544 Pt
atom 1.5927704538840028 3.0092484026090580 29.1645906099279486 Pt
atom 0.0000021373900854 3.3695487927200856 27.9403287883379434 O
atom 6.3710907492707198 9.1948919474586521 23.9186877472233874 O
atom 1.5927681101668598 1.0023229620457648 28.8185817774080135 O
atom 1.5927704964939469 11.5621201633676378 23.0404368014730778 O
atom 0.0000028155535839 12.7151262306725954 29.1645807129172816 Pt
atom 1.5927490283303776 6.2822161073956098 25.9295153424319480 Pt
atom 6.3710919518365206 6.6425231311047233 24.7052327348208181 O
atom 0.0000003248242229 5.9219029757872628 27.1537976740573015 O
atom 1.5927923946132343 4.2752898666730914 25.5835054870018581 O
atom 1.5927934720474897 8.2891404316591011 26.2755373703593200 O
atom 3.1855474611072192 6.2445370299559588 29.1645728978707517 Pt
atom 4.7783091727767610 12.7528094750437564 25.9295179561342977 Pt
atom 3.1855503873900397 0.1718882537286056 24.7052316542809294 O
atom 3.1855465092706754 12.3925141997569117 27.1537866594881514 O
atom 4.7783404090596244 10.7458858608132868 25.5835075715164493 O
atom 4.7783375676011319 1.8185431661352667 26.2755180388860481 O
atom 3.1855461355536150 9.5175371020531223 25.9295202769374740 Pt
atom 4.7783295983303864 3.0845944554104712 22.6944323438350963 Pt
atom 3.1855509618364222 9.8401332311759937 27.9403432508556335 O
atom 3.1855448448243777 2.7243168472393449 23.9186846954084444 O
atom 4.7783152346132534 7.4729153036372393 28.8185784453380833 O
atom 4.7783144020475277 5.0915209034029285 23.0404430348722968 O
atom 3.1855450711071320 3.0468880099263949 25.9295061238551661 Pt
atom 4.7783226538839925 3.0092365384469177 29.1645831019550599 Pt
atom 3.1855450173900346 3.3695214691383857 27.9403240188219435 O
atom 3.1855478392707672 9.1949191137805535 23.9186940219866599 O
atom 4.7783191401668299 1.0023099666315982 28.8185815320289258 O
atom 4.7783170064939275 11.5621088268589940 23.0404333978614915 O
atom 3.1855383755535644 6.3198936115612634 22.6944425959922995 Pt
atom 4.7783425383303806 6.2822194876683373 25.9295165147185251 Pt
atom 3.1855464518363590 6.6424912941689609 24.7052732299812874 O
atom 3.1855459448243950 5.9219353304690010 27.1537520553005258 O
atom 4.7782985346132207 4.2752906170040896 25.5835114240973169 O
atom 4.7782999920474909 8.2891432459267982 26.2755385959194321 O
atom 6.3710861511071561 6.2445439596234404 29.1646081315223888 Pt
atom 0.0000051348242854 9.1195395385054994 30.3888628693726268 O
atom 1.5927729320474902 11.4867529523395770 29.5106062087663723 O
atom 6.3710907103779197 2.6489439308643101 30.3888490560081834 O
atom 1.5927704576011459 5.0161721467732949 29.5105981102578738 O
atom 4.7783295983303766 9.4798377230399016 29.1645936526198923 Pt
atom 3.1855448448243679 9.1195601148687739 30.3888460041932440 O
atom 4.7783144020475179 11.4867641710323589 29.5106043436570928 O
atom 3.1855478003779658 2.6489710971862088 30.3888553307714560 O
atom 4.7783169676011275 5.0161608102646529 29.5105947066462875 O
atom 3.1855383755535556 12.7151368791906929 29.1646039047770955 Pt
