#===============================================================================
# Created using the Atomic Simulation Environment (ASE)

# Mon Mar 23 14:01:22 2026

#=======================================================
lattice_vector 11.2383934762033828 0.0000000000000000 0.0000000000000000 
lattice_vector 3.7416502063603971 10.5972441125269068 0.0000000000000000 
lattice_vector 0.0000000000000000 0.0000000000000000 36.8810607492572444 
atom 8.4355181438485651 5.9674960480428769 17.2936883611722614 Pt
atom 7.2753254139380239 7.6075166037332966 17.2936850388440391 O
atom 9.5957086741799476 4.3274717795906783 17.2936825310444497 O
atom 8.6569366469715341 6.1241375917565266 15.2730418554093674 O
atom 10.0849214745496774 7.1343291581707629 17.0206527723722232 O
atom 10.3063447428073722 7.2909627435485156 15.0000050523685147 Pt
atom 5.6259238666167803 3.9799153154413074 16.1468491502634031 Pt
atom 9.1461503506840245 8.9309828855660136 15.0000012664420659 O
atom 11.4665313263518680 5.6509361680916488 15.0000017398194636 O
atom 6.7861195511369452 4.8006558871617973 17.5667239440595573 O
atom 8.4355179871634132 1.9923352178331355 15.0000026760879805 Pt
atom 7.4967436489985255 9.2785354222381482 16.1468421942204330 Pt
atom 7.2753319985740141 3.6323627511919119 15.0000093307549740 O
atom 9.5957128449927716 0.3523143658812810 15.0000059516115272 O
atom 8.6569405917836093 10.0992779927640850 17.5667205670731974 O
atom 6.5646934306748204 0.6688698806043322 17.2936852115874657 Pt
atom 5.6259210016507728 7.9550690190092705 18.4405259969314592 Pt
atom 5.4045067988851283 2.3088967337476887 17.2936934653167995 O
atom 11.4665394773137450 9.6260932645251955 17.2936880732517935 O
atom 6.7861041255472188 0.8255125959514117 15.2730350345443888 O
atom 8.2140940677546315 1.8357069837150251 17.0206506061452671 O
atom 4.6871446597380206 7.2909541712376358 15.0000000000000000 Pt
atom 11.2451139255133477 3.9799135396679226 16.1468397022108050 Pt
atom 3.5269543297876575 8.9309796381526461 15.0000009318184766 O
atom 5.8473396732767329 5.6509330829763229 15.0000031248170806 O
atom 12.4053039539144159 4.8006649213636878 17.5667187917084284 O
atom 2.8163209832150784 5.9674892746252644 17.2936840729056200 Pt
atom 9.3742879078257513 2.6564512050340987 18.4405247574167959 Pt
atom 12.8945240324792518 7.6075148115126634 17.2936833827817367 O
atom 3.9765146008117771 4.3274669823024103 17.2936875837041910 O
atom 3.0377435231434093 6.1241176068978564 15.2730355125314290 O
atom 4.4657348840454159 7.1343134573422313 17.0206517706238571 O
atom 0.9455038387131879 0.6688749316252358 17.2936928450807699 Pt
atom 11.2451190463146364 7.9550716886051189 18.4405285535118537 Pt
atom 11.0237030979646438 2.3088980818593341 17.2936914890818656 O
atom 5.8473439586052098 9.6260933172987801 17.2936924838124426 O
atom 1.1669237269959685 0.8255020983069350 15.2730418027569996 O
atom 2.5949133281600543 1.8356963314239045 17.0206582226348786 O
atom 2.8163290367637850 1.9923389384314585 15.0000123552044045 Pt
atom 13.1159449481549402 9.2785382460760157 16.1468460241772860 Pt
atom 1.6561353305915396 3.6323633161579361 15.0000076713132877 O
atom 3.9765203404377596 0.3523148013061300 15.0000076981045005 O
atom 14.2761319668850621 10.0992937176507667 17.5667256689863009 O
atom 4.6938693072154898 3.3205644084303660 21.8810556451127027 Pt
atom 3.7551004425910373 2.6564501210663729 18.4405338792807711 Pt
atom 3.5336765773049486 4.9605849641207866 21.8810523227844733 O
atom 5.8540598375468686 1.6805401399781716 21.8810498149848911 O
atom 4.9152878103384587 3.4772059521440162 19.8604091393498159 O
atom 6.3432726379166029 4.4873975185582555 21.6080200563126681 O
atom 6.5646959061743058 4.6440311039360047 19.5873723363089596 Pt
atom 1.8842750299837050 1.3329836758287985 20.7342164342038444 Pt
atom 5.4045015140509589 6.2840512459535036 19.5873685503825108 O
atom 7.7248824897187989 3.0040045284791401 19.5873690237599050 O
atom 8.2141109359753930 5.8108518065085573 19.3143391022976729 O
atom 8.4355193568907350 9.9426476907475330 19.5873699600284183 Pt
atom 3.7550948123654546 6.6316037826256382 20.7342094781608743 Pt
atom 3.5336831619409392 0.9854311115794033 19.5873766146954154 O
atom 9.5957142147200951 8.3026268387956783 19.5873732355519650 O
atom 6.3432797529486340 0.5122251157455041 19.3143326778032005 O
atom 6.5646948004021377 8.6191823535187311 21.8810524955279071 Pt
atom 5.4045081686124501 10.2592092066620868 21.8810607492572409 O
atom 7.7248906406806706 6.9791616249126864 21.8810553571922348 O
atom 6.7861054952745459 8.7758250688658084 19.8604023184848302 O
atom 8.2140954374819639 9.7860194566294219 21.6080178900857085 O
atom 12.1838892993083370 4.6440225316251240 19.5873672839404449 Pt
atom 7.5034650888802830 1.3329819000554102 20.7342069861512499 Pt
atom 11.0236989693579641 6.2840479985401361 19.5873682157589215 O
atom 2.1056908366436575 3.0040014433638129 19.5873704087575256 O
atom 2.5948977379189446 5.8108609457285434 19.3143337279235396 O
atom 10.3130656227853859 3.3205576350127566 21.8810513568460614 Pt
atom 9.1528751958461871 4.9605831719001534 21.8810506667221816 O
atom 11.4732592403820846 1.6805353426899023 21.8810548676446324 O
atom 10.5344881627137177 3.4771859672853460 19.8604027964718739 O
atom 11.9624795236157286 4.4873818177297231 21.6080190545642985 O
atom 12.1838986846439017 8.6191874045396322 21.8810601290212112 Pt
atom 11.0237044676919744 10.2592105547737305 21.8810587730223070 O
atom 13.3440885981755208 6.9791616776862684 21.8810597677528875 O
atom 12.4053185729266726 8.7758145712213320 19.8604090866974445 O
atom 13.8333081740907726 9.7860088043383016 21.6080255065753271 O
atom 14.0547238826944838 9.9426514113458548 19.5873796391448458 Pt
atom 9.3742961115218701 6.6316066064635049 20.7342133081177344 Pt
atom 9.1528799701618464 0.9854316765454247 19.5873749552537362 O
atom 3.9765217101650823 8.3026272742205283 19.5873749820449454 O
atom 0.7240792212104361 0.5122447052106659 19.3143405263015850 O
