#===============================================================================
# Created using the Atomic Simulation Environment (ASE)

# Mon Mar 23 14:01:21 2026

#=======================================================
lattice_vector 6.3710923900000003 0.0000000000000000 0.0000000000000000 
lattice_vector 0.0000000388927909 12.9411912842237733 0.0000000000000000 
lattice_vector 0.0000000000000000 0.0000000000000000 42.1537925238764970 
atom 1.5927877727767832 6.3575656600410229 16.2242807265702389 Pt
atom 0.0000002862828147 6.7178570594817941 15.0000328111531971 O
atom 0.0000039392707225 5.9972602966721498 17.4485283556126696 O
atom 1.5927545290596401 4.3506426666628748 15.8782742276494311 O
atom 1.5927548464939234 8.3644892276678267 16.5702893996892939 O
atom 0.0000022155535382 3.1222414974341204 16.2242758019029338 Pt
atom 1.5927667983303948 3.0845864739724491 19.4593507369603955 Pt
atom 6.3710904618365163 3.4449070403995607 18.2350909632886626 O
atom 1.5927722546132468 1.0776624494189910 19.1133452432151145 O
atom 0.0000008200000306 9.5928869292629155 16.2242822260772215 Pt
atom 1.5927704927768043 9.5551964192034031 19.4593589556470121 Pt
atom 0.0000021762828862 9.9154968093144298 18.2350971340570140 O
atom 1.5927681490596606 7.5482709786401072 19.1133501231270770 O
atom 0.0000028155535938 6.3198829630431677 19.4593490586363487 Pt
atom 1.5927490672231783 12.8281641239899553 16.2242836881510115 Pt
atom 6.3710919518365294 0.2472798634752944 15.0000010805398851 O
atom 0.0000003637170238 12.4678509923816065 17.4485660197763721 O
atom 1.5927924335060351 10.8212378832674379 15.8782738327209252 O
atom 1.5927934720474997 1.8938971640296727 16.5703057160783871 O
atom 3.1855475000000197 12.7904850465503053 19.4593412435898188 Pt
atom 4.7783091727767708 6.3575662074143278 16.2242863018533647 Pt
atom 3.1855504262828402 6.7178362703229482 15.0000000000000000 O
atom 3.1855465092706861 5.9972709321274849 17.4485550052072185 O
atom 4.7783404090596342 4.3506425931838590 15.8782759172355199 O
atom 4.7783376064939320 8.3644911827296120 16.5702863846051152 O
atom 3.1855461355536256 3.1222938344236919 16.2242886226565375 Pt
atom 3.1855509618364333 3.4448899635465651 18.2351115965747042 O
atom 4.7783152346132631 1.0776720360078085 19.1133467910571540 O
atom 3.1855451099999335 9.5928360265207395 16.2242744695742402 Pt
atom 4.7783226927767926 9.5551845550412633 19.4593514476741305 Pt
atom 3.1855450562828351 9.9154694857327321 18.2350923645410106 O
atom 4.7783191790596300 7.5482579832259438 19.1133498777479964 O
atom 4.7783425772231816 12.8281675042626819 16.2242848604375922 Pt
atom 3.1855464518363683 0.2472480265395328 15.0000415757003545 O
atom 3.1855459837171960 12.4678833470633439 17.4485204010195929 O
atom 4.7782985735060226 10.8212386335984316 15.8782797698163840 O
atom 4.7782999920475016 1.8938999782973704 16.5703069416384992 O
atom 6.3710861899999562 12.7904919762177816 19.4593764772414559 Pt
atom 1.5927877727767732 12.7528089276704524 22.6944420353550420 Pt
atom 0.0000002473900138 0.1719090428874496 21.4701941199379966 O
atom 0.0000039392707126 12.3925035643015811 23.9186896643974656 O
atom 1.5927545290596301 10.7458859342923034 22.3484355364342306 O
atom 1.5927548076011220 1.8185412110734833 23.0404507084740970 O
atom 0.0000022155535283 9.5174847650635481 22.6944371106877334 Pt
atom 1.5927667983303844 9.4798297416018755 25.9295120457451915 Pt
atom 6.3710904618365047 9.8401503080289885 24.7052522720734586 O
atom 0.0000051348242954 2.7242962708760690 20.6836312150916939 O
atom 1.5927722546132368 7.4729057170484214 25.5835065519999105 O
atom 1.5927729320475001 5.0915096847101493 19.8053745544854429 O
atom 0.0000007811072298 3.0469389126685713 22.6944435348620210 Pt
atom 1.5927704538840028 3.0092484026090580 25.9295202644318152 Pt
atom 0.0000021373900854 3.3695487927200856 24.7052584428418101 O
atom 6.3710907492707198 9.1948919474586521 20.6836174017272540 O
atom 1.5927681101668598 1.0023229620457648 25.5835114319118802 O
atom 1.5927704964939469 11.5621201633676378 19.8053664559769445 O
atom 0.0000028155535839 12.7151262306725954 25.9295103674211482 Pt
atom 1.5927490283303776 6.2822161073956098 22.6944449969358146 Pt
atom 6.3710919518365206 6.6425231311047233 21.4701623893246847 O
atom 0.0000003248242229 5.9219029757872628 23.9187273285611681 O
atom 1.5927923946132343 4.2752898666730914 22.3484351415057247 O
atom 1.5927934720474897 8.2891404316591011 23.0404670248631867 O
atom 3.1855474611072192 6.2445370299559588 25.9295025523746183 Pt
atom 4.7783091727767610 12.7528094750437564 22.6944476106381643 Pt
atom 3.1855503873900397 0.1718882537286056 21.4701613087847960 O
atom 3.1855465092706754 12.3925141997569117 23.9187163139920180 O
atom 4.7783404090596244 10.7458858608132868 22.3484372260203159 O
atom 4.7783375676011319 1.8185431661352667 23.0404476933899147 O
atom 3.1855461355536150 9.5175371020531223 22.6944499314413406 Pt
atom 4.7783295983303864 3.0845944554104712 19.4593619983389630 Pt
atom 3.1855509618364222 9.8401332311759937 24.7052729053595002 O
atom 3.1855448448243777 2.7243168472393449 20.6836143499123111 O
atom 4.7783152346132534 7.4729153036372393 25.5835080998419500 O
atom 4.7783144020475277 5.0915209034029285 19.8053726893761635 O
atom 3.1855450711071320 3.0468880099263949 22.6944357783590327 Pt
atom 4.7783226538839925 3.0092365384469177 25.9295127564589265 Pt
atom 3.1855450173900346 3.3695214691383857 24.7052536733258101 O
atom 3.1855478392707672 9.1949191137805535 20.6836236764905266 O
atom 4.7783191401668299 1.0023099666315982 25.5835111865327924 O
atom 4.7783170064939275 11.5621088268589940 19.8053630523653581 O
atom 3.1855383755535644 6.3198936115612634 19.4593722504961661 Pt
atom 4.7783425383303806 6.2822194876683373 22.6944461692223918 Pt
atom 3.1855464518363590 6.6424912941689609 21.4702028844851540 O
atom 3.1855459448243950 5.9219353304690010 23.9186817098043925 O
atom 4.7782985346132207 4.2752906170040896 22.3484410786011836 O
atom 4.7782999920474909 8.2891432459267982 23.0404682504232987 O
atom 6.3710861511071561 6.2445439596234404 25.9295377860262555 Pt
atom 0.0000051348242854 9.1195395385054994 27.1537925238764934 O
atom 1.5927729320474902 11.4867529523395770 26.2755358632702389 O
atom 6.3710907103779197 2.6489439308643101 27.1537787105120501 O
atom 1.5927704576011459 5.0161721467732949 26.2755277647617405 O
atom 4.7783295983303766 9.4798377230399016 25.9295233071237590 Pt
atom 3.1855448448243679 9.1195601148687739 27.1537756586971106 O
atom 4.7783144020475179 11.4867641710323589 26.2755339981609595 O
atom 3.1855478003779658 2.6489710971862088 27.1537849852753226 O
atom 4.7783169676011275 5.0161608102646529 26.2755243611501541 O
atom 3.1855383755535556 12.7151368791906929 25.9295335592809622 Pt
