#===============================================================================
# Created using the Atomic Simulation Environment (ASE)

# Mon Mar 23 14:01:18 2026

#=======================================================
lattice_vector 9.0973690600005526 0.0000000000000000 0.0000000000000000 
lattice_vector 0.0000063071332193 9.2039351799983606 0.0000000000000000 
lattice_vector 0.0000000000000000 0.0000000000000000 37.9638965624999969 
atom 0.0000146600023625 0.0000067592284797 18.1855477950000086 Pt
atom 1.6569233561656542 5.7860574318750286 18.1855520912865067 O
atom 7.4404540609603531 3.4178554265897829 18.1855523687134664 O
atom 6.2055974261650437 5.7860548868786710 18.1855535812864950 O
atom 9.0973600971292221 9.2039221126983310 15.0000091049999824 Pt
atom 2.2743472917850398 2.3009883584625150 16.5927707875000010 Pt
atom 1.6568813926076194 1.1841144553504355 15.0000120362865275 O
atom 2.8917829509644011 3.4178678350461746 15.0000081287134819 O
atom 0.6174388343914073 3.4850998158162660 16.5928020287865330 O
atom 3.9312493791758096 1.1168686911109182 16.5927992162134679 O
atom 0.0000261435624700 4.6019556926858192 15.0000077599999813 Pt
atom 2.2743485053498746 6.9029508584623480 16.5927912324999980 Pt
atom 1.6569260261749432 5.7860840953351600 15.0000125912865343 O
atom 2.8917849545208529 8.0198062750457577 15.0000064837134488 O
atom 0.6174374579547661 8.0870580758170512 16.5927768737865229 O
atom 3.9312591727428803 5.7188376011078104 16.5927760312134680 O
atom 4.5486598800059150 0.0000161677032416 15.0000067150000156 Pt
atom 6.8230184817823316 2.3009797934671483 16.5927843074999899 Pt
atom 6.2055823926078943 1.1841144503447025 15.0000066662865308 O
atom 7.4404776209551624 3.4178405300426395 15.0000094587134534 O
atom 5.1661142143915919 3.4850995508194775 16.5927807987865279 O
atom 8.4799282691760993 1.1168687261129060 16.5927786162134687 O
atom 4.5486974235688908 4.6019733276904446 15.0000000000000000 Pt
atom 6.8230379253501718 6.9029509134606286 16.5928041724999957 Pt
atom 6.2056038461828544 5.7861060103375035 15.0000080812865555 O
atom 7.4404578145186520 8.0197991700498221 15.0000075837134439 O
atom 5.1661295379591374 8.0870698308144373 16.5927601737865267 O
atom 8.4799548027466329 5.7188475761039559 16.5927616212134765 O
atom 2.2743429417838050 2.3009848150029342 19.7783417774999997 Pt
atom 1.6569193426105013 1.1841227218761461 18.1855542862865356 O
atom 2.8917565209605041 3.4178566515943096 18.1855579487134698 O
atom 0.6174376843909719 3.4850985623556401 19.7783085387865292 O
atom 3.9312501491770302 1.1168721876496202 19.7783088462134700 O
atom 9.0973492935728473 4.6019838892407448 18.1855562300000173 Pt
atom 2.2743348853490910 6.9029486050060429 19.7783208224999960 Pt
atom 2.8917824845300801 8.0198327515855397 18.1855591637134815 O
atom 0.6174296179567593 8.0870637923587108 19.7783262837865230 O
atom 3.9312526127461136 5.7188468776490220 19.7783269512134794 O
atom 4.5487074871284161 9.2039205842261378 18.1855548149999855 Pt
atom 6.8230321617812253 2.3009766200013178 19.7783244974999874 Pt
atom 6.2056049926022867 1.1840983568757539 18.1855561762865072 O
atom 5.1661235243884258 3.4850904673551693 19.7783221587865157 O
atom 8.4799386591741204 1.1168630426482162 19.7783244962134575 O
atom 4.5486734435658462 4.6019645842377201 18.1855568299999923 Pt
atom 6.8230347153507171 6.9029524800007298 19.7783030524999930 Pt
atom 7.4404675145378407 8.0198542365853722 18.1855543537135063 O
atom 5.1661247879578660 8.0870661773549823 19.7783464237865232 O
atom 8.4799519527470242 5.7188487026438359 19.7783474912134807 O
atom 9.0973600971292150 9.2039220857761901 21.3711014949999836 Pt
atom 2.2743472917850327 2.3009883315403759 22.9638631775000022 Pt
atom 1.6568813926076122 1.1841144284282958 21.3711044262865286 O
atom 2.8917829509643940 3.4178678081240350 21.3711005187134830 O
atom 0.6174388343914005 3.4850997888941264 22.9638944187865235 O
atom 3.9312493791758030 1.1168686641887786 22.9638916062134655 O
atom 0.0000261435624631 4.6019556657636800 21.3711001499999860 Pt
atom 2.2743485053498675 6.9029508315402088 22.9638836224999920 Pt
atom 1.6569260261749366 5.7860840684130208 21.3711049812865319 O
atom 2.8917849545208463 8.0198062481236168 21.3710988737134535 O
atom 0.6174374579547590 8.0870580488949120 22.9638692637865205 O
atom 3.9312591727428732 5.7188375741856703 22.9638684212134692 O
atom 4.5486598800059079 0.0000161407811020 21.3710991050000167 Pt
atom 6.8230184817823245 2.3009797665450087 22.9638766974999911 Pt
atom 6.2055823926078864 1.1841144234225629 21.3710990562865284 O
atom 7.4404776209551544 3.4178405031204999 21.3711018487134510 O
atom 5.1661142143915848 3.4850995238973379 22.9638731887865291 O
atom 8.4799282691760922 1.1168686991907664 22.9638710062134663 O
atom 4.5486974235688828 4.6019733007683064 21.3710923900000047 Pt
atom 6.8230379253501638 6.9029508865384903 22.9638965624999969 Pt
atom 6.2056038461828482 5.7861059834153643 21.3711004712865495 O
atom 7.4404578145186457 8.0197991431276829 21.3710999737134415 O
atom 5.1661295379591312 8.0870698038922981 22.9638525637865314 O
atom 8.4799548027466258 5.7188475491818167 22.9638540112134777 O
