#===============================================================================
# Created using the Atomic Simulation Environment (ASE)

# Mon Mar 23 14:01:22 2026

#=======================================================
lattice_vector 11.2383934762033828 0.0000000000000000 0.0000000000000000 
lattice_vector 3.7416502063603971 10.5972441125269068 0.0000000000000000 
lattice_vector 0.0000000000000000 0.0000000000000000 41.1953929986532970 
atom 12.1771669804816369 8.6144276876553842 17.0206533266278690 Pt
atom 11.0169742505710957 10.2544482433458075 17.0206500042996431 O
atom 13.3373575108130176 6.9744034192031892 17.0206474965000609 O
atom 12.3985854836046112 8.7710692313690348 15.0000068208649822 O
atom 13.8265703111827545 9.7812607977832737 16.7476177378278344 O
atom 9.3675727032498486 6.6268469550538178 15.8738141157190107 Pt
atom 10.5277683877700259 7.4475875267743046 17.2936889095151685 O
atom 7.4967422792712055 1.3282229493237512 15.8738071596760406 Pt
atom 8.6569392220562822 2.1489655198496882 17.2936855325288086 O
atom 10.3063422673078957 3.3158015202168438 17.0206501770430734 Pt
atom 5.6259196319234492 0.0047565460948755 18.1674909623870704 Pt
atom 9.1461556355182037 4.9558283733601991 17.0206584307724071 O
atom 11.4665381075864179 1.6757807916107987 17.0206530387074011 O
atom 10.5277529621802994 3.4724442355639216 15.0000000000000000 O
atom 11.9557429043877139 4.4826386233275350 16.7476155716008748 O
atom 3.7483692859430384 6.6268451792804299 15.8738046676664126 Pt
atom 4.9085593143441102 7.4475965609761996 17.2936837571640361 O
atom 6.5579698198481493 8.6144209142377743 17.0206490383612312 Pt
atom 1.8775432682554494 5.3033828446466060 18.1674897228724106 Pt
atom 5.3977793929089408 10.2544464511251743 17.0206483482373443 O
atom 7.7181634374448507 6.9743986219149203 17.0206525491597986 O
atom 6.7793923597764847 8.7710492465103673 15.0000004779870366 O
atom 8.2073837206784912 9.7812450969547413 16.7476167360794648 O
atom 4.6871526753462733 3.3158065712377462 17.0206578105363775 Pt
atom 0.0067242003839275 0.0047592156907233 18.1674935189674613 Pt
atom 3.5269584583943399 4.9558297214718428 17.0206564545374732 O
atom 5.8473425888778872 1.6757808443843816 17.0206574492680538 O
atom 4.9085725636290389 3.4724337379194448 15.0000067682126108 O
atom 6.3365621647931318 4.4826279710364147 16.7476231880904862 O
atom 1.8775501022242314 1.3282257731616187 15.8738109896328972 Pt
atom 3.0377371209543584 2.1489812447363699 17.2936906344419121 O
atom 8.4355181438485651 5.9674960480428769 21.6080206105683139 Pt
atom 7.4967492792241028 5.3033817606788833 18.1674988447363788 Pt
atom 7.2753254139380239 7.6075166037332966 21.6080172882400916 O
atom 9.5957086741799476 4.3274717795906783 21.6080147804405023 O
atom 8.6569366469715341 6.1241375917565266 19.5873741048054200 O
atom 10.0849214745496774 7.1343291581707629 21.3349850217682757 O
atom 10.3063447428073722 7.2909627435485156 19.3143373017645672 Pt
atom 5.6259238666167803 3.9799153154413074 20.4611813996594556 Pt
atom 9.1461503506840245 8.9309828855660136 19.3143335158381184 O
atom 11.4665313263518680 5.6509361680916488 19.3143339892155161 O
atom 6.7861195511369452 4.8006558871617973 21.8810561934556098 O
atom 11.9557597726084648 8.4577834461210681 19.0413040677532805 O
atom 8.4355179871634132 1.9923352178331355 19.3143349254840331 Pt
atom 7.4967436489985255 9.2785354222381482 20.4611744436164855 Pt
atom 7.2753319985740141 3.6323627511919119 19.3143415801510265 O
atom 9.5957128449927716 0.3523143658812810 19.3143382010075797 O
atom 8.6569405917836093 10.0992779927640850 21.8810528164692499 O
atom 10.0849285895817076 3.1591567553580142 19.0412976432588117 O
atom 6.5646934306748204 0.6688698806043322 21.6080174609835183 Pt
atom 5.6259210016507728 7.9550690190092705 22.7548582463275118 Pt
atom 5.4045067988851283 2.3088967337476887 21.6080257147128521 O
atom 11.4665394773137450 9.6260932645251955 21.6080203226478460 O
atom 6.7861041255472188 0.8255125959514117 19.5873672839404414 O
atom 8.2140940677546315 1.8357069837150251 21.3349828555413197 O
atom 4.6871446597380206 7.2909541712376358 19.3143322493960525 Pt
atom 11.2451139255133477 3.9799135396679226 20.4611719516068575 Pt
atom 3.5269543297876575 8.9309796381526461 19.3143331812145291 O
atom 5.8473396732767329 5.6509330829763229 19.3143353742131332 O
atom 12.4053039539144159 4.8006649213636878 21.8810510411044810 O
atom 6.3365465745520204 8.4577925853410534 19.0412986933791473 O
atom 2.8163209832150784 5.9674892746252644 21.6080163223016726 Pt
atom 9.3742879078257513 2.6564512050340987 22.7548570068128484 Pt
atom 12.8945240324792518 7.6075148115126634 21.6080156321777892 O
atom 3.9765146008117771 4.3274669823024103 21.6080198331002435 O
atom 3.0377435231434093 6.1241176068978564 19.5873677619274815 O
atom 4.4657348840454159 7.1343134573422313 21.3349840200199097 O
atom 0.9455038387131879 0.6688749316252358 21.6080250944768224 Pt
atom 11.2451190463146364 7.9550716886051189 22.7548608029079062 Pt
atom 11.0237030979646438 2.3088980818593341 21.6080237384779181 O
atom 5.8473439586052098 9.6260933172987801 21.6080247332084951 O
atom 1.1669237269959685 0.8255020983069350 19.5873740521530522 O
atom 2.5949133281600543 1.8356963314239045 21.3349904720309311 O
atom 2.8163290367637850 1.9923389384314585 19.3143446046004570 Pt
atom 13.1159449481549402 9.2785382460760157 20.4611782735733385 Pt
atom 1.6561353305915396 3.6323633161579361 19.3143399207093402 O
atom 3.9765203404377596 0.3523148013061300 19.3143399475005531 O
atom 14.2761319668850621 10.0992937176507667 21.8810579183823535 O
atom 4.4657280578435117 3.1591763448231744 19.0413054917571927 O
atom 4.6938693072154898 3.3205644084303660 26.1953878945087553 Pt
atom 3.7551004425910373 2.6564501210663729 22.7548661286768237 Pt
atom 3.5336765773049486 4.9605849641207866 26.1953845721805259 O
atom 5.8540598375468686 1.6805401399781716 26.1953820643809436 O
atom 4.9152878103384587 3.4772059521440162 24.1747413887458684 O
atom 6.3432726379166029 4.4873975185582555 25.9223523057087206 O
atom 6.5646959061743058 4.6440311039360047 23.9017045857050121 Pt
atom 1.8842750299837050 1.3329836758287985 25.0485486835998969 Pt
atom 5.4045015140509589 6.2840512459535036 23.9017007997785633 O
atom 7.7248824897187989 3.0040045284791401 23.9017012731559575 O
atom 8.2141109359753930 5.8108518065085573 23.6286713516937255 O
atom 8.4355193568907350 9.9426476907475330 23.9017022094244709 Pt
atom 3.7550948123654546 6.6316037826256382 25.0485417275569269 Pt
atom 3.5336831619409392 0.9854311115794033 23.9017088640914679 O
atom 9.5957142147200951 8.3026268387956783 23.9017054849480175 O
atom 6.3432797529486340 0.5122251157455041 23.6286649271992530 O
atom 6.5646948004021377 8.6191823535187311 26.1953847449239596 Pt
atom 5.4045081686124501 10.2592092066620868 26.1953929986532934 O
atom 7.7248906406806706 6.9791616249126864 26.1953876065882874 O
atom 6.7861054952745459 8.7758250688658084 24.1747345678808827 O
atom 8.2140954374819639 9.7860194566294219 25.9223501394817610 O
atom 12.1838892993083370 4.6440225316251240 23.9016995333364974 Pt
atom 7.5034650888802830 1.3329819000554102 25.0485392355473024 Pt
atom 11.0236989693579641 6.2840479985401361 23.9017004651549740 O
atom 2.1056908366436575 3.0040014433638129 23.9017026581535781 O
atom 2.5948977379189446 5.8108609457285434 23.6286659773195922 O
atom 10.3130656227853859 3.3205576350127566 26.1953836062421139 Pt
atom 9.1528751958461871 4.9605831719001534 26.1953829161182341 O
atom 11.4732592403820846 1.6805353426899023 26.1953871170406849 O
atom 10.5344881627137177 3.4771859672853460 24.1747350458679264 O
atom 11.9624795236157286 4.4873818177297231 25.9223513039603510 O
atom 12.1838986846439017 8.6191874045396322 26.1953923784172638 Pt
atom 11.0237044676919744 10.2592105547737305 26.1953910224183595 O
atom 13.3440885981755208 6.9791616776862684 26.1953920171489401 O
atom 12.4053185729266726 8.7758145712213320 24.1747413360934971 O
atom 13.8333081740907726 9.7860088043383016 25.9223577559713796 O
atom 14.0547238826944838 9.9426514113458548 23.9017118885408983 Pt
atom 9.3742961115218701 6.6316066064635049 25.0485455575137870 Pt
atom 9.1528799701618464 0.9854316765454247 23.9017072046497887 O
atom 3.9765217101650823 8.3026272742205283 23.9017072314409980 O
atom 0.7240792212104361 0.5122447052106659 23.6286727756976376 O
