#===============================================================================
# Created using the Atomic Simulation Environment (ASE)

# Mon Mar 23 14:01:18 2026

#=======================================================
lattice_vector 9.0973690600005526 0.0000000000000000 0.0000000000000000 
lattice_vector 0.0000063071332193 9.2039351799983606 0.0000000000000000 
lattice_vector 0.0000000000000000 0.0000000000000000 47.5205335474999941 
atom 0.0000146600023764 0.0000068130727589 15.0000000000000000 Pt
atom 1.6569233561656680 5.7860574857193079 15.0000042962864981 O
atom 7.4404540609603682 3.4178554804340626 15.0000045737134649 O
atom 6.2055974261650571 5.7860549407229511 15.0000057862864935 O
atom 0.0000146600023695 0.0000067861506193 21.3710923900000012 Pt
atom 2.2743429417838192 2.3009848688472134 16.5927939824999946 Pt
atom 1.6569193426105155 1.1841227757204251 15.0000064912865341 O
atom 2.8917565209605183 3.4178567054385893 15.0000101537134665 O
atom 0.6174376843909859 3.4850986161999189 16.5927607437865241 O
atom 3.9312501491770440 1.1168722414938992 16.5927610512134649 O
atom 9.0973492935728615 4.6019839430850231 15.0000084350000105 Pt
atom 2.2743348853491052 6.9029486588503213 16.5927730274999909 Pt
atom 1.6569233561656611 5.7860574587971678 21.3710966862864993 O
atom 2.8917824845300943 8.0198328054298180 15.0000113687134764 O
atom 0.6174296179567732 8.0870638462029891 16.5927784887865215 O
atom 3.9312526127461278 5.7188469314933013 16.5927791562134743 O
atom 4.5487074871284294 9.2039206380704179 15.0000070199999787 Pt
atom 6.8230321617812395 2.3009766738455966 16.5927767024999859 Pt
atom 6.2056049926023009 1.1840984107200330 15.0000083812865075 O
atom 7.4404540609603611 3.4178554535119230 21.3710969637134625 O
atom 5.1661235243884400 3.4850905211994485 16.5927743637865142 O
atom 8.4799386591741310 1.1168630964924955 16.5927767012134559 O
atom 4.5486734435658605 4.6019646380819985 15.0000090349999908 Pt
atom 6.8230347153507296 6.9029525338450091 16.5927552574999950 Pt
atom 6.2055974261650491 5.7860549138008119 21.3710981762864947 O
atom 7.4404675145378558 8.0198542904296506 15.0000065587134994 O
atom 5.1661247879578802 8.0870662311992607 16.5927986287865252 O
atom 8.4799519527470384 5.7188487564881161 16.5927996962134756 O
atom 9.0973600971292292 9.2039221396204702 18.1855536999999821 Pt
atom 2.2743472917850469 2.3009883853846551 19.7783153824999971 Pt
atom 1.6568813926076265 1.1841144822725749 18.1855566312865236 O
atom 2.8917829509644077 3.4178678619683143 18.1855527237134780 O
atom 0.6174388343914143 3.4850998427384061 19.7783466237865255 O
atom 3.9312493791758167 1.1168687180330577 19.7783438112134604 O
atom 0.0000261435624770 4.6019557196079592 18.1855523549999845 Pt
atom 2.2743485053498818 6.9029508853844872 19.7783358274999941 Pt
atom 1.6569260261749501 5.7860841222572992 18.1855571862865268 O
atom 2.8917849545208600 8.0198063019678969 18.1855510787134484 O
atom 0.6174374579547731 8.0870581027391903 19.7783214687865154 O
atom 3.9312591727428874 5.7188376280299495 19.7783206262134641 O
atom 4.5486598800059213 0.0000161946253812 18.1855513100000152 Pt
atom 6.8230184817823369 2.3009798203892879 19.7783289024999895 Pt
atom 6.2055823926079006 1.1841144772668422 18.1855512612865269 O
atom 7.4404776209551686 3.4178405569647796 18.1855540537134459 O
atom 5.1661142143915990 3.4850995777416172 19.7783253937865240 O
atom 8.4799282691761064 1.1168687530350454 19.7783232112134613 O
atom 4.5486974235688979 4.6019733546125847 18.1855445949999996 Pt
atom 6.8230379253501781 6.9029509403827687 19.7783487674999918 Pt
atom 6.2056038461828624 5.7861060372596436 18.1855526762865516 O
atom 7.4404578145186591 8.0197991969719613 18.1855521787134400 O
atom 5.1661295379591454 8.0870698577365783 19.7783047687865299 O
atom 8.4799548027466400 5.7188476030260942 19.7783062162134726 O
atom 0.0000146600023625 0.0000067592284797 27.7421847800000059 Pt
atom 2.2743429417838121 2.3009848419250734 22.9638863724999993 Pt
atom 1.6569193426105084 1.1841227487982855 21.3710988812865352 O
atom 2.8917565209605112 3.4178566785164493 21.3711025437134694 O
atom 0.6174376843909789 3.4850985892777793 22.9638531337865288 O
atom 3.9312501491770369 1.1168722145717598 22.9638534412134661 O
atom 9.0973492935728544 4.6019839161628848 21.3711008250000134 Pt
atom 2.2743348853490981 6.9029486319281821 22.9638654174999886 Pt
atom 1.6569233561656542 5.7860574318750286 27.7421890762865040 O
atom 2.8917824845300872 8.0198327785076788 21.3711037587134740 O
atom 0.6174296179567662 8.0870638192808499 22.9638708787865227 O
atom 3.9312526127461207 5.7188469045711621 22.9638715462134755 O
atom 4.5487074871284223 9.2039206111482788 21.3710994099999780 Pt
atom 6.8230321617812333 2.3009766469234574 22.9638690924999871 Pt
atom 6.2056049926022929 1.1840983837978933 21.3711007712865069 O
atom 7.4404540609603531 3.4178554265897829 27.7421893537134636 O
atom 5.1661235243884338 3.4850904942773089 22.9638667537865189 O
atom 8.4799386591741257 1.1168630695703559 22.9638690912134606 O
atom 4.5486734435658533 4.6019646111598593 21.3711014249999920 Pt
atom 6.8230347153507243 6.9029525069228699 22.9638476474999962 Pt
atom 6.2055974261650437 5.7860548868786710 27.7421905662864923 O
atom 7.4404675145378478 8.0198542635075114 21.3710989487135024 O
atom 5.1661247879578731 8.0870662042771215 22.9638910187865264 O
atom 8.4799519527470313 5.7188487295659760 22.9638920862134768 O
atom 9.0973600971292221 9.2039221126983310 24.5566460899999797 Pt
atom 2.2743472917850398 2.3009883584625150 26.1494077724999983 Pt
atom 1.6568813926076194 1.1841144553504355 24.5566490212865247 O
atom 2.8917829509644011 3.4178678350461746 24.5566451137134791 O
atom 0.6174388343914073 3.4850998158162660 26.1494390137865302 O
atom 3.9312493791758096 1.1168686911109182 26.1494362012134651 O
atom 0.0000261435624700 4.6019556926858192 24.5566447449999785 Pt
atom 2.2743485053498746 6.9029508584623480 26.1494282174999952 Pt
atom 1.6569260261749432 5.7860840953351600 24.5566495762865316 O
atom 2.8917849545208529 8.0198062750457577 24.5566434687134461 O
atom 0.6174374579547661 8.0870580758170512 26.1494138587865201 O
atom 3.9312591727428803 5.7188376011078104 26.1494130162134653 O
atom 4.5486598800059150 0.0000161677032416 24.5566437000000128 Pt
atom 6.8230184817823316 2.3009797934671483 26.1494212924999871 Pt
atom 6.2055823926078943 1.1841144503447025 24.5566436512865280 O
atom 7.4404776209551624 3.4178405300426395 24.5566464437134506 O
atom 5.1661142143915919 3.4850995508194775 26.1494177837865251 O
atom 8.4799282691760993 1.1168687261129060 26.1494156012134660 O
atom 4.5486974235688908 4.6019733276904446 24.5566369849999973 Pt
atom 6.8230379253501718 6.9029509134606286 26.1494411574999930 Pt
atom 6.2056038461828544 5.7861060103375035 24.5566450662865527 O
atom 7.4404578145186520 8.0197991700498221 24.5566445687134411 O
atom 5.1661295379591374 8.0870698308144373 26.1493971587865239 O
atom 8.4799548027466329 5.7188475761039559 26.1493986062134738 O
atom 2.2743429417838050 2.3009848150029342 29.3349787624999969 Pt
atom 1.6569193426105013 1.1841227218761461 27.7421912712865328 O
atom 2.8917565209605041 3.4178566515943096 27.7421949337134670 O
atom 0.6174376843909719 3.4850985623556401 29.3349455237865264 O
atom 3.9312501491770302 1.1168721876496202 29.3349458312134672 O
atom 9.0973492935728473 4.6019838892407448 27.7421932150000146 Pt
atom 2.2743348853490910 6.9029486050060429 29.3349578074999933 Pt
atom 2.8917824845300801 8.0198327515855397 27.7421961487134787 O
atom 0.6174296179567593 8.0870637923587108 29.3349632687865203 O
atom 3.9312526127461136 5.7188468776490220 29.3349639362134766 O
atom 4.5487074871284161 9.2039205842261378 27.7421917999999827 Pt
atom 6.8230321617812253 2.3009766200013178 29.3349614824999847 Pt
atom 6.2056049926022867 1.1840983568757539 27.7421931612865045 O
atom 5.1661235243884258 3.4850904673551693 29.3349591437865129 O
atom 8.4799386591741204 1.1168630426482162 29.3349614812134547 O
atom 4.5486734435658462 4.6019645842377201 27.7421938149999896 Pt
atom 6.8230347153507171 6.9029524800007298 29.3349400374999902 Pt
atom 7.4404675145378407 8.0198542365853722 27.7421913387135035 O
atom 5.1661247879578660 8.0870661773549823 29.3349834087865204 O
atom 8.4799519527470242 5.7188487026438359 29.3349844762134779 O
atom 9.0973600971292150 9.2039220857761901 30.9277384799999808 Pt
atom 2.2743472917850327 2.3009883315403759 32.5205001624999994 Pt
atom 1.6568813926076122 1.1841144284282958 30.9277414112865259 O
atom 2.8917829509643940 3.4178678081240350 30.9277375037134803 O
atom 0.6174388343914005 3.4850997888941264 32.5205314037865207 O
atom 3.9312493791758030 1.1168686641887786 32.5205285912134627 O
atom 0.0000261435624631 4.6019556657636800 30.9277371349999832 Pt
atom 2.2743485053498675 6.9029508315402088 32.5205206074999893 Pt
atom 1.6569260261749366 5.7860840684130208 30.9277419662865292 O
atom 2.8917849545208463 8.0198062481236168 30.9277358587134508 O
atom 0.6174374579547590 8.0870580488949120 32.5205062487865177 O
atom 3.9312591727428732 5.7188375741856703 32.5205054062134664 O
atom 4.5486598800059079 0.0000161407811020 30.9277360900000140 Pt
atom 6.8230184817823245 2.3009797665450087 32.5205136824999883 Pt
atom 6.2055823926078864 1.1841144234225629 30.9277360412865256 O
atom 7.4404776209551544 3.4178405031204999 30.9277388337134482 O
atom 5.1661142143915848 3.4850995238973379 32.5205101737865263 O
atom 8.4799282691760922 1.1168686991907664 32.5205079912134636 O
atom 4.5486974235688828 4.6019733007683064 30.9277293750000020 Pt
atom 6.8230379253501638 6.9029508865384903 32.5205335474999941 Pt
atom 6.2056038461828482 5.7861059834153643 30.9277374562865468 O
atom 7.4404578145186457 8.0197991431276829 30.9277369587134388 O
atom 5.1661295379591312 8.0870698038922981 32.5204895487865286 O
atom 8.4799548027466258 5.7188475491818167 32.5204909962134749 O
