#===============================================================================
# Created using the Atomic Simulation Environment (ASE)

# Mon Mar 23 14:01:19 2026

#=======================================================
lattice_vector 9.2039351800005225 0.0000000000000000 0.0000000000000000 
lattice_vector -0.0000000269221396 6.3710923900000003 0.0000000000000000 
lattice_vector 0.0000000000000000 0.0000000000000000 33.5092266650034105 
atom 1.1168936646849135 1.5927548512135283 15.0000007699988203 O
atom 5.7188683546849228 1.5927729562135362 15.0000000799964255 O
atom 0.0000073043808177 0.0000008200000416 15.6174525661800914 Pt
atom 2.3010000786728870 1.5927705025000536 17.8917819711771955 Pt
atom 1.1841213924464515 0.0000021812865736 17.2743555673558120 O
atom 3.4178792814364733 6.3710907637135330 18.5092031049984058 O
atom 3.4851127906052191 1.5927681637865805 16.2348725223532000 O
atom 4.6019864843706726 0.0000028350000542 15.6174216761761926 Pt
atom 6.9029759386729683 1.5927490575000625 17.8917813711744031 Pt
atom 5.7860778955209646 6.3710919762865617 17.2743448473595436 O
atom 8.0198781183623407 0.0000003587135684 18.5092134049878894 O
atom 8.0870885006048177 1.5927924287865889 16.2348706323504643 O
atom 1.1168901412235444 4.7783376112135247 15.0000000000000000 O
atom 5.7188590512260644 4.7783144262135240 15.0000066399995546 O
atom 0.0000380409058414 3.1855451100000747 15.6174112661697393 Pt
atom 2.3010032252072037 4.7783227025000556 17.8917682911761347 Pt
atom 1.1841374589777733 3.1855450612865899 17.2743329673503894 O
atom 3.4178643849054744 3.1855478537135178 18.5092266650034105 O
atom 3.4851218471410079 4.7783191937865901 16.2348632123501346 O
atom 4.6019952009176910 3.1855383950000618 15.6174456561732455 Pt
atom 6.9029743452129289 4.7783425675000588 17.8917845811749459 Pt
atom 5.7861290189841963 3.1855464762866159 17.2743512673423254 O
atom 8.0198230248980025 3.1855459787135079 18.5092037050064278 O
atom 8.0870921271453895 4.7782985687865915 16.2348753823492302 O
