#===============================================================================
# Created using the Atomic Simulation Environment (ASE)

# Mon Mar 23 14:01:24 2026

#=======================================================
lattice_vector 12.9808606199443606 0.0000000000000000 0.0000000000000000 
lattice_vector -0.0000000000000017 6.4846065199999998 0.0000000000000000 
lattice_vector 0.0000000000000000 0.0000000000000000 38.9630449935224519 
atom 3.2452124149473436 4.8634542783096721 16.2363080453452469 Pt
atom 3.2452192408888436 6.4846060156134415 15.0000024890154293 O
atom 3.2452119411858820 1.6211519183096714 16.2363073806648117 Pt
atom 3.2452025460980143 3.2423031956134363 15.0000002545559639 O
atom 9.7356442805549506 4.8634539283096636 16.2363039087707648 Pt
atom 7.7267328504926596 4.8634548883096684 16.2363061880154405 O
atom 11.7445548408749989 4.8634545883096738 16.2363089905075704 O
atom 9.7356374381221489 6.4846061656134362 15.0000001272773034 O
atom 9.7356439552856955 1.6211511683096658 16.2363050189283697 Pt
atom 7.7267324120864638 1.6211532483096682 16.2363061243757727 O
atom 11.7445546923825610 1.6211502583096746 16.2363090753603672 O
atom 9.7356531429637805 3.2423022656134357 15.0000000000000000 O
atom 6.4904268027223200 0.0000009183096771 16.2363101631299571 Pt
atom 12.9808530326881861 4.8634544153870980 19.4815268030397881 Pt
atom 12.9808585834758894 6.4846057383096891 16.2363159967610819 Pt
atom 10.9719442259928393 4.8634549953870883 19.4815226829684178 O
atom 2.0089029801361975 4.8634575253870871 19.4815216670836087 O
atom 12.9808491035349380 0.0000006026908780 18.2452263025221484 O
atom 12.9808482573565787 6.4846059880833256 20.7178305138211627 O
atom 12.9808535771601878 1.6211525353871035 19.4815286556596270 Pt
atom 12.9808585198364845 3.2423024183096860 16.2363143986997507 Pt
atom 10.9719441482110494 1.6211523153870899 19.4815230789482037 O
atom 2.0089031286285688 1.6211506453870892 19.4815220772055682 O
atom 0.0000056804279011 3.2423027026908695 18.2452229437670397 O
atom 0.0000050675937362 3.2423041280833371 20.7178357181291908 O
atom 9.7356411410001904 4.8634543024645112 22.7267395291144894 Pt
atom 9.7356410915030835 0.0000002253870872 19.4815213547824335 Pt
atom 1.2363018051280192 4.8634545383096937 16.2363177209269551 O
atom 5.2541226924246640 4.8634548383096838 16.2363132402191042 O
atom 9.7356479669416967 6.4846060397682805 21.4904339727846754 O
atom 3.2452212867768186 0.0000000010058959 17.4726100307877239 O
atom 9.7356406672387319 1.6211519424645104 22.7267388644340542 Pt
atom 9.7356425905693538 3.2423041553870875 19.4815222528082295 Pt
atom 1.2363015152142633 1.6211503983096931 16.2363175370791524 O
atom 5.2541226853536402 1.6211533883096834 16.2363129008078424 O
atom 9.7356312721508615 3.2423032197682753 21.4904317383252064 O
atom 3.2452023504569931 3.2423028710059003 17.4726118621919824 O
atom 3.2452123866634390 4.8634539524645026 22.7267353925400144 Pt
atom 3.2452098552213231 0.0000012753870815 19.4815188799085881 Pt
atom 1.2363009566011534 4.8634549124645066 22.7267376717846830 O
atom 5.2541229469834860 4.8634546124645128 22.7267404742768164 O
atom 3.2452055442306378 6.4846061897682752 21.4904316110465494 O
atom 9.7356343574856243 6.4846054110058962 17.4726104055522171 O
atom 3.2452120613941808 1.6211511924645048 22.7267365026976123 Pt
atom 3.2452060863419989 3.2423040353870847 19.4815203789745084 Pt
atom 1.2363005181949520 1.6211532724645077 22.7267376081450223 O
atom 5.2541227984910481 1.6211502824645141 22.7267405591296168 O
atom 3.2452212490722654 3.2423022897682747 21.4904314837692496 O
atom 9.7356525725559315 3.2423028710059034 17.4726135097532094 O
atom 6.4904263077464206 4.8634559753871169 19.4815347084940420 Pt
atom 12.9808555287751641 0.0000009424645163 22.7267416468991996 Pt
atom 4.4815145241313346 4.8634553653871091 19.4815321794125680 O
atom 8.4993377095244327 4.8634542653871105 19.4815324858179046 O
atom 6.4904349155974135 0.0000003026908773 18.2452259277575273 O
atom 6.4904346492456737 6.4846056380833428 20.7178378748047898 O
atom 6.4904282381477012 1.6211501953871208 19.4815366459668624 Pt
atom 6.4904270572805220 3.2423045483096815 16.2363121076736334 Pt
atom 4.4815157474260205 1.6211527353871111 19.4815325612503756 O
atom 8.4993391449511577 1.6211529753871119 19.4815328393714715 O
atom 6.4904176692631115 3.2423024826908753 18.2452251640800966 O
atom 6.4904174665509791 3.2423035280833394 20.7178371323405734 O
atom 6.4904266895843783 6.4846057624645281 22.7267474805303280 Pt
atom 6.4904266259449637 3.2423024424645250 22.7267458824689967 Pt
atom 7.7267305311808663 4.8634545624645327 22.7267492046961976 O
atom 11.7445514184775099 4.8634548624645229 22.7267447239883538 O
atom 9.7356500128296677 0.0000000251607347 23.9630415145569700 O
atom 7.7267302412671102 1.6211504224645321 22.7267490208483949 O
atom 11.7445514114064871 1.6211534124645226 22.7267443845770956 O
atom 9.7356310765098453 3.2423028951607389 23.9630433459612249 O
atom 3.2452024635941110 6.4846054351607352 23.9630418893214667 O
atom 3.2452206786644195 3.2423028951607424 23.9630449935224519 O
atom 12.9808557833333698 3.2423045724645210 22.7267435914428759 Pt
