#===============================================================================
# Created using the Atomic Simulation Environment (ASE)

# Mon Mar 23 14:01:19 2026

#=======================================================
lattice_vector 9.2039351800005225 0.0000000000000000 0.0000000000000000 
lattice_vector -0.0000000269221396 6.3710923900000003 0.0000000000000000 
lattice_vector 0.0000000000000000 0.0000000000000000 42.6065957250018243 
atom 1.1168874305777099 1.5927548512135119 15.0000007699988167 O
atom 4.6020026723141489 0.0000022350000670 20.1660975261688939 Pt
atom 5.7188621205777181 1.5927729562135198 15.0000000799964255 O
atom 0.0000010702736137 0.0000008200000252 15.6174525661800914 Pt
atom 2.3009938445656841 1.5927705025000367 17.8917819711771919 Pt
atom 1.1841151583392484 0.0000021812865572 17.2743555673558156 O
atom 3.4178730473292696 6.3710907637135161 18.5092031049983952 O
atom 3.4851065564980157 1.5927681637865638 16.2348725223531893 O
atom 1.1168814026326355 1.5927705012135105 19.5486892800011098 O
atom 4.6019802502634697 0.0000028350000378 15.6174216761761890 Pt
atom 6.9029697045657645 1.5927490575000460 17.8917813711744067 Pt
atom 5.7860716614137608 6.3710919762865457 17.2743448473595400 O
atom 8.0198718842551369 0.0000003587135521 18.5092134049878787 O
atom 8.0870822664976139 1.5927924287865727 16.2348706323504537 O
atom 5.7188670626362832 1.5927934962135297 19.5486994199950210 O
atom 0.0000056888553951 3.1855475000000339 20.1661051761787853 Pt
atom 1.1168839071163410 4.7783376112135079 15.0000000000000000 O
atom 5.7188528171188615 4.7783144262135071 15.0000066399995546 O
atom 0.0000318067986378 3.1855451100000578 15.6174112661697322 Pt
atom 2.3009969911000003 4.7783227025000405 17.8917682911761240 Pt
atom 1.1841312248705702 3.1855450612865739 17.2743329673503929 O
atom 3.4178581507982715 3.1855478537135014 18.5092266650034212 O
atom 3.4851156130338046 4.7783191937865732 16.2348632123501382 O
atom 1.1168870591680653 4.7783170112135158 19.5486788899991986 O
atom 4.6019889668104872 3.1855383950000458 15.6174456561732420 Pt
atom 6.9029681111057251 4.7783425675000419 17.8917845811749423 Pt
atom 5.7861227848769925 3.1855464762865995 17.2743512673423218 O
atom 8.0198167907908005 3.1855459787134919 18.5092037050064313 O
atom 8.0870858930381839 4.7782985687865747 16.2348753823492338 O
atom 5.7188659091762171 4.7783000162135272 19.5487022699954061 O
atom 0.0000255154044155 6.3710861900000548 20.1661351061721099 Pt
atom 2.3010051566176877 1.5927877825000543 22.4404618111736376 Pt
atom 1.1841426403924749 0.0000002912865919 21.8230389773468154 O
atom 3.4178774163006223 0.0000039537135277 23.0578746249971864 O
atom 3.4851177685511900 1.5927545437865811 20.7835557423496731 O
atom 1.1168936646849135 1.5927548512135283 24.0973698299972376 O
atom 6.9029689466141964 1.5927668275000499 22.4404506011749199 Pt
atom 5.7860773234708880 6.3710904862865547 21.8230398373578929 O
atom 8.0198535163085651 0.0000051687135369 23.0578974349943273 O
atom 8.0870829985476540 1.5927722887865778 20.7835445223504713 O
atom 5.7188683546849228 1.5927729562135362 24.0973691399948429 O
atom 0.0000073043808177 0.0000008200000416 24.7148216261785088 Pt
atom 2.3010000786728870 1.5927705025000536 26.9891510311756129 Pt
atom 1.1841213924464515 0.0000021812865736 26.3717246273542294 O
atom 3.4178792814364733 6.3710907637135330 27.6065721649968232 O
atom 3.4851127906052191 1.5927681637865805 25.3322415823516174 O
atom 4.6019864843706726 0.0000028350000542 24.7147907361746100 Pt
atom 6.9029759386729683 1.5927490575000625 26.9891504311728205 Pt
atom 5.7860778955209646 6.3710919762865617 26.3717139073579609 O
atom 8.0198781183623407 0.0000003587135684 27.6065824649863067 O
atom 8.0870885006048177 1.5927924287865889 25.3322396923488817 O
atom 2.3010086731581092 4.7783091825000561 22.4404661611724556 Pt
atom 1.1841343469186185 3.1855504312865826 21.8230010273496084 O
atom 3.4178885728484589 3.1855465237135387 23.0579010549934331 O
atom 3.4851189950904646 4.7783404237865810 20.7835568923492566 O
atom 1.1168901412235444 4.7783376112135247 24.0973690599984174 O
atom 4.6019744488685435 3.1855461550000350 20.1661434361783911 Pt
atom 6.9029711731576935 4.7783296275000504 22.4404642211741709 Pt
atom 5.7861039869328481 3.1855509862865845 21.8230425073489194 O
atom 8.0198270128483351 3.1855448787135074 23.0578999050032429 O
atom 8.0870772550892251 4.7783152687865709 20.7835523623523990 O
atom 5.7188590512260644 4.7783144262135240 24.0973756999979720 O
atom 0.0000380409058414 3.1855451100000747 24.7147803261681567 Pt
atom 2.3010032252072037 4.7783227025000556 26.9891373511745520 Pt
atom 1.1841374589777733 3.1855450612865899 26.3717020273488068 O
atom 3.4178643849054744 3.1855478537135178 27.6065957250018279 O
atom 3.4851218471410079 4.7783191937865901 25.3322322723485520 O
atom 4.6019952009176910 3.1855383950000618 24.7148147161716629 Pt
atom 6.9029743452129289 4.7783425675000588 26.9891536411733632 Pt
atom 5.7861290189841963 3.1855464762866159 26.3717203273407428 O
atom 8.0198230248980025 3.1855459787135079 27.6065727650048451 O
atom 8.0870921271453895 4.7782985687865915 25.3322444423476476 O
