#===============================================================================
# Created using the Atomic Simulation Environment (ASE)

# Mon Mar 23 14:01:18 2026

#=======================================================
lattice_vector 9.0973690600005526 0.0000000000000000 0.0000000000000000 
lattice_vector 0.0000063071332193 9.2039351799983606 0.0000000000000000 
lattice_vector 0.0000000000000000 0.0000000000000000 36.3711363887134667 
atom 0.0000146600023625 0.0000067592284797 16.5927876212134819 Pt
atom 1.6569233561656542 5.7860574318750286 16.5927919174999801 O
atom 7.4404540609603531 3.4178554265897829 16.5927921949269397 O
atom 6.2055974261650437 5.7860548868786710 16.5927934074999683 O
atom 2.2743472917850398 2.3009883584625150 15.0000106137134743 Pt
atom 0.6174388343914073 3.4850998158162660 15.0000418550000063 O
atom 3.9312493791758096 1.1168686911109182 15.0000390424269412 O
atom 2.2743485053498746 6.9029508584623480 15.0000310587134713 Pt
atom 0.6174374579547661 8.0870580758170512 15.0000166999999962 O
atom 3.9312591727428803 5.7188376011078104 15.0000158574269413 O
atom 6.8230184817823316 2.3009797934671483 15.0000241337134632 Pt
atom 5.1661142143915919 3.4850995508194775 15.0000206250000012 O
atom 8.4799282691760993 1.1168687261129060 15.0000184424269420 O
atom 6.8230379253501718 6.9029509134606286 15.0000439987134691 Pt
atom 5.1661295379591374 8.0870698308144373 15.0000000000000000 O
atom 8.4799548027466329 5.7188475761039559 15.0000014474269499 O
atom 2.2743429417838050 2.3009848150029342 18.1855816037134730 Pt
atom 1.6569193426105013 1.1841227218761461 16.5927941125000089 O
atom 2.8917565209605041 3.4178566515943096 16.5927977749269431 O
atom 0.6174376843909719 3.4850985623556401 18.1855483650000025 O
atom 3.9312501491770302 1.1168721876496202 18.1855486724269433 O
atom 9.0973492935728473 4.6019838892407448 16.5927960562134906 Pt
atom 2.2743348853490910 6.9029486050060429 18.1855606487134693 Pt
atom 2.8917824845300801 8.0198327515855397 16.5927989899269548 O
atom 0.6174296179567593 8.0870637923587108 18.1855661099999963 O
atom 3.9312526127461136 5.7188468776490220 18.1855667774269527 O
atom 4.5487074871284161 9.2039205842261378 16.5927946412134588 Pt
atom 6.8230321617812253 2.3009766200013178 18.1855643237134608 Pt
atom 6.2056049926022867 1.1840983568757539 16.5927960024999805 O
atom 5.1661235243884258 3.4850904673551693 18.1855619849999890 O
atom 8.4799386591741204 1.1168630426482162 18.1855643224269308 O
atom 4.5486734435658462 4.6019645842377201 16.5927966562134657 Pt
atom 6.8230347153507171 6.9029524800007298 18.1855428787134663 Pt
atom 7.4404675145378407 8.0198542365853722 16.5927941799269796 O
atom 5.1661247879578660 8.0870661773549823 18.1855862499999965 O
atom 8.4799519527470242 5.7188487026438359 18.1855873174269540 O
atom 9.0973600971292150 9.2039220857761901 19.7783413212134569 Pt
atom 2.2743472917850327 2.3009883315403759 21.3711030037134755 Pt
atom 1.6568813926076122 1.1841144284282958 19.7783442525000019 O
atom 2.8917829509643940 3.4178678081240350 19.7783403449269564 O
atom 0.6174388343914005 3.4850997888941264 21.3711342449999968 O
atom 3.9312493791758030 1.1168686641887786 21.3711314324269388 O
atom 0.0000261435624631 4.6019556657636800 19.7783399762134593 Pt
atom 2.2743485053498675 6.9029508315402088 21.3711234487134654 Pt
atom 1.6569260261749366 5.7860840684130208 19.7783448075000052 O
atom 2.8917849545208463 8.0198062481236168 19.7783386999269268 O
atom 0.6174374579547590 8.0870580488949120 21.3711090899999938 O
atom 3.9312591727428732 5.7188375741856703 21.3711082474269425 O
atom 4.5486598800059079 0.0000161407811020 19.7783389312134901 Pt
atom 6.8230184817823245 2.3009797665450087 21.3711165237134644 Pt
atom 6.2055823926078864 1.1841144234225629 19.7783388825000017 O
atom 7.4404776209551544 3.4178405031204999 19.7783416749269243 O
atom 5.1661142143915848 3.4850995238973379 21.3711130150000024 O
atom 8.4799282691760922 1.1168686991907664 21.3711108324269397 O
atom 4.5486974235688828 4.6019733007683064 19.7783322162134780 Pt
atom 6.8230379253501638 6.9029508865384903 21.3711363887134702 Pt
atom 6.2056038461828482 5.7861059834153643 19.7783402975000229 O
atom 7.4404578145186457 8.0197991431276829 19.7783397999269148 O
atom 5.1661295379591312 8.0870698038922981 21.3710923900000047 O
atom 8.4799548027466258 5.7188475491818167 21.3710938374269510 O
