#===============================================================================
# Created using the Atomic Simulation Environment (ASE)

# Mon Mar 23 14:01:24 2026

#=======================================================
lattice_vector 12.9808606199443606 0.0000000000000000 0.0000000000000000 
lattice_vector -0.0000000000000017 6.4846065199999998 0.0000000000000000 
lattice_vector 0.0000000000000000 0.0000000000000000 48.6986850172938972 
atom 12.9808562005268548 4.8634543670774200 16.2363038592727520 Pt
atom 10.9719473938315080 4.8634549470774102 16.2362997392013781 O
atom 2.0089061479748622 4.8634574770774091 16.2362987233165654 O
atom 12.9808522713735996 0.0000005543811997 15.0000033587551087 O
atom 12.9808514251952456 6.4846059397736466 17.4726075700541159 O
atom 12.9808567449988530 1.6211524870774252 16.2363057118925838 Pt
atom 10.9719473160497163 1.6211522670774114 16.2363001351811640 O
atom 2.0089062964672308 1.6211505970774105 16.2362991334385285 O
atom 0.0000088482665658 3.2423026543811915 15.0000000000000000 O
atom 0.0000082354324038 3.2423040797736591 17.4726127743621475 O
atom 9.7356443088388573 4.8634542541548331 19.4815165853474497 Pt
atom 9.7356442593417523 0.0000001770774089 16.2362984110153938 Pt
atom 9.7356511347803583 6.4846059914586025 18.2452110290176357 O
atom 9.7356438350773971 1.6211518941548320 19.4815159206670145 Pt
atom 9.7356457584080189 3.2423041070774099 16.2362993090411862 Pt
atom 9.7356344399895285 3.2423031714585973 18.2452087945581667 O
atom 3.2452155545020980 4.8634539041548246 19.4815124487729676 Pt
atom 3.2452130230599887 0.0000012270774032 16.2362959361415484 Pt
atom 1.2363041244398181 4.8634548641548285 19.4815147280176397 O
atom 5.2541261148221512 4.8634545641548348 19.4815175305097767 O
atom 3.2452087120693025 6.4846061414585972 18.2452086672795062 O
atom 3.2452152292328487 1.6211511441548263 19.4815135589305726 Pt
atom 3.2452092541806623 3.2423039870774062 16.2362974352074652 Pt
atom 1.2363036860336196 1.6211532241548292 19.4815146643779755 O
atom 5.2541259663297151 1.6211502341548356 19.4815176153625735 O
atom 3.2452244169109328 3.2423022414585967 18.2452085400022028 O
atom 6.4904294755850884 4.8634559270774380 16.2363117647270023 Pt
atom 12.9808586966138328 0.0000008941548379 19.4815187031321599 Pt
atom 4.4815176919700033 4.8634553170774311 16.2363092356455212 O
atom 8.4993408773630996 4.8634542170774324 16.2363095420508650 O
atom 6.4904380834360769 0.0000002543811990 15.0000029839904858 O
atom 6.4904378170843371 6.4846055897736647 17.4726149310377501 O
atom 6.4904314059863690 1.6211501470774423 16.2363137021998192 Pt
atom 4.4815189152646857 1.6211526870774324 16.2363096174833288 O
atom 8.4993423127898247 1.6211529270774336 16.2363098956044283 O
atom 6.4904208371017758 3.2423024343811973 15.0000022203130570 O
atom 6.4904206343896451 3.2423034797736614 17.4726141885735302 O
atom 6.4904243066353438 4.8634543912322590 22.7267353430419945 Pt
atom 6.4904298574230426 6.4846057141548501 19.4815245367632848 Pt
atom 4.4815154999399907 4.8634549712322492 22.7267312229706206 O
atom 8.4993348740277064 4.8634575012322481 22.7267302070858079 O
atom 6.4904203774820894 0.0000005785360388 21.4904348425243512 O
atom 6.4904195313037327 6.4846059639284874 23.9630390538233584 O
atom 6.4904248511073392 1.6211525112322644 22.7267371956618227 Pt
atom 6.4904297937836342 3.2423023941548474 19.4815229387019500 Pt
atom 4.4815154221582025 1.6211522912322505 22.7267316189504065 O
atom 8.4993350225200803 1.6211506212322495 22.7267306172077710 O
atom 6.4904375743194151 3.2423026785360305 21.4904314837692425 O
atom 6.4904369614852531 3.2423041039284985 23.9630442581313936 O
atom 3.2452124149473436 4.8634542783096721 25.9719480691166922 Pt
atom 3.2452123654502407 0.0000002012322480 22.7267298947846363 Pt
atom 7.7267336990195323 4.8634545141548546 19.4815262609291544 O
atom 11.7445545863161769 4.8634548141548448 19.4815217802213070 O
atom 3.2452192408888436 6.4846060156134415 24.7356425127868746 O
atom 9.7356531806683329 6.4846064968510566 20.7178185707899303 O
atom 3.2452119411858820 1.6211519183096714 25.9719474044362570 Pt
atom 3.2452138645165061 3.2423041312322485 22.7267307928104287 Pt
atom 7.7267334091057762 1.6211503741548536 19.4815260770813552 O
atom 11.7445545792451540 1.6211533641548439 19.4815214408100452 O
atom 3.2452025460980143 3.2423031956134363 24.7356402783274092 O
atom 9.7356342443485087 3.2423028468510608 20.7178204021941852 O
atom 9.7356442805549506 4.8634539283096636 25.9719439325422101 Pt
atom 9.7356417491128351 0.0000012512322424 22.7267274199107874 Pt
atom 7.7267328504926596 4.8634548883096684 25.9719462117868858 O
atom 11.7445548408749989 4.8634545883096738 25.9719490142790157 O
atom 9.7356374381221489 6.4846061656134362 24.7356401510487487 O
atom 3.2452056314327784 6.4846053868510571 20.7178189455544199 O
atom 9.7356439552856955 1.6211511683096658 25.9719450426998151 Pt
atom 9.7356379802335109 3.2423040112322457 22.7267289189767041 Pt
atom 7.7267324120864638 1.6211532483096682 25.9719461481472180 O
atom 11.7445546923825610 1.6211502583096746 25.9719490991318125 O
atom 9.7356531429637805 3.2423022656134357 24.7356400237714453 O
atom 3.2452238465030843 3.2423028468510644 20.7178220497554086 O
atom 12.9808582016379344 4.8634559512322770 22.7267432484962484 Pt
atom 6.4904268027223200 0.0000009183096771 25.9719501869014024 Pt
atom 10.9719464180228510 4.8634553412322701 22.7267407194147637 O
atom 2.0089089834715863 4.8634542412322714 22.7267410258201110 O
atom 0.0000061895445640 0.0000002785360382 21.4904344677597301 O
atom 0.0000059231928218 6.4846056139285047 23.9630464148069962 O
atom 12.9808601320392167 1.6211501712322813 22.7267451859690617 Pt
atom 12.9808589511720349 3.2423045241548420 19.4815206476758362 Pt
atom 10.9719476413175343 1.6211527112322717 22.7267411012525713 O
atom 2.0089104188983082 1.6211529512322727 22.7267413793736708 O
atom 12.9808495631546226 3.2423024585360363 21.4904337040822995 O
atom 12.9808493604424928 3.2423035039285009 23.9630456723427727 O
atom 12.9808530326881861 4.8634544153870980 29.2171668268112334 Pt
atom 12.9808585834758894 6.4846057383096891 25.9719560205325273 Pt
atom 10.9719442259928393 4.8634549953870883 29.2171627067398632 O
atom 2.0089029801361975 4.8634575253870871 29.2171616908550540 O
atom 12.9808491035349380 0.0000006026908780 27.9808663262935937 O
atom 12.9808482573565787 6.4846059880833256 30.4534705375926080 O
atom 12.9808535771601878 1.6211525353871035 29.2171686794310723 Pt
atom 12.9808585198364845 3.2423024183096860 25.9719544224711960 Pt
atom 10.9719441482110494 1.6211523153870899 29.2171631027196490 O
atom 2.0089031286285688 1.6211506453870892 29.2171621009770135 O
atom 0.0000056804279011 3.2423027026908695 27.9808629675384850 O
atom 0.0000050675937362 3.2423041280833371 30.4534757419006361 O
atom 9.7356411410001904 4.8634543024645112 32.4623795528859347 Pt
atom 9.7356410915030835 0.0000002253870872 29.2171613785538788 Pt
atom 1.2363018051280192 4.8634545383096937 25.9719577446984005 O
atom 5.2541226924246640 4.8634548383096838 25.9719532639905495 O
atom 9.7356479669416967 6.4846060397682805 31.2260739965561207 O
atom 3.2452212867768186 0.0000000010058959 27.2082500545591692 O
atom 9.7356406672387319 1.6211519424645104 32.4623788882054995 Pt
atom 9.7356425905693538 3.2423041553870875 29.2171622765796748 Pt
atom 1.2363015152142633 1.6211503983096931 25.9719575608505977 O
atom 5.2541226853536402 1.6211533883096834 25.9719529245792877 O
atom 9.7356312721508615 3.2423032197682753 31.2260717620966517 O
atom 3.2452023504569931 3.2423028710059003 27.2082518859634277 O
atom 3.2452123866634390 4.8634539524645026 32.4623754163114597 Pt
atom 3.2452098552213231 0.0000012753870815 29.2171589036800334 Pt
atom 1.2363009566011534 4.8634549124645066 32.4623776955561283 O
atom 5.2541229469834860 4.8634546124645128 32.4623804980482618 O
atom 3.2452055442306378 6.4846061897682752 31.2260716348179947 O
atom 9.7356343574856243 6.4846054110058962 27.2082504293236624 O
atom 3.2452120613941808 1.6211511924645048 32.4623765264690576 Pt
atom 3.2452060863419989 3.2423040353870847 29.2171604027459537 Pt
atom 1.2363005181949520 1.6211532724645077 32.4623776319164676 O
atom 5.2541227984910481 1.6211502824645141 32.4623805829010621 O
atom 3.2452212490722654 3.2423022897682747 31.2260715075406949 O
atom 9.7356525725559315 3.2423028710059034 27.2082535335246547 O
atom 6.4904263077464206 4.8634559753871169 29.2171747322654873 Pt
atom 12.9808555287751641 0.0000009424645163 32.4623816706706450 Pt
atom 4.4815145241313346 4.8634553653871091 29.2171722031840133 O
atom 8.4993377095244327 4.8634542653871105 29.2171725095893500 O
atom 6.4904349155974135 0.0000003026908773 27.9808659515289726 O
atom 6.4904346492456737 6.4846056380833428 30.4534778985762351 O
atom 6.4904282381477012 1.6211501953871208 29.2171766697383077 Pt
atom 6.4904270572805220 3.2423045483096815 25.9719521314450787 Pt
atom 4.4815157474260205 1.6211527353871111 29.2171725850218209 O
atom 8.4993391449511577 1.6211529753871119 29.2171728631429168 O
atom 6.4904176692631115 3.2423024826908753 27.9808651878515420 O
atom 6.4904174665509791 3.2423035280833394 30.4534771561120188 O
atom 6.4904266895843783 6.4846057624645281 32.4623875043017733 Pt
atom 6.4904266259449637 3.2423024424645250 32.4623859062404421 Pt
atom 7.7267305311808663 4.8634545624645327 32.4623892284676430 O
atom 11.7445514184775099 4.8634548624645229 32.4623847477597991 O
atom 9.7356500128296677 0.0000000251607347 33.6986815383284153 O
atom 7.7267302412671102 1.6211504224645321 32.4623890446198402 O
atom 11.7445514114064871 1.6211534124645226 32.4623844083485409 O
atom 9.7356310765098453 3.2423028951607389 33.6986833697326702 O
atom 3.2452024635941110 6.4846054351607352 33.6986819130929121 O
atom 3.2452206786644195 3.2423028951607424 33.6986850172938972 O
atom 12.9808557833333698 3.2423045724645210 32.4623836152143213 Pt
