#===============================================================================
# Created using the Atomic Simulation Environment (ASE)

# Mon Mar 23 14:01:23 2026

#=======================================================
lattice_vector 11.2383934762033828 0.0000000000000000 0.0000000000000000 
lattice_vector 0.0000013697273223 9.1788565199999361 0.0000000000000000 
lattice_vector 0.0000000000000000 0.0000000000000000 42.2317802009173491 
atom 8.4355167741212416 2.2947178069319554 15.8196457005306428 Pt
atom 7.2753240442106941 3.7152281516128678 15.0000007873196424 O
atom 9.5957073044526187 0.8741996722508966 16.6392845418433240 O
atom 10.0849201048223538 3.1689196516129980 15.0000000000000000 O
atom 6.5646945364469698 2.2947190025757362 18.4677668526075749 Pt
atom 5.6259224968894506 0.0000027169318237 15.8196492678607044 Pt
atom 5.4045001443236256 3.7152287572567628 17.6481217445922312 O
atom 6.7861181814096287 1.4205098522507400 16.6392949197333948 O
atom 8.2141095662480677 3.1689112772563273 17.6481293926807155 O
atom 8.4355179871634096 6.8841410669319112 15.8196462267219964 Pt
atom 3.7550934426381279 4.5894260825758817 18.4677655183010785 Pt
atom 7.2753319985740088 8.3046624416125816 15.0000064678678449 O
atom 9.5957128449927698 5.4636304422508477 16.6392912474570878 O
atom 10.0849285895817040 7.7583320416126309 15.0000048431257120 O
atom 6.5646934306748133 6.8841412025758100 18.4677663283226536 Pt
atom 5.6259196319234492 4.5894253869318202 15.8196446479516553 Pt
atom 5.4045067988851230 8.3046627872566159 17.6481282944593261 O
atom 6.7861041255472170 6.0099466922512423 16.6392838875062523 O
atom 8.2140940677546315 7.7583469972569956 17.6481194839374851 O
atom 0.9454944533776259 2.2947090525759823 18.4677667607039808 Pt
atom 0.0067204493099650 9.1788529769318856 15.8196419718706736 Pt
atom 11.0236975996306388 3.7152257772567774 17.6481230777338638 O
atom 1.1669091079837060 1.4205151022512019 16.6392859419262464 O
atom 2.5948963681916184 3.1689165072570842 17.6481201700817678 O
atom 2.8163196134877495 2.2947097969319699 15.8196453714149854 Pt
atom 9.3742865380984259 0.0000004525759907 18.4677627553044275 Pt
atom 1.6561291865485464 3.7152257716126997 15.0000002486208999 O
atom 3.9765132310844518 0.8741980422510450 16.6392913157968039 O
atom 4.4657335143180923 3.1689055516125970 15.0000069792195205 O
atom 0.0067242003839250 4.5894289769317673 15.8196455281480368 Pt
atom 11.0237030979646402 8.3046629672565295 17.6481259089804290 O
atom 1.1669237269959625 6.0099409822505923 16.6392949962926018 O
atom 2.5949133281600560 7.7583415772564113 17.6481314047517941 O
atom 2.8163290367637788 6.8841491269316624 15.8196527508733311 Pt
atom 9.3742947417945377 4.5894304425756376 18.4677674243524805 Pt
atom 1.6561353305915347 8.3046621016124877 15.0000047481779788 O
atom 3.9765203404377583 5.4636316922505959 16.6392925425760545 O
atom 4.4657280578435063 7.7583529316127606 15.0000018508077773 O
atom 4.6938679374881636 2.2947183482198588 21.1158883028430218 Pt
atom 3.7550990728637035 0.0000040725757334 18.4677711979929846 Pt
atom 3.5336752075776254 3.7152286929007716 20.2962433896320178 O
atom 5.8540584678195442 0.8742002135388004 21.9355271441557029 O
atom 4.9152864406111343 1.4205246578949009 19.2874096274779490 O
atom 6.3432712681892784 3.1689201929009023 20.2962426023123754 O
atom 2.8230456998138962 2.2947195438636405 23.7640094549199468 Pt
atom 1.8842736602563805 0.0000032582197273 21.1158918701730869 Pt
atom 1.6628513076905478 3.7152292985446667 22.9443643469046066 O
atom 7.7248811199914726 0.8742001278951440 19.2874090275180237 O
atom 3.0444693447765521 1.4205103935386432 21.9355375220457702 O
atom 4.4724607296149985 3.1689118185442311 22.9443719949930980 O
atom 4.6938691505303369 6.8841416082198128 21.1158888290343683 Pt
atom 0.0134446060050544 4.5894266238637851 23.7640081206134539 Pt
atom 3.5336831619409370 8.3046629829004885 20.2962490701802203 O
atom 5.8540640083596989 5.4636309835387502 21.9355338497694632 O
atom 4.9152903854232095 6.0099367378948108 19.2874132712376216 O
atom 6.3432797529486304 7.7583325829005334 20.2962474454380910 O
atom 2.8230445940417472 6.8841417438637134 23.7640089306350362 Pt
atom 1.8842707952903779 4.5894259282197236 21.1158872502640307 Pt
atom 1.6628579622520514 8.3046633285445211 22.9443708967717015 O
atom 7.7248892709533372 5.4636304778946529 19.2874109289463007 O
atom 3.0444552889141443 6.0099472335391448 21.9355264898186277 O
atom 4.4724452311215561 7.7583475385448990 22.9443620862498605 O
atom 8.4422390929479274 2.2947095938638862 23.7640093630163527 Pt
atom 7.5034650888802741 9.1788535182197890 21.1158845741830525 Pt
atom 7.2820487629975625 3.7152263185446812 22.9443656800462392 O
atom 2.1056894669163331 0.8741981478949045 19.2874117690055762 O
atom 8.6636537475540116 1.4205156435391053 21.9355285442386148 O
atom 10.0916410077619201 3.1689170485449880 22.9443627723941432 O
atom 10.3130642530580623 2.2947103382198737 21.1158879737273679 Pt
atom 5.6326377014653524 0.0000009938638964 23.7640053576168029 Pt
atom 9.1528738261188565 3.7152263129006036 20.2962428509332753 O
atom 0.2348643944513808 0.8741985835389486 21.9355339181091793 O
atom 10.5344867929863923 1.4205041778948613 19.2874141215045327 O
atom 0.7240846776850161 3.1689060929005013 20.2962495815318960 O
atom 0.9455038387131947 6.8841493925754866 18.4677704157347300 Pt
atom 7.5034688399542322 4.5894295182196707 21.1158881304604158 Pt
atom 7.2820542613315666 8.3046635085444329 22.9443685112928009 O
atom 2.1056937522448078 5.4636327278947547 19.2874147228005270 O
atom 8.6636683665662719 6.0099415235384956 21.9355375986049772 O
atom 10.0916579677303577 7.7583421185443147 22.9443740070641660 O
atom 10.3130736763340867 6.8841496682195658 21.1158953531857101 Pt
atom 5.6326459051614695 4.5894309838635410 23.7640100266648560 Pt
atom 9.1528799701618446 8.3046626429003929 20.2962473504903542 O
atom 0.2348715038046872 5.4636322335384984 21.9355351448884335 O
atom 10.5344817605246668 6.0099529078950349 19.2874098313726208 O
atom 0.7240792212104331 7.7583534729006631 20.2962444531201527 O
atom 0.9522191008550924 2.2947188895077621 26.4121309051553972 Pt
atom 0.0134502362306228 0.0000046138636370 23.7640138003053600 Pt
atom 11.0304198471479324 3.7152292341886750 25.5924859919443968 O
atom 2.1124096311864733 0.8742007548267039 27.2317697464680748 O
atom 1.1736376039780614 1.4205251991828045 24.5836522297903315 O
atom 2.6016224315561973 3.1689207341888057 25.5924852046247544 O
atom 9.3810182998266818 0.0000037995076309 26.4121344724854623 Pt
atom 3.9832322833584000 0.8742006691830474 24.5836516298303991 O
atom 10.5412139843468644 1.4205109348265470 27.2317801243581386 O
atom 0.9522203138972659 6.8841421495077180 26.4121314313467508 Pt
atom 11.0304278015112391 8.3046635241883902 25.5924916724925957 O
atom 2.1124151717266177 5.4636315248266545 27.2317764520818457 O
atom 1.1736415487901337 6.0099372791827159 24.5836558735499935 O
atom 2.6016309163155587 7.7583331241884377 25.5924900477504629 O
atom 9.3810154348606805 4.5894264695076270 26.4121298525764061 Pt
atom 3.9832404343202636 5.4636310191825554 24.5836535312586797 O
atom 10.5411999284844562 6.0099477748270491 27.2317690921310032 O
atom 3.7618162522471987 9.1788540595076924 26.4121271764954280 Pt
atom 9.6024341064866459 0.8741986891828081 24.5836543713179552 O
atom 4.9220049109209425 1.4205161848270089 27.2317711465509902 O
atom 6.5714154164249887 2.2947108795077771 26.4121305760397398 Pt
atom 5.4112249894857802 3.7152268541885070 25.5924854532456543 O
atom 7.7316090340216883 0.8741991248268524 27.2317765204215547 O
atom 6.7928379563533161 1.4205047191827649 24.5836567238169152 O
atom 8.2208293172553226 3.1689066341884047 25.5924921838442785 O
atom 8.4422484782835063 6.8841499338633909 23.7640130180471054 Pt
atom 3.7618200033211586 4.5894300595075741 26.4121307327727912 Pt
atom 9.6024383918151202 5.4636332691826590 24.5836573251129025 O
atom 4.9220195299331939 6.0099420648263990 27.2317802009173491 O
atom 6.5714248397010122 6.8841502095074691 26.4121379554980784 Pt
atom 5.4112311335287684 8.3046631841882963 25.5924899528027332 O
atom 7.7316161433749899 5.4636327748264026 27.2317777472008089 O
atom 6.7928329238915879 6.0099534491829383 24.5836524336849926 O
atom 8.2208238607807402 7.7583540141885674 25.5924870554325281 O
