#===============================================================================
# Created using the Atomic Simulation Environment (ASE)

# Mon Mar 23 14:01:24 2026

#=======================================================
lattice_vector 12.9808606199443606 0.0000000000000000 0.0000000000000000 
lattice_vector -0.0000000000000017 6.4846065199999998 0.0000000000000000 
lattice_vector 0.0000000000000000 0.0000000000000000 45.4534764772916944 
atom 9.7356443088388573 4.8634542541548331 16.2363080453452469 Pt
atom 9.7356511347803583 6.4846059914586025 15.0000024890154329 O
atom 9.7356438350773971 1.6211518941548320 16.2363073806648117 Pt
atom 9.7356344399895285 3.2423031714585973 15.0000002545559639 O
atom 3.2452155545020980 4.8634539041548246 16.2363039087707648 Pt
atom 1.2363041244398181 4.8634548641548285 16.2363061880154369 O
atom 5.2541261148221512 4.8634545641548348 16.2363089905075739 O
atom 3.2452087120693025 6.4846061414585972 15.0000001272773034 O
atom 3.2452152292328487 1.6211511441548263 16.2363050189283697 Pt
atom 1.2363036860336196 1.6211532241548292 16.2363061243757727 O
atom 5.2541259663297151 1.6211502341548356 16.2363090753603707 O
atom 3.2452244169109328 3.2423022414585967 15.0000000000000000 O
atom 12.9808586966138328 0.0000008941548379 16.2363101631299571 Pt
atom 6.4904243066353438 4.8634543912322590 19.4815268030397917 Pt
atom 6.4904298574230426 6.4846057141548501 16.2363159967610819 Pt
atom 4.4815154999399907 4.8634549712322492 19.4815226829684178 O
atom 8.4993348740277064 4.8634575012322481 19.4815216670836051 O
atom 6.4904203774820894 0.0000005785360388 18.2452263025221484 O
atom 6.4904195313037327 6.4846059639284874 20.7178305138211556 O
atom 6.4904248511073392 1.6211525112322644 19.4815286556596199 Pt
atom 6.4904297937836342 3.2423023941548474 16.2363143986997471 Pt
atom 4.4815154221582025 1.6211522912322505 19.4815230789482037 O
atom 8.4993350225200803 1.6211506212322495 19.4815220772055682 O
atom 6.4904375743194151 3.2423026785360305 18.2452229437670397 O
atom 6.4904369614852531 3.2423041039284985 20.7178357181291908 O
atom 3.2452124149473436 4.8634542783096721 22.7267395291144894 Pt
atom 3.2452123654502407 0.0000002012322480 19.4815213547824335 Pt
atom 7.7267336990195323 4.8634545141548546 16.2363177209269516 O
atom 11.7445545863161769 4.8634548141548448 16.2363132402191042 O
atom 3.2452192408888436 6.4846060156134415 21.4904339727846718 O
atom 9.7356531806683329 6.4846064968510566 17.4726100307877275 O
atom 3.2452119411858820 1.6211519183096714 22.7267388644340542 Pt
atom 3.2452138645165061 3.2423041312322485 19.4815222528082259 Pt
atom 7.7267334091057762 1.6211503741548536 16.2363175370791524 O
atom 11.7445545792451540 1.6211533641548439 16.2363129008078424 O
atom 3.2452025460980143 3.2423031956134363 21.4904317383252064 O
atom 9.7356342443485087 3.2423028468510608 17.4726118621919824 O
atom 9.7356442805549506 4.8634539283096636 22.7267353925400073 Pt
atom 9.7356417491128351 0.0000012512322424 19.4815188799085846 Pt
atom 7.7267328504926596 4.8634548883096684 22.7267376717846830 O
atom 11.7445548408749989 4.8634545883096738 22.7267404742768129 O
atom 9.7356374381221489 6.4846061656134362 21.4904316110465459 O
atom 3.2452056314327784 6.4846053868510571 17.4726104055522171 O
atom 9.7356439552856955 1.6211511683096658 22.7267365026976123 Pt
atom 9.7356379802335109 3.2423040112322457 19.4815203789745013 Pt
atom 7.7267324120864638 1.6211532483096682 22.7267376081450152 O
atom 11.7445546923825610 1.6211502583096746 22.7267405591296097 O
atom 9.7356531429637805 3.2423022656134357 21.4904314837692425 O
atom 3.2452238465030843 3.2423028468510644 17.4726135097532058 O
atom 12.9808582016379344 4.8634559512322770 19.4815347084940456 Pt
atom 6.4904268027223200 0.0000009183096771 22.7267416468991996 Pt
atom 10.9719464180228510 4.8634553412322701 19.4815321794125609 O
atom 2.0089089834715863 4.8634542412322714 19.4815324858179082 O
atom 0.0000061895445640 0.0000002785360382 18.2452259277575273 O
atom 0.0000059231928218 6.4846056139285047 20.7178378748047933 O
atom 12.9808601320392167 1.6211501712322813 19.4815366459668589 Pt
atom 12.9808589511720349 3.2423045241548420 16.2363121076736334 Pt
atom 10.9719476413175343 1.6211527112322717 19.4815325612503685 O
atom 2.0089104188983082 1.6211529512322727 19.4815328393714680 O
atom 12.9808495631546226 3.2423024585360363 18.2452251640800966 O
atom 12.9808493604424928 3.2423035039285009 20.7178371323405699 O
atom 12.9808530326881861 4.8634544153870980 25.9719582868090306 Pt
atom 12.9808585834758894 6.4846057383096891 22.7267474805303245 Pt
atom 10.9719442259928393 4.8634549953870883 25.9719541667376603 O
atom 2.0089029801361975 4.8634575253870871 25.9719531508528512 O
atom 12.9808491035349380 0.0000006026908780 24.7356577862913909 O
atom 12.9808482573565787 6.4846059880833256 27.2082619975904052 O
atom 12.9808535771601878 1.6211525353871035 25.9719601394288695 Pt
atom 12.9808585198364845 3.2423024183096860 22.7267458824689932 Pt
atom 10.9719441482110494 1.6211523153870899 25.9719545627174462 O
atom 2.0089031286285688 1.6211506453870892 25.9719535609748107 O
atom 0.0000056804279011 3.2423027026908695 24.7356544275362822 O
atom 0.0000050675937362 3.2423041280833371 27.2082672018984333 O
atom 9.7356411410001904 4.8634543024645112 29.2171710128837319 Pt
atom 9.7356410915030835 0.0000002253870872 25.9719528385516760 Pt
atom 1.2363018051280192 4.8634545383096937 22.7267492046961976 O
atom 5.2541226924246640 4.8634548383096838 22.7267447239883467 O
atom 9.7356479669416967 6.4846060397682805 27.9808654565539179 O
atom 3.2452212867768186 0.0000000010058959 23.9630415145569664 O
atom 9.7356406672387319 1.6211519424645104 29.2171703482032967 Pt
atom 9.7356425905693538 3.2423041553870875 25.9719537365774720 Pt
atom 1.2363015152142633 1.6211503983096931 22.7267490208483949 O
atom 5.2541226853536402 1.6211533883096834 22.7267443845770849 O
atom 9.7356312721508615 3.2423032197682753 27.9808632220944489 O
atom 3.2452023504569931 3.2423028710059003 23.9630433459612249 O
atom 3.2452123866634390 4.8634539524645026 29.2171668763092569 Pt
atom 3.2452098552213231 0.0000012753870815 25.9719503636778306 Pt
atom 1.2363009566011534 4.8634549124645066 29.2171691555539255 O
atom 5.2541229469834860 4.8634546124645128 29.2171719580460589 O
atom 3.2452055442306378 6.4846061897682752 27.9808630948157919 O
atom 9.7356343574856243 6.4846054110058962 23.9630418893214596 O
atom 3.2452120613941808 1.6211511924645048 29.2171679864668548 Pt
atom 3.2452060863419989 3.2423040353870847 25.9719518627437509 Pt
atom 1.2363005181949520 1.6211532724645077 29.2171690919142648 O
atom 5.2541227984910481 1.6211502824645141 29.2171720428988593 O
atom 3.2452212490722654 3.2423022897682747 27.9808629675384921 O
atom 9.7356525725559315 3.2423028710059034 23.9630449935224519 O
atom 6.4904263077464206 4.8634559753871169 25.9719661922632845 Pt
atom 12.9808555287751641 0.0000009424645163 29.2171731306684421 Pt
atom 4.4815145241313346 4.8634553653871091 25.9719636631818105 O
atom 8.4993377095244327 4.8634542653871105 25.9719639695871471 O
atom 6.4904349155974135 0.0000003026908773 24.7356574115267698 O
atom 6.4904346492456737 6.4846056380833428 27.2082693585740323 O
atom 6.4904282381477012 1.6211501953871208 25.9719681297361049 Pt
atom 6.4904270572805220 3.2423045483096815 22.7267435914428759 Pt
atom 4.4815157474260205 1.6211527353871111 25.9719640450196181 O
atom 8.4993391449511577 1.6211529753871119 25.9719643231407140 O
atom 6.4904176692631115 3.2423024826908753 24.7356566478493392 O
atom 6.4904174665509791 3.2423035280833394 27.2082686161098160 O
atom 6.4904266895843783 6.4846057624645281 29.2171789642995705 Pt
atom 6.4904266259449637 3.2423024424645250 29.2171773662382392 Pt
atom 7.7267305311808663 4.8634545624645327 29.2171806884654401 O
atom 11.7445514184775099 4.8634548624645229 29.2171762077575963 O
atom 9.7356500128296677 0.0000000251607347 30.4534729983262125 O
atom 7.7267302412671102 1.6211504224645321 29.2171805046176374 O
atom 11.7445514114064871 1.6211534124645226 29.2171758683463381 O
atom 9.7356310765098453 3.2423028951607389 30.4534748297304674 O
atom 3.2452024635941110 6.4846054351607352 30.4534733730907092 O
atom 3.2452206786644195 3.2423028951607424 30.4534764772916944 O
atom 12.9808557833333698 3.2423045724645210 29.2171750752121184 Pt
