#===============================================================================
# Created using the Atomic Simulation Environment (ASE)

# Mon Mar 23 14:01:19 2026

#=======================================================
lattice_vector 9.2039351800005225 0.0000000000000000 0.0000000000000000 
lattice_vector -0.0000000269221396 6.3710923900000003 0.0000000000000000 
lattice_vector 0.0000000000000000 0.0000000000000000 49.4296318176498488 
atom 4.6019964382069460 0.0000022350000506 17.8917645588184939 Pt
atom 2.3009876104584803 1.5927705025000207 15.6174490038267990 Pt
atom 1.1841089242320446 0.0000021812865408 15.0000226000054155 O
atom 3.4178668132220658 6.3710907637135001 16.2348701376480022 O
atom 1.1168751685254319 1.5927705012134941 17.2743563126507098 O
atom 6.9029634704585607 1.5927490575000296 15.6174484038240138 Pt
atom 5.7860654273065570 6.3710919762865288 15.0000118800091400 O
atom 8.0198656501479331 0.0000003587135357 16.2348804376374858 O
atom 5.7188608285290803 1.5927934962135135 17.2743664526446246 O
atom 9.2039346347487143 3.1855475000000175 17.8917722088283959 Pt
atom 2.3009907569927965 4.7783227025000237 15.6174353238257346 Pt
atom 1.1841249907633664 3.1855450612865575 15.0000000000000000 O
atom 3.4178519166910672 3.1855478537134845 16.2348936976530211 O
atom 1.1168808250608617 4.7783170112134989 17.2743459226487985 O
atom 6.9029618769985222 4.7783425675000277 15.6174516138245458 Pt
atom 5.7861165507697896 3.1855464762865831 15.0000182999919254 O
atom 8.0198105566835931 3.1855459787134750 16.2348707376560384 O
atom 5.7188596750690142 4.7783000162135103 17.2743693026450060 O
atom 0.0000192812972119 6.3710861900000380 17.8918021388217134 Pt
atom 2.3009989225104839 1.5927877825000374 20.1661288438232447 Pt
atom 1.1841364062852715 0.0000002912865755 19.5487060099964189 O
atom 3.4178711821934185 0.0000039537135113 20.7835416576467935 O
atom 3.4851115344439867 1.5927545437865651 18.5092227749992766 O
atom 1.1168874305777099 1.5927548512135119 21.8230368626468376 O
atom 4.6020026723141489 0.0000022350000670 26.9891336188169149 Pt
atom 6.9029627125069926 1.5927668275000333 20.1661176338245305 Pt
atom 5.7860710893636833 6.3710904862865387 19.5487068700074929 O
atom 8.0198472822013631 0.0000051687135205 20.7835644676439308 O
atom 8.0870767644404502 1.5927722887865619 18.5092115550000713 O
atom 5.7188621205777181 1.5927729562135198 21.8230361726444464 O
atom 0.0000010702736137 0.0000008200000252 22.4404886588281123 Pt
atom 2.3009938445656841 1.5927705025000367 24.7148180638252128 Pt
atom 1.1841151583392484 0.0000021812865572 24.0973916600038365 O
atom 3.4178730473292696 6.3710907637135161 25.3322391976464161 O
atom 3.4851065564980157 1.5927681637865638 23.0579086150012103 O
atom 1.1168814026326355 1.5927705012135105 26.3717253726491307 O
atom 4.6019802502634697 0.0000028350000378 22.4404577688242099 Pt
atom 6.9029697045657645 1.5927490575000460 24.7148174638224276 Pt
atom 5.7860716614137608 6.3710919762865457 24.0973809400075609 O
atom 8.0198718842551369 0.0000003587135521 25.3322494976358996 O
atom 8.0870822664976139 1.5927924287865727 23.0579067249984746 O
atom 5.7188670626362832 1.5927934962135297 26.3717355126430419 O
atom 0.0000056888553951 3.1855475000000339 26.9891412688268062 Pt
atom 2.3010024390509063 4.7783091825000392 20.1661331938220592 Pt
atom 1.1841281128114152 3.1855504312865670 19.5486680599992084 O
atom 3.4178823387412551 3.1855465237135223 20.7835680876430331 O
atom 3.4851127609832617 4.7783404237865632 18.5092239249988602 O
atom 1.1168839071163410 4.7783376112135079 21.8230360926480209 O
atom 4.6019682147613405 3.1855461550000190 17.8918104688280017 Pt
atom 6.9029649390504897 4.7783296275000353 20.1661312538237709 Pt
atom 5.7860977528256443 3.1855509862865690 19.5487095399985193 O
atom 8.0198207787411313 3.1855448787134915 20.7835669376528536 O
atom 8.0870710209820231 4.7783152687865558 18.5092193950019990 O
atom 5.7188528171188615 4.7783144262135071 21.8230427326475755 O
atom 0.0000318067986378 3.1855451100000578 22.4404473588177531 Pt
atom 2.3009969911000003 4.7783227025000405 24.7148043838241449 Pt
atom 1.1841312248705702 3.1855450612865739 24.0973690599984138 O
atom 3.4178581507982715 3.1855478537135014 25.3322627576514421 O
atom 3.4851156130338046 4.7783191937865732 23.0578993049981591 O
atom 1.1168870591680653 4.7783170112135158 26.3717149826472195 O
atom 4.6019889668104872 3.1855383950000458 22.4404817488212629 Pt
atom 6.9029681111057251 4.7783425675000419 24.7148206738229632 Pt
atom 5.7861227848769925 3.1855464762865995 24.0973873599903428 O
atom 8.0198167907908005 3.1855459787134919 25.3322397976544522 O
atom 8.0870858930381839 4.7782985687865747 23.0579114749972547 O
atom 5.7188659091762171 4.7783000162135272 26.3717383626434270 O
atom 0.0000255154044155 6.3710861900000548 26.9891711988201308 Pt
atom 2.3010051566176877 1.5927877825000543 29.2634979038216585 Pt
atom 1.1841426403924749 0.0000002912865919 28.6460750699948363 O
atom 3.4178774163006223 0.0000039537135277 29.8809107176452073 O
atom 3.4851177685511900 1.5927545437865811 27.6065918349976940 O
atom 1.1168936646849135 1.5927548512135283 30.9204059226452586 O
atom 6.9029689466141964 1.5927668275000499 29.2634866938229408 Pt
atom 5.7860773234708880 6.3710904862865547 28.6460759300059138 O
atom 8.0198535163085651 0.0000051687135369 29.8809335276423482 O
atom 8.0870829985476540 1.5927722887865778 27.6065806149984923 O
atom 5.7188683546849228 1.5927729562135362 30.9204052326428638 O
atom 0.0000073043808177 0.0000008200000416 31.5378577188265297 Pt
atom 2.3010000786728870 1.5927705025000536 33.8121871238236338 Pt
atom 1.1841213924464515 0.0000021812865736 33.1947607200022503 O
atom 3.4178792814364733 6.3710907637135330 34.4296082576448441 O
atom 3.4851127906052191 1.5927681637865805 32.1552776749996383 O
atom 4.6019864843706726 0.0000028350000542 31.5378268288226309 Pt
atom 6.9029759386729683 1.5927490575000625 33.8121865238208414 Pt
atom 5.7860778955209646 6.3710919762865617 33.1947500000059819 O
atom 8.0198781183623407 0.0000003587135684 34.4296185576343277 O
atom 8.0870885006048177 1.5927924287865889 32.1552757849969026 O
atom 2.3010086731581092 4.7783091825000561 29.2635022538204765 Pt
atom 1.1841343469186185 3.1855504312865826 28.6460371199976294 O
atom 3.4178885728484589 3.1855465237135387 29.8809371476414540 O
atom 3.4851189950904646 4.7783404237865810 27.6065929849972775 O
atom 1.1168901412235444 4.7783376112135247 30.9204051526464383 O
atom 4.6019744488685435 3.1855461550000350 26.9891795288264120 Pt
atom 6.9029711731576935 4.7783296275000504 29.2635003138221919 Pt
atom 5.7861039869328481 3.1855509862865845 28.6460785999969403 O
atom 8.0198270128483351 3.1855448787135074 29.8809359976512638 O
atom 8.0870772550892251 4.7783152687865709 27.6065884550004199 O
atom 5.7188590512260644 4.7783144262135240 30.9204117926459929 O
atom 0.0000380409058414 3.1855451100000747 31.5378164188161776 Pt
atom 2.3010032252072037 4.7783227025000556 33.8121734438225729 Pt
atom 1.1841374589777733 3.1855450612865899 33.1947381199968277 O
atom 3.4178643849054744 3.1855478537135178 34.4296318176498488 O
atom 3.4851218471410079 4.7783191937865901 32.1552683649965729 O
atom 4.6019952009176910 3.1855383950000618 31.5378508088196838 Pt
atom 6.9029743452129289 4.7783425675000588 33.8121897338213842 Pt
atom 5.7861290189841963 3.1855464762866159 33.1947564199887637 O
atom 8.0198230248980025 3.1855459787135079 34.4296088576528660 O
atom 8.0870921271453895 4.7782985687865915 32.1552805349956685 O
