#===============================================================================
# Created using the Atomic Simulation Environment (ASE)

# Mon Mar 23 14:01:18 2026

#=======================================================
lattice_vector 9.0973690600005526 0.0000000000000000 0.0000000000000000 
lattice_vector 0.0000063071332193 9.2039351799983606 0.0000000000000000 
lattice_vector 0.0000000000000000 0.0000000000000000 39.5566858999999980 
atom 0.0000146600023625 0.0000067592284797 19.7783371325000097 Pt
atom 2.2743429417838121 2.3009848419250734 15.0000387250000031 Pt
atom 0.6174376843909789 3.4850985892777793 15.0000054862865326 O
atom 3.9312501491770369 1.1168722145717598 15.0000057937134699 O
atom 2.2743348853490981 6.9029486319281821 15.0000177699999924 Pt
atom 1.6569233561656542 5.7860574318750286 19.7783414287865078 O
atom 0.6174296179567662 8.0870638192808499 15.0000232312865265 O
atom 3.9312526127461207 5.7188469045711621 15.0000238987134793 O
atom 6.8230321617812333 2.3009766469234574 15.0000214449999909 Pt
atom 7.4404540609603531 3.4178554265897829 19.7783417062134674 O
atom 5.1661235243884338 3.4850904942773089 15.0000191062865227 O
atom 8.4799386591741257 1.1168630695703559 15.0000214437134645 O
atom 6.8230347153507243 6.9029525069228699 15.0000000000000000 Pt
atom 6.2055974261650437 5.7860548868786710 19.7783429187864961 O
atom 5.1661247879578731 8.0870662042771215 15.0000433712865302 O
atom 8.4799519527470313 5.7188487295659760 15.0000444387134806 O
atom 9.0973600971292221 9.2039221126983310 16.5927984424999835 Pt
atom 2.2743472917850398 2.3009883584625150 18.1855601250000021 Pt
atom 1.6568813926076194 1.1841144553504355 16.5928013737865285 O
atom 2.8917829509644011 3.4178678350461746 16.5927974662134829 O
atom 0.6174388343914073 3.4850998158162660 18.1855913662865341 O
atom 3.9312493791758096 1.1168686911109182 18.1855885537134689 O
atom 0.0000261435624700 4.6019556926858192 16.5927970974999823 Pt
atom 2.2743485053498746 6.9029508584623480 18.1855805699999991 Pt
atom 1.6569260261749432 5.7860840953351600 16.5928019287865354 O
atom 2.8917849545208529 8.0198062750457577 16.5927958212134499 O
atom 0.6174374579547661 8.0870580758170512 18.1855662112865240 O
atom 3.9312591727428803 5.7188376011078104 18.1855653687134691 O
atom 4.5486598800059150 0.0000161677032416 16.5927960525000167 Pt
atom 6.8230184817823316 2.3009797934671483 18.1855736449999910 Pt
atom 6.2055823926078943 1.1841144503447025 16.5927960037865319 O
atom 7.4404776209551624 3.4178405300426395 16.5927987962134544 O
atom 5.1661142143915919 3.4850995508194775 18.1855701362865290 O
atom 8.4799282691760993 1.1168687261129060 18.1855679537134698 O
atom 4.5486974235688908 4.6019733276904446 16.5927893375000011 Pt
atom 6.8230379253501718 6.9029509134606286 18.1855935099999968 Pt
atom 6.2056038461828544 5.7861060103375035 16.5927974187865566 O
atom 7.4404578145186520 8.0197991700498221 16.5927969212134450 O
atom 5.1661295379591374 8.0870698308144373 18.1855495112865277 O
atom 8.4799548027466329 5.7188475761039559 18.1855509587134776 O
atom 2.2743429417838050 2.3009848150029342 21.3711311150000007 Pt
atom 1.6569193426105013 1.1841227218761461 19.7783436237865367 O
atom 2.8917565209605041 3.4178566515943096 19.7783472862134708 O
atom 0.6174376843909719 3.4850985623556401 21.3710978762865302 O
atom 3.9312501491770302 1.1168721876496202 21.3710981837134710 O
atom 9.0973492935728473 4.6019838892407448 19.7783455675000184 Pt
atom 2.2743348853490910 6.9029486050060429 21.3711101599999971 Pt
atom 2.8917824845300801 8.0198327515855397 19.7783485012134825 O
atom 0.6174296179567593 8.0870637923587108 21.3711156212865241 O
atom 3.9312526127461136 5.7188468776490220 21.3711162887134805 O
atom 4.5487074871284161 9.2039205842261378 19.7783441524999866 Pt
atom 6.8230321617812253 2.3009766200013178 21.3711138349999885 Pt
atom 6.2056049926022867 1.1840983568757539 19.7783455137865083 O
atom 5.1661235243884258 3.4850904673551693 21.3711114962865167 O
atom 8.4799386591741204 1.1168630426482162 21.3711138337134585 O
atom 4.5486734435658462 4.6019645842377201 19.7783461674999934 Pt
atom 6.8230347153507171 6.9029524800007298 21.3710923899999941 Pt
atom 7.4404675145378407 8.0198542365853722 19.7783436912135073 O
atom 5.1661247879578660 8.0870661773549823 21.3711357612865243 O
atom 8.4799519527470242 5.7188487026438359 21.3711368287134817 O
atom 9.0973600971292150 9.2039220857761901 22.9638908324999846 Pt
atom 2.2743472917850327 2.3009883315403759 24.5566525150000032 Pt
atom 1.6568813926076122 1.1841144284282958 22.9638937637865297 O
atom 2.8917829509643940 3.4178678081240350 22.9638898562134841 O
atom 0.6174388343914005 3.4850997888941264 24.5566837562865246 O
atom 3.9312493791758030 1.1168686641887786 24.5566809437134665 O
atom 0.0000261435624631 4.6019556657636800 22.9638894874999870 Pt
atom 2.2743485053498675 6.9029508315402088 24.5566729599999931 Pt
atom 1.6569260261749366 5.7860840684130208 22.9638943187865330 O
atom 2.8917849545208463 8.0198062481236168 22.9638882112134546 O
atom 0.6174374579547590 8.0870580488949120 24.5566586012865216 O
atom 3.9312591727428732 5.7188375741856703 24.5566577587134702 O
atom 4.5486598800059079 0.0000161407811020 22.9638884425000178 Pt
atom 6.8230184817823245 2.3009797665450087 24.5566660349999921 Pt
atom 6.2055823926078864 1.1841144234225629 22.9638883937865295 O
atom 7.4404776209551544 3.4178405031204999 22.9638911862134520 O
atom 5.1661142143915848 3.4850995238973379 24.5566625262865301 O
atom 8.4799282691760922 1.1168686991907664 24.5566603437134674 O
atom 4.5486974235688828 4.6019733007683064 22.9638817275000058 Pt
atom 6.8230379253501638 6.9029508865384903 24.5566858999999980 Pt
atom 6.2056038461828482 5.7861059834153643 22.9638898087865506 O
atom 7.4404578145186457 8.0197991431276829 22.9638893112134426 O
atom 5.1661295379591312 8.0870698038922981 24.5566419012865325 O
atom 8.4799548027466258 5.7188475491818167 24.5566433487134788 O
