#===============================================================================
# Created using the Atomic Simulation Environment (ASE)

# Mon Mar 23 14:01:20 2026

#=======================================================
lattice_vector 11.1938930464403850 0.0000000000000000 0.0000000000000000 
lattice_vector -0.0000051258591119 9.0973690599991084 0.0000000000000000 
lattice_vector 0.0000000000000000 0.0000000000000000 33.9671738750683048 
atom 10.8784631502357154 0.0000207894084682 18.2932062941164126 Pt
atom 6.2669264902742583 2.2743464728470602 15.6739741049126309 Pt
atom 4.4420570942312256 2.8917590238119244 15.0000186303720184 O
atom 5.2932967191450659 0.6174406668679931 16.3478944404377309 O
atom 7.2405176793305452 3.9312542288047783 15.0000000000000000 O
atom 3.4684297407792601 9.0973512478406455 15.6739725606388305 Pt
atom 2.4830498819978963 2.2743362844093173 18.2932008110682816 Pt
atom 2.4948528482906482 1.6569247618760936 16.3478939401741421 O
atom 0.6581829825456968 2.8917828553798772 17.6192705716549121 O
atom 3.4566543400699095 3.9312545603783104 17.6192650262102539 O
atom 10.8784821414783917 4.5487073094127233 18.2931999117919375 Pt
atom 6.2669208304558799 6.8230356928420131 15.6739552325585620 Pt
atom 4.4420523626267334 7.4404565638098275 15.0000133451173525 O
atom 5.2933085640831967 5.1661265068728426 16.3479010318533575 O
atom 7.2405315429980908 8.4799427388104025 15.0000076629226946 O
atom 3.4684485183176972 4.5486753978435006 15.6739620663812502 Pt
atom 2.4830340189941289 6.8230361144027265 18.2931884055558385 Pt
atom 2.4948532259801501 6.2055988318764177 16.3478937167895282 O
atom 0.6581600163924517 7.4404678853754209 17.6192788450938664 O
atom 3.4566619670724648 8.4799539003842401 17.6192829534888986 O
atom 9.0653998917467788 9.0973588978437192 15.6739550741066154 Pt
atom 8.0799881927143886 2.2743518444072439 18.2932018256359115 Pt
atom 8.0917826393357615 1.6568859518752375 16.3479129899471261 O
atom 6.2551245639135935 2.8917864753780198 17.6192681060293665 O
atom 9.0536200937863693 3.9312544803854474 17.6192741657788723 O
atom 5.2815354840273470 0.0000291194125875 18.2932007328632764 Pt
atom 0.6699787738927185 2.2743488828458451 15.6739696403329312 Pt
atom 10.0390154016465178 2.8917843038122997 15.0000040637654521 O
atom 10.8902581640567657 0.6174372868735817 16.3479017829277922 O
atom 1.6435805721210071 3.9312600988093211 15.0000097549572047 O
atom 9.0653770565484333 4.5486649878400423 15.6739697483134606 Pt
atom 8.0917770241349878 6.2055869518730704 16.3479085717323152 O
atom 6.2551452089038380 7.4404811453811330 17.6192536587351185 O
atom 9.0536057774281193 8.4799333703783919 17.6192572477983660 O
atom 5.2815140044409778 4.5487003994076272 18.2932043894737646 Pt
atom 0.6699835306421805 6.8230383028495432 15.6739803112693288 Pt
atom 10.0390193067256437 7.4404571638130195 15.0000009243521362 O
atom 10.8902364308953814 5.1661293668664294 16.3478947421651988 O
atom 1.6435616058964784 8.4799557288031071 15.0000035839955999 O
atom 9.9048523031240894 1.6569249234415622 18.9671605576228757 O
atom 1.5094409532698496 0.6174304684424949 18.9671537864143858 O
atom 9.9048708494941593 6.2056105734445204 18.9671482441023969 O
atom 1.5094478921625889 5.1661256384482321 18.9671717035309584 O
atom 7.1063970037887012 0.6174428384491175 18.9671738750683048 O
atom 4.3079134635954253 1.6569284534437203 18.9671607117957706 O
atom 8.0800003671880702 6.8230230344121159 18.2932080673274200 Pt
atom 7.1063825755304402 5.1661182184418930 18.9671562683373338 O
atom 4.3078903146333873 6.2056062734393107 18.9671694766425247 O
