#===============================================================================
# Created using the Atomic Simulation Environment (ASE)

# Mon Mar 23 14:01:22 2026

#=======================================================
lattice_vector 11.2383934762033828 0.0000000000000000 0.0000000000000000 
lattice_vector 3.7416502063603971 10.5972441125269068 0.0000000000000000 
lattice_vector 0.0000000000000000 0.0000000000000000 32.0206584307724142 
atom 4.6938693072154898 3.3205644084303660 17.0206533266278726 Pt
atom 3.5336765773049486 4.9605849641207866 17.0206500042996431 O
atom 5.8540598375468686 1.6805401399781716 17.0206474965000609 O
atom 4.9152878103384587 3.4772059521440162 15.0000068208649857 O
atom 6.3432726379166029 4.4873975185582555 16.7476177378278379 O
atom 1.8842750299837050 1.3329836758287985 15.8738141157190142 Pt
atom 3.7550948123654546 6.6316037826256382 15.8738071596760442 Pt
atom 6.5646948004021377 8.6191823535187311 17.0206501770430769 Pt
atom 5.4045081686124501 10.2592092066620868 17.0206584307724107 O
atom 7.7248906406806706 6.9791616249126864 17.0206530387074046 O
atom 6.7861054952745459 8.7758250688658084 15.0000000000000000 O
atom 8.2140954374819639 9.7860194566294219 16.7476155716008783 O
atom 7.5034650888802830 1.3329819000554102 15.8738046676664197 Pt
atom 10.3130656227853859 3.3205576350127566 17.0206490383612312 Pt
atom 9.1528751958461871 4.9605831719001534 17.0206483482373514 O
atom 11.4732592403820846 1.6805353426899023 17.0206525491598022 O
atom 10.5344881627137177 3.4771859672853460 15.0000004779870437 O
atom 11.9624795236157286 4.4873818177297231 16.7476167360794683 O
atom 12.1838986846439017 8.6191874045396322 17.0206578105363810 Pt
atom 11.0237044676919744 10.2592105547737305 17.0206564545374768 O
atom 13.3440885981755208 6.9791616776862684 17.0206574492680573 O
atom 12.4053185729266726 8.7758145712213320 15.0000067682126144 O
atom 13.8333081740907726 9.7860088043383016 16.7476231880904969 O
atom 9.3742961115218701 6.6316066064635049 15.8738109896329043 Pt
