#===============================================================================
# Created using the Atomic Simulation Environment (ASE)

# Mon Mar 23 14:01:18 2026

#=======================================================
lattice_vector 9.0973690600005526 0.0000000000000000 0.0000000000000000 
lattice_vector 0.0000063071332193 9.2039351799983606 0.0000000000000000 
lattice_vector 0.0000000000000000 0.0000000000000000 44.3349889524999980 
atom 0.0000146600023695 0.0000067861506193 18.1855477950000015 Pt
atom 1.6569233561656611 5.7860574587971678 18.1855520912864996 O
atom 7.4404540609603611 3.4178554535119230 18.1855523687134628 O
atom 6.2055974261650491 5.7860549138008119 18.1855535812864950 O
atom 9.0973600971292292 9.2039221396204702 15.0000091049999824 Pt
atom 2.2743472917850469 2.3009883853846551 16.5927707874999975 Pt
atom 1.6568813926076265 1.1841144822725749 15.0000120362865239 O
atom 2.8917829509644077 3.4178678619683143 15.0000081287134783 O
atom 0.6174388343914143 3.4850998427384061 16.5928020287865259 O
atom 3.9312493791758167 1.1168687180330577 16.5927992162134608 O
atom 0.0000261435624770 4.6019557196079592 15.0000077599999848 Pt
atom 2.2743485053498818 6.9029508853844872 16.5927912324999944 Pt
atom 1.6569260261749501 5.7860841222572992 15.0000125912865272 O
atom 2.8917849545208600 8.0198063019678969 15.0000064837134488 O
atom 0.6174374579547731 8.0870581027391903 16.5927768737865158 O
atom 3.9312591727428874 5.7188376280299495 16.5927760312134644 O
atom 4.5486598800059213 0.0000161946253812 15.0000067150000156 Pt
atom 6.8230184817823369 2.3009798203892879 16.5927843074999899 Pt
atom 6.2055823926079006 1.1841144772668422 15.0000066662865272 O
atom 7.4404776209551686 3.4178405569647796 15.0000094587134463 O
atom 5.1661142143915990 3.4850995777416172 16.5927807987865243 O
atom 8.4799282691761064 1.1168687530350454 16.5927786162134616 O
atom 4.5486974235688979 4.6019733546125847 15.0000000000000000 Pt
atom 6.8230379253501781 6.9029509403827687 16.5928041724999922 Pt
atom 6.2056038461828624 5.7861060372596436 15.0000080812865519 O
atom 7.4404578145186591 8.0197991969719613 15.0000075837134403 O
atom 5.1661295379591454 8.0870698577365783 16.5927601737865302 O
atom 8.4799548027466400 5.7188476030260942 16.5927616212134730 O
atom 0.0000146600023625 0.0000067592284797 24.5566401850000062 Pt
atom 2.2743429417838121 2.3009848419250734 19.7783417774999997 Pt
atom 1.6569193426105084 1.1841227487982855 18.1855542862865356 O
atom 2.8917565209605112 3.4178566785164493 18.1855579487134698 O
atom 0.6174376843909789 3.4850985892777793 19.7783085387865292 O
atom 3.9312501491770369 1.1168722145717598 19.7783088462134664 O
atom 9.0973492935728544 4.6019839161628848 18.1855562300000138 Pt
atom 2.2743348853490981 6.9029486319281821 19.7783208224999889 Pt
atom 1.6569233561656542 5.7860574318750286 24.5566444812865043 O
atom 2.8917824845300872 8.0198327785076788 18.1855591637134744 O
atom 0.6174296179567662 8.0870638192808499 19.7783262837865230 O
atom 3.9312526127461207 5.7188469045711621 19.7783269512134758 O
atom 4.5487074871284223 9.2039206111482788 18.1855548149999784 Pt
atom 6.8230321617812333 2.3009766469234574 19.7783244974999874 Pt
atom 6.2056049926022929 1.1840983837978933 18.1855561762865072 O
atom 7.4404540609603531 3.4178554265897829 24.5566447587134640 O
atom 5.1661235243884338 3.4850904942773089 19.7783221587865192 O
atom 8.4799386591741257 1.1168630695703559 19.7783244962134610 O
atom 4.5486734435658533 4.6019646111598593 18.1855568299999923 Pt
atom 6.8230347153507243 6.9029525069228699 19.7783030524999965 Pt
atom 6.2055974261650437 5.7860548868786710 24.5566459712864926 O
atom 7.4404675145378478 8.0198542635075114 18.1855543537135027 O
atom 5.1661247879578731 8.0870662042771215 19.7783464237865267 O
atom 8.4799519527470313 5.7188487295659760 19.7783474912134771 O
atom 9.0973600971292221 9.2039221126983310 21.3711014949999800 Pt
atom 2.2743472917850398 2.3009883584625150 22.9638631774999986 Pt
atom 1.6568813926076194 1.1841144553504355 21.3711044262865251 O
atom 2.8917829509644011 3.4178678350461746 21.3711005187134795 O
atom 0.6174388343914073 3.4850998158162660 22.9638944187865306 O
atom 3.9312493791758096 1.1168686911109182 22.9638916062134655 O
atom 0.0000261435624700 4.6019556926858192 21.3711001499999789 Pt
atom 2.2743485053498746 6.9029508584623480 22.9638836224999956 Pt
atom 1.6569260261749432 5.7860840953351600 21.3711049812865319 O
atom 2.8917849545208529 8.0198062750457577 21.3710988737134464 O
atom 0.6174374579547661 8.0870580758170512 22.9638692637865205 O
atom 3.9312591727428803 5.7188376011078104 22.9638684212134656 O
atom 4.5486598800059150 0.0000161677032416 21.3710991050000132 Pt
atom 6.8230184817823316 2.3009797934671483 22.9638766974999875 Pt
atom 6.2055823926078943 1.1841144503447025 21.3710990562865284 O
atom 7.4404776209551624 3.4178405300426395 21.3711018487134510 O
atom 5.1661142143915919 3.4850995508194775 22.9638731887865255 O
atom 8.4799282691760993 1.1168687261129060 22.9638710062134663 O
atom 4.5486974235688908 4.6019733276904446 21.3710923899999976 Pt
atom 6.8230379253501718 6.9029509134606286 22.9638965624999933 Pt
atom 6.2056038461828544 5.7861060103375035 21.3711004712865531 O
atom 7.4404578145186520 8.0197991700498221 21.3710999737134415 O
atom 5.1661295379591374 8.0870698308144373 22.9638525637865243 O
atom 8.4799548027466329 5.7188475761039559 22.9638540112134741 O
atom 2.2743429417838050 2.3009848150029342 26.1494341674999973 Pt
atom 1.6569193426105013 1.1841227218761461 24.5566466762865332 O
atom 2.8917565209605041 3.4178566515943096 24.5566503387134674 O
atom 0.6174376843909719 3.4850985623556401 26.1494009287865268 O
atom 3.9312501491770302 1.1168721876496202 26.1494012362134676 O
atom 9.0973492935728473 4.6019838892407448 24.5566486200000149 Pt
atom 2.2743348853490910 6.9029486050060429 26.1494132124999936 Pt
atom 2.8917824845300801 8.0198327515855397 24.5566515537134791 O
atom 0.6174296179567593 8.0870637923587108 26.1494186737865206 O
atom 3.9312526127461136 5.7188468776490220 26.1494193412134770 O
atom 4.5487074871284161 9.2039205842261378 24.5566472049999831 Pt
atom 6.8230321617812253 2.3009766200013178 26.1494168874999851 Pt
atom 6.2056049926022867 1.1840983568757539 24.5566485662865048 O
atom 5.1661235243884258 3.4850904673551693 26.1494145487865133 O
atom 8.4799386591741204 1.1168630426482162 26.1494168862134551 O
atom 4.5486734435658462 4.6019645842377201 24.5566492199999900 Pt
atom 6.8230347153507171 6.9029524800007298 26.1493954424999906 Pt
atom 7.4404675145378407 8.0198542365853722 24.5566467437135039 O
atom 5.1661247879578660 8.0870661773549823 26.1494388137865208 O
atom 8.4799519527470242 5.7188487026438359 26.1494398812134783 O
atom 9.0973600971292150 9.2039220857761901 27.7421938849999812 Pt
atom 2.2743472917850327 2.3009883315403759 29.3349555674999998 Pt
atom 1.6568813926076122 1.1841144284282958 27.7421968162865262 O
atom 2.8917829509643940 3.4178678081240350 27.7421929087134806 O
atom 0.6174388343914005 3.4850997888941264 29.3349868087865211 O
atom 3.9312493791758030 1.1168686641887786 29.3349839962134631 O
atom 0.0000261435624631 4.6019556657636800 27.7421925399999836 Pt
atom 2.2743485053498675 6.9029508315402088 29.3349760124999897 Pt
atom 1.6569260261749366 5.7860840684130208 27.7421973712865295 O
atom 2.8917849545208463 8.0198062481236168 27.7421912637134511 O
atom 0.6174374579547590 8.0870580488949120 29.3349616537865181 O
atom 3.9312591727428732 5.7188375741856703 29.3349608112134668 O
atom 4.5486598800059079 0.0000161407811020 27.7421914950000144 Pt
atom 6.8230184817823245 2.3009797665450087 29.3349690874999887 Pt
atom 6.2055823926078864 1.1841144234225629 27.7421914462865260 O
atom 7.4404776209551544 3.4178405031204999 27.7421942387134486 O
atom 5.1661142143915848 3.4850995238973379 29.3349655787865267 O
atom 8.4799282691760922 1.1168686991907664 29.3349633962134639 O
atom 4.5486974235688828 4.6019733007683064 27.7421847800000023 Pt
atom 6.8230379253501638 6.9029508865384903 29.3349889524999945 Pt
atom 6.2056038461828482 5.7861059834153643 27.7421928612865472 O
atom 7.4404578145186457 8.0197991431276829 27.7421923637134391 O
atom 5.1661295379591312 8.0870698038922981 29.3349449537865290 O
atom 8.4799548027466258 5.7188475491818167 29.3349464012134753 O
