#===============================================================================
# Created using the Atomic Simulation Environment (ASE)

# Mon Mar 23 14:01:20 2026

#=======================================================
lattice_vector 6.3710923900000003 0.0000000000000000 0.0000000000000000 
lattice_vector -0.0000000000000100 9.0973690600005526 0.0000000000000000 
lattice_vector 0.0000000000000000 0.0000000000000000 36.8357481147047991 
atom 1.5927667205448026 2.2743474996155526 16.1168937248578743 Pt
atom 6.3710903840509232 1.6569359704321129 15.0000025449963488 O
atom 0.0000050570387036 2.8917950987965391 17.2337778647068944 O
atom 1.5927721768276553 0.6174422322232203 17.3010089122105768 O
atom 0.0000007033216380 4.5487201013948741 18.4178656973474730 Pt
atom 1.5927489505447858 6.8230473296171770 16.1168975998524928 Pt
atom 6.3710918740509266 6.2056100404315018 15.0000000000000000 O
atom 0.0000002470386312 7.4404801288042997 17.2337993497067004 O
atom 1.5927923168276428 5.1661374022243267 17.3010112972069265 O
atom 3.1855473833216377 0.0000036513951252 18.4178672123585940 Pt
atom 4.7783295205447942 2.2743611196163331 16.1168959648531853 Pt
atom 3.1855508840508411 1.6569386404413995 15.0000291949954345 O
atom 3.1855447670387855 2.8917975687873079 17.2337513747060171 O
atom 4.7783151568276718 0.6174500722212236 17.3010031822078219 O
atom 4.7783424605447884 6.8230505396166272 16.1168960198515236 Pt
atom 3.1855463740507672 6.2056164604493098 15.0000511099977700 O
atom 3.1855458670388033 7.4404704287851056 17.2337442697100869 O
atom 4.7782984568276303 5.1661421522255955 17.3010149372051458 O
atom 6.3710860733215755 0.0000335814020413 18.4178870523481422 Pt
atom 1.5927876560983907 2.2743618631834850 20.7188651148532301 Pt
atom 0.0000001696044221 1.6569382640101797 19.6020030149958373 O
atom 0.0000038225923299 2.8917754423601822 21.8357369447140144 O
atom 1.5927547298155302 3.9312690705767102 19.5347524874997731 O
atom 1.5927703760984111 6.8230510831809061 20.7188569198515324 Pt
atom 0.0000020596044936 6.2056239140019658 19.6019786499954449 O
atom 6.3710906325923267 7.4404729823600313 21.8357357197094615 O
atom 1.5927703798155544 8.4799575805737994 19.5347433424984303 O
atom 4.7783090560983785 2.2743662131847162 20.7188686448516322 Pt
atom 3.1855503096044475 1.6569003140072947 19.6019947350090717 O
atom 3.1855463925922933 2.8918018723640753 21.8357481147047991 O
atom 4.7783374898155406 3.9312683005754865 19.5347489775001506 O
atom 3.1855449933215403 4.5486788014055906 18.4178964473618549 Pt
atom 4.7783225760984003 6.8230374031820062 20.7188600798563130 Pt
atom 3.1855449396044424 6.2056013140075681 19.6019947300033266 O
atom 3.1855477225923750 7.4404965423548362 21.8357208097012645 O
atom 4.7783168898155353 8.4799471905757748 19.5347490125020471 O
