#===============================================================================
# Created using the Atomic Simulation Environment (ASE)

# Mon Mar 23 14:01:22 2026

#=======================================================
lattice_vector 11.2383934762033828 0.0000000000000000 0.0000000000000000 
lattice_vector 3.7416502063603971 10.5972441125269068 0.0000000000000000 
lattice_vector 0.0000000000000000 0.0000000000000000 38.9017092414892574 
atom 10.5277683877700259 7.4475875267743046 15.0000051523511324 O
atom 8.6569392220562822 2.1489655198496882 15.0000017753647725 O
atom 5.6259196319234492 0.0047565460948755 15.8738072052230343 Pt
atom 4.9085593143441102 7.4475965609761996 15.0000000000000000 O
atom 1.8775432682554494 5.3033828446466060 15.8738059657083745 Pt
atom 0.0067242003839275 0.0047592156907233 15.8738097618034253 Pt
atom 3.0377371209543584 2.1489812447363699 15.0000068772778761 O
atom 8.4355181438485651 5.9674960480428769 19.3143368534042779 Pt
atom 7.4967492792241028 5.3033817606788833 15.8738150875723427 Pt
atom 7.2753254139380239 7.6075166037332966 19.3143335310760556 O
atom 9.5957086741799476 4.3274717795906783 19.3143310232764662 O
atom 8.6569366469715341 6.1241375917565266 17.2936903476413839 O
atom 10.0849214745496774 7.1343291581707629 19.0413012646042397 O
atom 10.3063447428073722 7.2909627435485156 17.0206535446005311 Pt
atom 5.6259238666167803 3.9799153154413074 18.1674976424954195 Pt
atom 9.1461503506840245 8.9309828855660136 17.0206497586740824 O
atom 11.4665313263518680 5.6509361680916488 17.0206502320514801 O
atom 6.7861195511369452 4.8006558871617973 19.5873724362915738 O
atom 11.9557597726084648 8.4577834461210681 16.7476203105892445 O
atom 8.4355179871634132 1.9923352178331355 17.0206511683199970 Pt
atom 7.4967436489985255 9.2785354222381482 18.1674906864524495 Pt
atom 7.2753319985740141 3.6323627511919119 17.0206578229869905 O
atom 9.5957128449927716 0.3523143658812810 17.0206544438435436 O
atom 8.6569405917836093 10.0992779927640850 19.5873690593052139 O
atom 10.0849285895817076 3.1591567553580142 16.7476138860947756 O
atom 6.5646934306748204 0.6688698806043322 19.3143337038194822 Pt
atom 5.6259210016507728 7.9550690190092705 20.4611744891634757 Pt
atom 5.4045067988851283 2.3088967337476887 19.3143419575488160 O
atom 11.4665394773137450 9.6260932645251955 19.3143365654838099 O
atom 6.7861041255472188 0.8255125959514117 17.2936835267764053 O
atom 8.2140940677546315 1.8357069837150251 19.0412990983772836 O
atom 4.6871446597380206 7.2909541712376358 17.0206484922320165 Pt
atom 11.2451139255133477 3.9799135396679226 18.1674881944428215 Pt
atom 3.5269543297876575 8.9309796381526461 17.0206494240504931 O
atom 5.8473396732767329 5.6509330829763229 17.0206516170490971 O
atom 12.4053039539144159 4.8006649213636878 19.5873672839404449 O
atom 6.3365465745520204 8.4577925853410534 16.7476149362151112 O
atom 2.8163209832150784 5.9674892746252644 19.3143325651376365 Pt
atom 9.3742879078257513 2.6564512050340987 20.4611732496488123 Pt
atom 12.8945240324792518 7.6075148115126634 19.3143318750137531 O
atom 3.9765146008117771 4.3274669823024103 19.3143360759362075 O
atom 3.0377435231434093 6.1241176068978564 17.2936840047634455 O
atom 4.4657348840454159 7.1343134573422313 19.0413002628558736 O
atom 0.9455038387131879 0.6688749316252358 19.3143413373127864 Pt
atom 11.2451190463146364 7.9550716886051189 20.4611770457438702 Pt
atom 11.0237030979646438 2.3088980818593341 19.3143399813138821 O
atom 5.8473439586052098 9.6260933172987801 19.3143409760444591 O
atom 1.1669237269959685 0.8255020983069350 17.2936902949890161 O
atom 2.5949133281600543 1.8356963314239045 19.0413067148668951 O
atom 2.8163290367637850 1.9923389384314585 17.0206608474364209 Pt
atom 13.1159449481549402 9.2785382460760157 18.1674945164093025 Pt
atom 1.6561353305915396 3.6323633161579361 17.0206561635453042 O
atom 3.9765203404377596 0.3523148013061300 17.0206561903365170 O
atom 14.2761319668850621 10.0992937176507667 19.5873741612183174 O
atom 4.4657280578435117 3.1591763448231744 16.7476217345931566 O
atom 4.6938693072154898 3.3205644084303660 23.9017041373447192 Pt
atom 3.7551004425910373 2.6564501210663729 20.4611823715127876 Pt
atom 3.5336765773049486 4.9605849641207866 23.9017008150164898 O
atom 5.8540598375468686 1.6805401399781716 23.9016983072169076 O
atom 4.9152878103384587 3.4772059521440162 21.8810576315818324 O
atom 6.3432726379166029 4.4873975185582555 23.6286685485446846 O
atom 6.5646959061743058 4.6440311039360047 21.6080208285409761 Pt
atom 1.8842750299837050 1.3329836758287985 22.7548649264358609 Pt
atom 5.4045015140509589 6.2840512459535036 21.6080170426145273 O
atom 7.7248824897187989 3.0040045284791401 21.6080175159919214 O
atom 8.2141109359753930 5.8108518065085573 21.3349875945296894 O
atom 8.4355193568907350 9.9426476907475330 21.6080184522604348 Pt
atom 3.7550948123654546 6.6316037826256382 22.7548579703928908 Pt
atom 3.5336831619409392 0.9854311115794033 21.6080251069274318 O
atom 9.5957142147200951 8.3026268387956783 21.6080217277839814 O
atom 6.3432797529486340 0.5122251157455041 21.3349811700352170 O
atom 6.5646948004021377 8.6191823535187311 23.9017009877599236 Pt
atom 5.4045081686124501 10.2592092066620868 23.9017092414892574 O
atom 7.7248906406806706 6.9791616249126864 23.9017038494242513 O
atom 6.7861054952745459 8.7758250688658084 21.8810508107168467 O
atom 8.2140954374819639 9.7860194566294219 23.6286663823177250 O
atom 12.1838892993083370 4.6440225316251240 21.6080157761724614 Pt
atom 7.5034650888802830 1.3329819000554102 22.7548554783832664 Pt
atom 11.0236989693579641 6.2840479985401361 21.6080167079909380 O
atom 2.1056908366436575 3.0040014433638129 21.6080189009895420 O
atom 2.5948977379189446 5.8108609457285434 21.3349822201555561 O
atom 10.3130656227853859 3.3205576350127566 23.9016998490780779 Pt
atom 9.1528751958461871 4.9605831719001534 23.9016991589541981 O
atom 11.4732592403820846 1.6805353426899023 23.9017033598766488 O
atom 10.5344881627137177 3.4771859672853460 21.8810512887038904 O
atom 11.9624795236157286 4.4873818177297231 23.6286675467963150 O
atom 12.1838986846439017 8.6191874045396322 23.9017086212532277 Pt
atom 11.0237044676919744 10.2592105547737305 23.9017072652543234 O
atom 13.3440885981755208 6.9791616776862684 23.9017082599849040 O
atom 12.4053185729266726 8.7758145712213320 21.8810575789294610 O
atom 13.8333081740907726 9.7860088043383016 23.6286739988073435 O
atom 14.0547238826944838 9.9426514113458548 21.6080281313768623 Pt
atom 9.3742961115218701 6.6316066064635049 22.7548618003497509 Pt
atom 9.1528799701618464 0.9854316765454247 21.6080234474857527 O
atom 3.9765217101650823 8.3026272742205283 21.6080234742769619 O
atom 0.7240792212104361 0.5122447052106659 21.3349890185336015 O
