#===============================================================================
# Created using the Atomic Simulation Environment (ASE)

# Mon Mar 23 14:01:22 2026

#=======================================================
lattice_vector 9.1788542800000368 0.0000000000000000 0.0000000000000000 
lattice_vector 0.0000016600002026 9.1788565199998882 0.0000000000000000 
lattice_vector 0.0000000000000000 0.0000000000000000 39.7269138500000238 
atom 2.2947116816046891 2.2947169566045571 15.0000031100000086 Pt
atom 0.8741960300546648 3.7152273850550177 15.0000025300000033 O
atom 3.7152220331540144 0.8741987381545813 15.0000000000000000 O
atom 1.4205122372569963 1.4205234403556990 19.8634569180952028 O
atom 2.2947133680724123 2.2947178730720461 18.2423049900000116 Pt
atom 0.0000033723383609 0.0000018623378919 16.6211550950000131 Pt
atom 0.8741962465223339 3.7152277115226373 18.2423052100000049 O
atom 3.7152224196216648 0.8741989146221819 18.2423068800000010 O
atom 1.4205220307880424 1.4205089138871727 16.6211548180951993 O
atom 3.1689232288876412 3.1689102357876031 16.6211534019048273 O
atom 2.2947132466043385 6.8841402166044343 15.0000032350000048 Pt
atom 9.1788512138056717 4.5894249488061334 19.8634572999999968 Pt
atom 0.8742060750553112 8.3046616750541276 15.0000029750000223 O
atom 3.7152306981543397 5.4636295081538142 15.0000026750000117 O
atom 2.2947124330719655 6.8841400730721496 18.2423055950000013 Pt
atom 9.1788529173379949 4.5894245323383407 16.6211533700000018 Pt
atom 0.8742057315229548 8.3046617415217945 18.2423071150000169 O
atom 3.7152304446219584 5.4636292646214777 18.2423041250000111 O
atom 1.4205044557889202 6.0099457538887799 16.6211543130951895 O
atom 3.1689051238884156 7.7583459557892578 16.6211546469048130 O
atom 6.8841377316038930 2.2947079316046555 15.0000035850000017 Pt
atom 4.5894224988056571 9.1788521138062986 19.8634562499999952 Pt
atom 5.4636247500544446 3.7152247400548735 15.0000026250000005 O
atom 8.3046553031538668 0.8741969431540239 15.0000029250000040 O
atom 6.8841382780716236 2.2947089380722465 18.2423063449999958 Pt
atom 4.5894209023383556 9.1788558473388004 16.6211534899999975 Pt
atom 5.4636243865221088 3.7152249965225481 18.2423042650000014 O
atom 8.3046552496215185 0.8741970996216671 18.2423072550000036 O
atom 6.0099449307875252 1.4205029688875559 16.6211552430951848 O
atom 7.7583466788871664 3.1689047807879351 16.6211546469048166 O
atom 6.8841477766050883 6.8841482716037685 15.0000015500000217 Pt
atom 4.5894273438059390 4.5894281138058375 19.8634565950000059 Pt
atom 5.4636311450553539 8.3046619300543103 15.0000021600000153 O
atom 8.3046607781545401 5.4636315231535475 15.0000032600000210 O
atom 6.0099513422560626 6.0099400353546359 19.8634572180952027 O
atom 6.8841505030727230 6.8841482680711579 18.2423073300000240 Pt
atom 4.5894289073384105 4.5894293173380580 16.6211529650000074 Pt
atom 5.4636322715229380 8.3046613265218525 18.2423047900000164 O
atom 8.3046620346221083 5.4636307496210748 18.2423045500000143 O
atom 6.0099386157894763 6.0099516988881447 16.6211550380951998 O
atom 7.7583395338889973 7.7583521607886015 16.6211540019048272 O
atom 2.2947116645399652 2.2947169395398386 21.4846096300000085 Pt
atom 0.0000045388060970 0.0000029388054260 19.8634582950000151 Pt
atom 0.8741960129899407 3.7152273679902983 21.4846090499999995 O
atom 3.7152220160892901 0.8741987210898620 21.4846065199999998 O
atom 3.1689072153560600 3.1689188722566888 19.8634580619048151 O
atom 2.2947133510076885 2.2947178560073263 24.7269115100000079 Pt
atom 0.0000033552736368 0.0000018452731725 23.1057616150000129 Pt
atom 0.8741962294576098 3.7152276944579183 24.7269117300000048 O
atom 3.7152224025569405 0.8741988975574626 24.7269134000000008 O
atom 1.4205220137233183 1.4205088968224537 23.1057613380951992 O
atom 3.1689232118229169 3.1689102187228833 23.1057599219048271 O
atom 2.2947132295396142 6.8841401995397158 21.4846097550000046 Pt
atom 0.8742060579905870 8.3046616579894081 21.4846094950000186 O
atom 3.7152306810896158 5.4636294910890948 21.4846091950000115 O
atom 1.4205178322556331 6.0099355203552101 19.8634580130951903 O
atom 3.1689172103547261 7.7583312622558038 19.8634575169048126 O
atom 2.2947124160072407 6.8841400560074293 24.7269121150000046 Pt
atom 9.1788529002732719 4.5894245152736222 23.1057598900000016 Pt
atom 0.8742057144582306 8.3046617244570733 24.7269136350000167 O
atom 3.7152304275572345 5.4636292475567592 24.7269106450000109 O
atom 1.4205044387241961 6.0099457368240605 23.1057608330951894 O
atom 3.1689051068236913 7.7583459387245393 23.1057611669048129 O
atom 6.8841377145391691 2.2947079145399361 21.4846101049999980 Pt
atom 5.4636247329897207 3.7152247229901545 21.4846091450000003 O
atom 8.3046552860891438 0.8741969260893044 21.4846094450000038 O
atom 6.0099339072561744 1.4205141553561931 19.8634578630951886 O
atom 7.7583315953557692 3.1689154572569382 19.8634586269048121 O
atom 6.8841382610068989 2.2947089210075271 24.7269128649999956 Pt
atom 4.5894208852736318 9.1788558302740793 23.1057600099999974 Pt
atom 5.4636243694573841 3.7152249794578287 24.7269107850000012 O
atom 8.3046552325567937 0.8741970825569477 24.7269137749999999 O
atom 6.0099449137228005 1.4205029518228369 23.1057617630951846 O
atom 7.7583466618224417 3.1689047637232157 23.1057611669048164 O
atom 6.8841477595403644 6.8841482545390491 21.4846080700000179 Pt
atom 5.4636311279906300 8.3046619129895891 21.4846086800000151 O
atom 8.3046607610898135 5.4636315060888299 21.4846097800000173 O
atom 7.7583522003555840 7.7583405272550934 19.8634584119048263 O
atom 6.8841504860079992 6.8841482510064385 24.7269138500000238 Pt
atom 4.5894288902736875 4.5894293002733386 23.1057594850000072 Pt
atom 5.4636322544582141 8.3046613094571331 24.7269113100000197 O
atom 8.3046620175573853 5.4636307325563553 24.7269110700000141 O
atom 6.0099385987247524 6.0099516818234244 23.1057615580951996 O
atom 7.7583395168242744 7.7583521437238820 23.1057605219048270 O
