#===============================================================================
# Created using the Atomic Simulation Environment (ASE)

# Mon Mar 23 14:01:20 2026

#=======================================================
lattice_vector 11.1938930464403850 0.0000000000000000 0.0000000000000000 
lattice_vector -0.0000051258591119 9.0973690599991084 0.0000000000000000 
lattice_vector 0.0000000000000000 0.0000000000000000 44.4441582700544870 
atom 3.6261482815291108 0.0000167031343070 18.2932062941164091 Pt
atom 10.2085046680080360 2.2743423865728984 15.6739741049126255 Pt
atom 8.3836352719650069 2.8917549375377627 15.0000186303720202 O
atom 9.2348748968788463 0.6174365805938318 16.3478944404377309 O
atom 11.1820958570643239 3.9312501425306174 15.0000000000000000 O
atom 7.4100079185130401 9.0973471615664838 15.6739725606388305 Pt
atom 6.4246280597316776 2.2743321981351556 18.2932008110682816 Pt
atom 6.4364310260244286 1.6569206756019321 16.3478939401741385 O
atom 4.5997611602794777 2.8917787691057164 17.6192705716549085 O
atom 7.3982325178036881 3.9312504741041487 17.6192650262102539 O
atom 3.6261672727717857 4.5487032231385625 18.2931999117919375 Pt
atom 10.2084990081896603 6.8230316065678513 15.6739552325585656 Pt
atom 8.3836305403605120 7.4404524775356666 15.0000133451173507 O
atom 9.2348867418169736 5.1661224205986827 16.3479010318533575 O
atom 11.1821097207318711 8.4799386525362408 15.0000076629226946 O
atom 7.4100266960514745 4.5486713115693389 15.6739620663812538 Pt
atom 6.4246121967279084 6.8230320281285666 18.2931884055558385 Pt
atom 6.4364314037139287 6.2055947456022560 16.3478937167895246 O
atom 4.5997381941262319 7.4404637991012601 17.6192788450938664 O
atom 7.3982401448062474 8.4799498141100784 17.6192829534888986 O
atom 1.8130850230401745 9.0973548115695575 15.6739550741066118 Pt
atom 0.8276733240077842 2.2743477581330822 18.2932018256359115 Pt
atom 0.8394677706291560 1.6568818656010762 16.3479129899471225 O
atom 10.1967027416473730 2.8917823891038585 17.6192681060293665 O
atom 1.8013052250797634 3.9312503941112862 17.6192741657788723 O
atom 9.2231136617611273 0.0000250331384262 18.2932007328632764 Pt
atom 4.6115569516264969 2.2743447965716830 15.6739696403329276 Pt
atom 2.7867005329399128 2.8917802175381380 15.0000040637654504 O
atom 3.6379432953501616 0.6174332005994203 16.3479017829277922 O
atom 5.5851587498547861 3.9312560125351603 15.0000097549572029 O
atom 1.8130621878418276 4.5486609015658814 15.6739697483134588 Pt
atom 0.8394621554283862 6.2055828655989078 16.3479085717323116 O
atom 10.1967233866376183 7.4404770591069722 17.6192536587351150 O
atom 1.8012909087215121 8.4799292841042302 17.6192572477983660 O
atom 9.2230921821747547 4.5486963131334655 18.2932043894737646 Pt
atom 4.6115617083759588 6.8230342165753806 15.6739803112693235 Pt
atom 2.7867044380190387 7.4404530775388587 15.0000009243521362 O
atom 3.6379215621887777 5.1661252805922686 16.3478947421651988 O
atom 5.5851397836302592 8.4799516425289454 15.0000035839955999 O
atom 7.2523057158824136 0.0000187462713876 23.5316984916095002 Pt
atom 2.6407690559209533 2.2743444297099793 20.9124663024057185 Pt
atom 2.6525374344174844 1.6569208371674007 18.9671605576228757 O
atom 0.8158996598779230 2.8917569806748435 20.2385108278651096 O
atom 1.6671392847917659 0.6174386237309126 21.5863866379308220 O
atom 3.6143602449772403 3.9312521856676983 20.2384921974930911 O
atom 11.0361653528663428 9.0973492047035656 20.9124647581319216 Pt
atom 10.0507854940849786 2.2743342412722360 23.5316930085613691 Pt
atom 10.0625884603777322 1.6569227187390130 21.5863861376672332 O
atom 8.2259185946327822 2.8917808122427973 22.8577627691479996 O
atom 5.4510191310036298 0.6174263821683337 18.9671537864143822 O
atom 11.0243899521569908 3.9312525172412291 22.8577572237033451 O
atom 7.2523247071250880 4.5487052662756433 23.5316921092850286 Pt
atom 2.6407633961025749 6.8230336497049331 20.9124474300516567 Pt
atom 2.6525559807875538 6.2056064871703587 18.9671482441023969 O
atom 0.8158949282734285 7.4404545206727475 20.2385055426104437 O
atom 1.6671511297298920 5.1661244637357635 21.5863932293464487 O
atom 3.6143741086447911 8.4799406956733208 20.2384998604157893 O
atom 11.0361841304047772 4.5486733547064198 20.9124542638743449 Pt
atom 10.0507696310812094 6.8230340712656465 23.5316806030489296 Pt
atom 10.0625888380672297 6.2055967887393377 21.5863859142826158 O
atom 8.2258956284795346 7.4404658422383401 22.8577710425869576 O
atom 5.4510260698963684 5.1661215521740704 18.9671717035309619 O
atom 11.0243975791595510 8.4799518572471602 22.8577751509819933 O
atom 5.4392424573934770 9.0973568547066375 20.9124472715997030 Pt
atom 4.4538307583610868 2.2743498012701626 23.5316940231290062 Pt
atom 4.4656252049824587 1.6568839087381566 21.5864051874402136 O
atom 2.6289671295602912 2.8917844322409394 22.8577603035224612 O
atom 11.0479751815224816 0.6174387521749561 18.9671738750683048 O
atom 5.4274626594330657 3.9312524372483670 22.8577663632719634 O
atom 1.6553780496740420 0.0000270762755069 23.5316929303563640 Pt
atom 8.2377143859797997 2.2743468397087638 20.9124618378260223 Pt
atom 8.2494916413292039 1.6569243671695593 18.9671607117957706 O
atom 6.4128579672932151 2.8917822606752188 20.2384962612585397 O
atom 7.2641007297034639 0.6174352437365009 21.5863939804208869 O
atom 9.2113161842080906 3.9312580556722403 20.2385019524502923 O
atom 5.4392196221951323 4.5486629447029614 20.9124619458065517 Pt
atom 0.8276854984814628 6.8230189481379551 18.2932080673274129 Pt
atom 4.4656195897816868 6.2055849087359896 21.5864007692254027 O
atom 2.6289877745505383 7.4404791022440531 22.8577458562282061 O
atom 11.0479607532642206 5.1661141321677331 18.9671562683373267 O
atom 5.4274483430748175 8.4799313272413119 22.8577494452914536 O
atom 1.6553565700876756 4.5486983562705463 23.5316965869668557 Pt
atom 8.2377191427292633 6.8230362597124614 20.9124725087624164 Pt
atom 8.2494684923671677 6.2056021871651499 18.9671694766425247 O
atom 6.4128618723723410 7.4404551206759395 20.2384931218452273 O
atom 7.2640789965420813 5.1661273237293495 21.5863869396582899 O
atom 9.2112972179835619 8.4799536856660271 20.2384957814886910 O
atom 10.8784631502357154 0.0000207894084682 28.7701906891025949 Pt
atom 6.2669264902742583 2.2743464728470602 26.1509584998988132 Pt
atom 6.2786948687707866 1.6569228803044813 24.2056527551159668 O
atom 4.4420570942312256 2.8917590238119244 25.4770030253582007 O
atom 5.2932967191450659 0.6174406668679931 26.8248788354239132 O
atom 7.2405176793305452 3.9312542288047783 25.4769843949861823 O
atom 3.4684297407792601 9.0973512478406455 26.1509569556250128 Pt
atom 2.4830498819978963 2.2743362844093173 28.7701852060544638 Pt
atom 2.4948528482906482 1.6569247618760936 26.8248783351603244 O
atom 0.6581829825456968 2.8917828553798772 28.0962549666410943 O
atom 9.0771765653569325 0.6174284253054144 24.2056459839074769 O
atom 3.4566543400699095 3.9312545603783104 28.0962494211964362 O
atom 10.8784821414783917 4.5487073094127233 28.7701843067781198 Pt
atom 6.2669208304558799 6.8230356928420131 26.1509396275447443 Pt
atom 6.2787134151408575 6.2056085303074395 24.2056404415954880 O
atom 4.4420523626267334 7.4404565638098275 25.4769977401035348 O
atom 5.2933085640831967 5.1661265068728426 26.8248854268395398 O
atom 7.2405315429980908 8.4799427388104025 25.4769920579088769 O
atom 3.4684485183176972 4.5486753978435006 26.1509464613674325 Pt
atom 2.4830340189941289 6.8230361144027265 28.7701728005420208 Pt
atom 2.4948532259801501 6.2055988318764177 26.8248781117757105 O
atom 0.6581600163924517 7.4404678853754209 28.0962632400800487 O
atom 9.0771835042496711 5.1661235953111513 24.2056639010240531 O
atom 3.4566619670724648 8.4799539003842401 28.0962673484750809 O
atom 9.0653998917467788 9.0973588978437192 26.1509394690927977 Pt
atom 8.0799881927143886 2.2743518444072439 28.7701862206220937 Pt
atom 8.0917826393357615 1.6568859518752375 26.8248973849333083 O
atom 6.2551245639135935 2.8917864753780198 28.0962525010155488 O
atom 3.4802395694353963 0.6174407953120369 24.2056660725613959 O
atom 9.0536200937863693 3.9312544803854474 28.0962585607650546 O
atom 5.2815354840273470 0.0000291194125875 28.7701851278494587 Pt
atom 0.6699787738927185 2.2743488828458451 26.1509540353191134 Pt
atom 0.6817560292421225 1.6569264103066399 24.2056529092888653 O
atom 10.0390154016465178 2.8917843038122997 25.4769884587516344 O
atom 10.8902581640567657 0.6174372868735817 26.8248861779139744 O
atom 1.6435805721210071 3.9312600988093211 25.4769941499433870 O
atom 9.0653770565484333 4.5486649878400423 26.1509541432996429 Pt
atom 4.4538429328347648 6.8230209912750359 23.5317002648205076 Pt
atom 8.0917770241349878 6.2055869518730704 26.8248929667184974 O
atom 6.2551452089038380 7.4404811453811330 28.0962380537213008 O
atom 3.4802251411771379 5.1661161753048139 24.2056484658304214 O
atom 9.0536057774281193 8.4799333703783919 28.0962416427845483 O
atom 5.2815140044409778 4.5487003994076272 28.7701887844599469 Pt
atom 0.6699835306421805 6.8230383028495432 26.1509647062555111 Pt
atom 0.6817328802800851 6.2056042303022299 24.2056616741356123 O
atom 10.0390193067256437 7.4404571638130195 25.4769853193383184 O
atom 10.8902364308953814 5.1661293668664294 26.8248791371513811 O
atom 1.6435616058964784 8.4799557288031071 25.4769879789817821 O
atom 9.9048523031240894 1.6569249234415622 29.4441449526090580 O
atom 1.5094409532698496 0.6174304684424949 29.4441381814005680 O
atom 9.9048708494941593 6.2056105734445204 29.4441326390885791 O
atom 1.5094478921625889 5.1661256384482321 29.4441560985171407 O
atom 7.1063970037887012 0.6174428384491175 29.4441582700544870 O
atom 4.3079134635954253 1.6569284534437203 29.4441451067819528 O
atom 8.0800003671880702 6.8230230344121159 28.7701924623136023 Pt
atom 7.1063825755304402 5.1661182184418930 29.4441406633235161 O
atom 4.3078903146333873 6.2056062734393107 29.4441538716287070 O
