#===============================================================================
# Created using the Atomic Simulation Environment (ASE)

# Mon Mar 23 14:01:20 2026

#=======================================================
lattice_vector 11.1064369649213504 0.0000000000000000 0.0000000000000000 
lattice_vector 0.0000051885324174 9.2039351799990605 0.0000000000000000 
lattice_vector 0.0000000000000000 0.0000000000000000 31.9009627803726836 
atom 10.0148925934368940 6.9029431607786931 15.9504942101788778 Pt
atom 8.5954803910552648 5.7860717012605187 15.0000050229649915 O
atom 0.2656205656391268 5.7188297837707038 15.0000000000000000 O
atom 8.6576881013184863 8.0870554178082550 16.9009353385922161 O
atom 10.0148871607516856 2.3009793707845168 15.9504706152755773 Pt
atom 8.5954598099100199 1.1840956012634489 15.0000191028992802 O
atom 0.2656373409982533 1.1168645537640516 15.0000080988315823 O
atom 8.6576964579801174 3.4850807278028038 16.9009497727260829 O
atom 7.2382571319565141 0.0000073982860601 15.9504929206278554 Pt
atom 5.8810802749046038 8.0198292553032431 16.9009592600333249 O
atom 7.2382861843429405 4.6019633982810806 15.9504768513996531 Pt
atom 5.8810849728822614 3.4178727253032135 16.9009509850339015 O
atom 1.6850650736313455 0.0000058832819149 15.9504750073178556 Pt
atom 0.3278949738101869 8.0198131702977005 16.9009385311963989 O
atom 1.6850355572877878 4.6019723032866597 15.9504958530698815 Pt
atom 0.3278587213221672 3.4178435303031756 16.9009627803726836 O
atom 4.4616750069698936 6.9029481957812040 15.9504798177192164 Pt
atom 3.0422306373243160 5.7860878362658275 15.0000241211169829 O
atom 5.8188561874812290 5.7188288087637549 15.0000105275170768 O
atom 3.1044840274964516 8.0870588928023093 16.9009447386187581 O
atom 4.4616704647879839 2.3009770757773085 15.9505054338843983 Pt
atom 3.0422457742012767 1.1841291962640341 15.0000094145256853 O
atom 5.8188317933550540 1.1168585287723927 15.0000006146126452 O
atom 3.1044525334813193 3.4850800428111786 16.9009442295742112 O
