#===============================================================================
# Created using the Atomic Simulation Environment (ASE)

# Mon Mar 23 14:01:23 2026

#=======================================================
lattice_vector 11.2383934762033828 0.0000000000000000 0.0000000000000000 
lattice_vector 0.0000013697273223 9.1788565199999361 0.0000000000000000 
lattice_vector 0.0000000000000000 0.0000000000000000 34.2874181146674886 
atom 2.8230456998138962 2.2947195438636405 15.8196473686700863 Pt
atom 1.6628513076905478 3.7152292985446667 15.0000022606547461 O
atom 4.4724607296149985 3.1689118185442311 15.0000099087432375 O
atom 0.0134446060050544 4.5894266238637851 15.8196460343635934 Pt
atom 2.8230445940417472 6.8841417438637134 15.8196468443851757 Pt
atom 1.6628579622520514 8.3046633285445211 15.0000088105218410 O
atom 4.4724452311215561 7.7583475385448990 15.0000000000000000 O
atom 8.4422390929479274 2.2947095938638862 15.8196472767664922 Pt
atom 7.2820487629975625 3.7152263185446812 15.0000035937963787 O
atom 10.0916410077619201 3.1689170485449880 15.0000006861442827 O
atom 5.6326377014653524 0.0000009938638964 15.8196432713669424 Pt
atom 7.2820542613315666 8.3046635085444329 15.0000064250429404 O
atom 10.0916579677303577 7.7583421185443147 15.0000119208143055 O
atom 5.6326459051614695 4.5894309838635410 15.8196479404149954 Pt
atom 0.9522191008550924 2.2947188895077621 18.4677688189055367 Pt
atom 0.0134502362306228 0.0000046138636370 15.8196517140554995 Pt
atom 11.0304198471479324 3.7152292341886750 17.6481239056945363 O
atom 2.1124096311864733 0.8742007548267039 19.2874076602182143 O
atom 1.1736376039780614 1.4205251991828045 16.6392901435404710 O
atom 2.6016224315561973 3.1689207341888057 17.6481231183748939 O
atom 9.3810182998266818 0.0000037995076309 18.4677723862356018 Pt
atom 3.9832322833584000 0.8742006691830474 16.6392895435805386 O
atom 10.5412139843468644 1.4205109348265470 19.2874180381082780 O
atom 0.9522203138972659 6.8841421495077180 18.4677693450968903 Pt
atom 11.0304278015112391 8.3046635241883902 17.6481295862427352 O
atom 2.1124151717266177 5.4636315248266545 19.2874143658319852 O
atom 1.1736415487901337 6.0099372791827159 16.6392937873001330 O
atom 2.6016309163155587 7.7583331241884377 17.6481279615006024 O
atom 9.3810154348606805 4.5894264695076270 18.4677677663265456 Pt
atom 3.9832404343202636 5.4636310191825554 16.6392914450088192 O
atom 10.5411999284844562 6.0099477748270491 19.2874070058811427 O
atom 3.7618162522471987 9.1788540595076924 18.4677650902455674 Pt
atom 9.6024341064866459 0.8741986891828081 16.6392922850680947 O
atom 4.9220049109209425 1.4205161848270089 19.2874090603011297 O
atom 6.5714154164249887 2.2947108795077771 18.4677684897898793 Pt
atom 5.4112249894857802 3.7152268541885070 17.6481233669957938 O
atom 7.7316090340216883 0.8741991248268524 19.2874144341716942 O
atom 6.7928379563533161 1.4205047191827649 16.6392946375670547 O
atom 8.2208293172553226 3.1689066341884047 17.6481300975944180 O
atom 8.4422484782835063 6.8841499338633909 15.8196509317972449 Pt
atom 3.7618200033211586 4.5894300595075741 18.4677686465229307 Pt
atom 9.6024383918151202 5.4636332691826590 16.6392952388630420 O
atom 4.9220195299331939 6.0099420648263990 19.2874181146674886 O
atom 6.5714248397010122 6.8841502095074691 18.4677758692482179 Pt
atom 5.4112311335287684 8.3046631841882963 17.6481278665528727 O
atom 7.7316161433749899 5.4636327748264026 19.2874156609509484 O
atom 6.7928329238915879 6.0099534491829383 16.6392903474351321 O
atom 8.2208238607807402 7.7583540141885674 17.6481249691826676 O
