#===============================================================================
# Created using the Atomic Simulation Environment (ASE)

# Mon Mar 23 14:01:20 2026

#=======================================================
lattice_vector 11.1938930464403850 0.0000000000000000 0.0000000000000000 
lattice_vector -0.0000051258591119 9.0973690599991084 0.0000000000000000 
lattice_vector 0.0000000000000000 0.0000000000000000 31.3479202163331863 
atom 10.8784631502357154 0.0000207894084682 15.6739526353812941 Pt
atom 2.4830498819978963 2.2743362844093173 15.6739471523331630 Pt
atom 0.6581829825456968 2.8917828553798772 15.0000169129197936 O
atom 3.4566543400699095 3.9312545603783104 15.0000113674751354 O
atom 10.8784821414783917 4.5487073094127233 15.6739462530568190 Pt
atom 2.4830340189941289 6.8230361144027265 15.6739347468207200 Pt
atom 0.6581600163924517 7.4404678853754209 15.0000251863587479 O
atom 3.4566619670724648 8.4799539003842401 15.0000292947537801 O
atom 8.0799881927143886 2.2743518444072439 15.6739481669007930 Pt
atom 6.2551245639135935 2.8917864753780198 15.0000144472942480 O
atom 9.0536200937863693 3.9312544803854474 15.0000205070437538 O
atom 5.2815354840273470 0.0000291194125875 15.6739470741281579 Pt
atom 6.2551452089038380 7.4404811453811330 15.0000000000000000 O
atom 9.0536057774281193 8.4799333703783919 15.0000035890632475 O
atom 5.2815140044409778 4.5487003994076272 15.6739507307386461 Pt
atom 9.9048523031240894 1.6569249234415622 16.3479068988877572 O
atom 1.5094409532698496 0.6174304684424949 16.3479001276792673 O
atom 9.9048708494941593 6.2056105734445204 16.3478945853672784 O
atom 1.5094478921625889 5.1661256384482321 16.3479180447958399 O
atom 7.1063970037887012 0.6174428384491175 16.3479202163331863 O
atom 4.3079134635954253 1.6569284534437203 16.3479070530606521 O
atom 8.0800003671880702 6.8230230344121159 15.6739544085923015 Pt
atom 7.1063825755304402 5.1661182184418930 16.3479026096022153 O
atom 4.3078903146333873 6.2056062734393107 16.3479158179074062 O
