#===============================================================================
# Created using the Atomic Simulation Environment (ASE)

# Mon Mar 23 14:01:19 2026

#=======================================================
lattice_vector 9.2039351800005225 0.0000000000000000 0.0000000000000000 
lattice_vector -0.0000000269221396 6.3710923900000003 0.0000000000000000 
lattice_vector 0.0000000000000000 0.0000000000000000 38.0579168350026293 
atom 4.6020026723141489 0.0000022350000670 15.6174186361696954 Pt
atom 1.1168814026326355 1.5927705012135105 15.0000103900019113 O
atom 5.7188670626362832 1.5927934962135297 15.0000205299958225 O
atom 0.0000056888553951 3.1855475000000339 15.6174262861795867 Pt
atom 1.1168870591680653 4.7783170112135158 15.0000000000000000 O
atom 5.7188659091762171 4.7783000162135272 15.0000233799962075 O
atom 0.0000255154044155 6.3710861900000548 15.6174562161729114 Pt
atom 2.3010051566176877 1.5927877825000543 17.8917829211744390 Pt
atom 1.1841426403924749 0.0000002912865919 17.2743600873476169 O
atom 3.4178774163006223 0.0000039537135277 18.5091957349979879 O
atom 3.4851177685511900 1.5927545437865811 16.2348768523504745 O
atom 1.1168936646849135 1.5927548512135283 19.5486909399980391 O
atom 6.9029689466141964 1.5927668275000499 17.8917717111757213 Pt
atom 5.7860773234708880 6.3710904862865547 17.2743609473586943 O
atom 8.0198535163085651 0.0000051687135369 18.5092185449951288 O
atom 8.0870829985476540 1.5927722887865778 16.2348656323512728 O
atom 5.7188683546849228 1.5927729562135362 19.5486902499956443 O
atom 0.0000073043808177 0.0000008200000416 20.1661427361793102 Pt
atom 2.3010000786728870 1.5927705025000536 22.4404721411764143 Pt
atom 1.1841213924464515 0.0000021812865736 21.8230457373550308 O
atom 3.4178792814364733 6.3710907637135330 23.0578932749976246 O
atom 3.4851127906052191 1.5927681637865805 20.7835626923524188 O
atom 4.6019864843706726 0.0000028350000542 20.1661118461754114 Pt
atom 6.9029759386729683 1.5927490575000625 22.4404715411736220 Pt
atom 5.7860778955209646 6.3710919762865617 21.8230350173587624 O
atom 8.0198781183623407 0.0000003587135684 23.0579035749871082 O
atom 8.0870885006048177 1.5927924287865889 20.7835608023496832 O
atom 2.3010086731581092 4.7783091825000561 17.8917872711732571 Pt
atom 1.1841343469186185 3.1855504312865826 17.2743221373504099 O
atom 3.4178885728484589 3.1855465237135387 18.5092221649942346 O
atom 3.4851189950904646 4.7783404237865810 16.2348780023500581 O
atom 1.1168901412235444 4.7783376112135247 19.5486901699992188 O
atom 4.6019744488685435 3.1855461550000350 15.6174645461791926 Pt
atom 6.9029711731576935 4.7783296275000504 17.8917853311749724 Pt
atom 5.7861039869328481 3.1855509862865845 17.2743636173497208 O
atom 8.0198270128483351 3.1855448787135074 18.5092210150040444 O
atom 8.0870772550892251 4.7783152687865709 16.2348734723532004 O
atom 5.7188590512260644 4.7783144262135240 19.5486968099987735 O
atom 0.0000380409058414 3.1855451100000747 20.1661014361689581 Pt
atom 2.3010032252072037 4.7783227025000556 22.4404584611753535 Pt
atom 1.1841374589777733 3.1855450612865899 21.8230231373496082 O
atom 3.4178643849054744 3.1855478537135178 23.0579168350026293 O
atom 3.4851218471410079 4.7783191937865901 20.7835533823493535 O
atom 4.6019952009176910 3.1855383950000618 20.1661358261724644 Pt
atom 6.9029743452129289 4.7783425675000588 22.4404747511741647 Pt
atom 5.7861290189841963 3.1855464762866159 21.8230414373415442 O
atom 8.0198230248980025 3.1855459787135079 23.0578938750056466 O
atom 8.0870921271453895 4.7782985687865915 20.7835655523484490 O
