#===============================================================================
# Created using the Atomic Simulation Environment (ASE)

# Mon Mar 23 14:01:22 2026

#=======================================================
lattice_vector 9.1788542800000368 0.0000000000000000 0.0000000000000000 
lattice_vector 0.0000016600002026 9.1788565199998882 0.0000000000000000 
lattice_vector 0.0000000000000000 0.0000000000000000 36.4846097250000128 
atom 1.4205122372569963 1.4205234403556990 16.6211527930951917 O
atom 2.2947133680724123 2.2947178730720461 15.0000008650000005 Pt
atom 0.8741962465223339 3.7152277115226373 15.0000010849999939 O
atom 3.7152224196216648 0.8741989146221819 15.0000027549999899 O
atom 9.1788512138056717 4.5894249488061334 16.6211531749999857 Pt
atom 2.2947124330719655 6.8841400730721496 15.0000014699999902 Pt
atom 0.8742057315229548 8.3046617415217945 15.0000029900000058 O
atom 3.7152304446219584 5.4636292646214777 15.0000000000000000 O
atom 4.5894224988056571 9.1788521138062986 16.6211521249999841 Pt
atom 6.8841382780716236 2.2947089380722465 15.0000022199999847 Pt
atom 5.4636243865221088 3.7152249965225481 15.0000001399999903 O
atom 8.3046552496215185 0.8741970996216671 15.0000031299999925 O
atom 4.5894273438059390 4.5894281138058375 16.6211524699999948 Pt
atom 6.0099513422560626 6.0099400353546359 16.6211530930951916 O
atom 6.8841505030727230 6.8841482680711579 15.0000032050000129 Pt
atom 5.4636322715229380 8.3046613265218525 15.0000006650000053 O
atom 8.3046620346221083 5.4636307496210748 15.0000004250000032 O
atom 2.2947116645399652 2.2947169395398386 18.2423055049999974 Pt
atom 0.0000045388060970 0.0000029388054260 16.6211541700000041 Pt
atom 0.8741960129899407 3.7152273679902983 18.2423049249999885 O
atom 3.7152220160892901 0.8741987210898620 18.2423023949999887 O
atom 3.1689072153560600 3.1689188722566888 16.6211539369048040 O
atom 2.2947133510076885 2.2947178560073263 21.4846073849999968 Pt
atom 0.0000033552736368 0.0000018452731725 19.8634574900000018 Pt
atom 0.8741962294576098 3.7152276944579183 21.4846076049999937 O
atom 3.7152224025569405 0.8741988975574626 21.4846092749999897 O
atom 1.4205220137233183 1.4205088968224537 19.8634572130951881 O
atom 3.1689232118229169 3.1689102187228833 19.8634557969048160 O
atom 2.2947132295396142 6.8841401995397158 18.2423056299999935 Pt
atom 0.8742060579905870 8.3046616579894081 18.2423053700000075 O
atom 3.7152306810896158 5.4636294910890948 18.2423050700000005 O
atom 1.4205178322556331 6.0099355203552101 16.6211538880951792 O
atom 3.1689172103547261 7.7583312622558038 16.6211533919048016 O
atom 2.2947124160072407 6.8841400560074293 21.4846079899999935 Pt
atom 9.1788529002732719 4.5894245152736222 19.8634557649999905 Pt
atom 0.8742057144582306 8.3046617244570733 21.4846095100000056 O
atom 3.7152304275572345 5.4636292475567592 21.4846065199999998 O
atom 1.4205044387241961 6.0099457368240605 19.8634567080951783 O
atom 3.1689051068236913 7.7583459387245393 19.8634570419048018 O
atom 6.8841377145391691 2.2947079145399361 18.2423059799999869 Pt
atom 5.4636247329897207 3.7152247229901545 18.2423050199999892 O
atom 8.3046552860891438 0.8741969260893044 18.2423053199999927 O
atom 6.0099339072561744 1.4205141553561931 16.6211537380951775 O
atom 7.7583315953557692 3.1689154572569382 16.6211545019048010 O
atom 6.8841382610068989 2.2947089210075271 21.4846087399999846 Pt
atom 4.5894208852736318 9.1788558302740793 19.8634558849999863 Pt
atom 5.4636243694573841 3.7152249794578287 21.4846066599999901 O
atom 8.3046552325567937 0.8741970825569477 21.4846096499999888 O
atom 6.0099449137228005 1.4205029518228369 19.8634576380951735 O
atom 7.7583466618224417 3.1689047637232157 19.8634570419048053 O
atom 6.8841477595403644 6.8841482545390491 18.2423039450000068 Pt
atom 5.4636311279906300 8.3046619129895891 18.2423045550000040 O
atom 8.3046607610898135 5.4636315060888299 18.2423056550000062 O
atom 7.7583522003555840 7.7583405272550934 16.6211542869048152 O
atom 6.8841504860079992 6.8841482510064385 21.4846097250000128 Pt
atom 4.5894288902736875 4.5894293002733386 19.8634553599999961 Pt
atom 5.4636322544582141 8.3046613094571331 21.4846071850000087 O
atom 8.3046620175573853 5.4636307325563553 21.4846069450000030 O
atom 6.0099385987247524 6.0099516818234244 19.8634574330951885 O
atom 7.7583395168242744 7.7583521437238820 19.8634563969048159 O
