#===============================================================================
# Created using the Atomic Simulation Environment (ASE)

# Mon Mar 23 14:01:20 2026

#=======================================================
lattice_vector 11.1064369649213504 0.0000000000000000 0.0000000000000000 
lattice_vector 0.0000051885324174 9.2039351799990605 0.0000000000000000 
lattice_vector 0.0000000000000000 0.0000000000000000 42.3381856215499965 
atom 2.7054704321950331 6.9029472274734109 15.9504942101788778 Pt
atom 1.2860582298134000 5.7860757679552366 15.0000050229649950 O
atom 4.0626353693186159 5.7188338504654208 15.0000000000000000 O
atom 1.3482659400766246 8.0870594845029729 16.9009353385922196 O
atom 7.3094448115385351 4.6019471433012287 18.5597770910336095 Pt
atom 2.7054649995098212 2.3009834374792346 15.9504706152755773 Pt
atom 1.2860376486681571 1.1840996679581668 15.0000191028992838 O
atom 4.0626521446777391 1.1168686204587694 15.0000080988315787 O
atom 1.3482742967382531 3.4850847944975216 16.9009497727260865 O
atom 11.0352719356360005 0.0000114649807780 15.9504929206278518 Pt
atom 9.6780950785840911 8.0198333219979610 16.9009592600333249 O
atom 8.6666183950833844 5.7860759762849820 17.6093136256896656 O
atom 0.3367791671112842 5.7188409287875119 17.6093176180119286 O
atom 11.0353009880224313 4.6019674649757993 15.9504768513996567 Pt
atom 10.0860162963544102 2.3009785458131944 18.5597705467100340 Pt
atom 9.6780997765617514 3.4178767919979309 16.9009509850339015 O
atom 8.6666085026726165 1.1840771662860992 17.6093211601008157 O
atom 0.3367920403220889 1.1168652187799286 17.6093364094820437 O
atom 5.4820798773108343 0.0000099499766328 15.9504750073178521 Pt
atom 4.5328081859909641 6.9029426808082652 18.5597821060272103 Pt
atom 4.1249097774896706 8.0198172369924201 16.9009385311964024 O
atom 3.1133900416580533 5.7860635812860286 17.6093229252868468 O
atom 5.8900127325434752 5.7188315937790941 17.6093388762723926 O
atom 5.4820503609672766 4.6019763699813785 15.9504958530698886 Pt
atom 4.1248735250016555 3.4178475969978934 16.9009627803726801 O
atom 3.1133874457369872 1.1841251412868858 17.6093209181745607 O
atom 5.8899994189333569 1.1168733337871055 17.6093156730301530 O
atom 1.7562284359170188 9.2039148783016138 18.5597733791992070 Pt
atom 8.2586898106493773 6.9029522624759219 15.9504798177192200 Pt
atom 6.8392454410038024 5.7860919029605453 15.0000241211169794 O
atom 9.6158709911607172 5.7188328754584727 15.0000105275170803 O
atom 6.9014988311759362 8.0870629594970289 16.9009447386187617 O
atom 1.7561938205467198 4.6019577183085438 18.5597876063592651 Pt
atom 8.2586852684674703 2.3009811424720259 15.9505054338844019 Pt
atom 6.8392605778807658 1.1841332629587520 15.0000094145256853 O
atom 9.6158465970345386 1.1168625954671108 15.0000006146126452 O
atom 6.9014673371608035 3.4850841095058960 16.9009442295742147 O
atom 7.3094117850863807 9.2039242733081732 18.5597917392385128 Pt
atom 6.3601815128159656 6.9029451941260520 21.1691056307675325 Pt
atom 5.9522319696487109 8.0198079403247533 19.5102627797328552 O
atom 4.9407693104343338 5.7860737346078777 20.2186164435536497 O
atom 7.7173464499395479 5.7188318171180619 20.2186114205886618 O
atom 5.0029770206975543 8.0870574511556139 22.1195467591808708 O
atom 10.9641558921594680 4.6019451099538689 23.7783885116222677 Pt
atom 6.3601760801307536 2.3009814041318757 21.1690820358642284 Pt
atom 5.9522274118202603 3.4178732303260375 19.5102614751276562 O
atom 4.9407487292890933 1.1840976346108079 20.2186305234879384 O
atom 7.7173632252986746 1.1168665871114103 20.2186195194202334 O
atom 5.0029853773591855 3.4850827611501631 22.1195611933147411 O
atom 3.5835460513355821 0.0000094316334191 21.1691043412165101 Pt
atom 10.0860307008601797 6.9029544058058878 18.5597884566620017 Pt
atom 2.2263691942836745 8.0198312886506020 22.1195706806219832 O
atom 1.2148925107829673 5.7860739429376231 22.8279250462783203 O
atom 3.9914902477322136 5.7188388954401539 22.8279290386005869 O
atom 8.7288456802615872 8.0870676128247467 19.5102561510109780 O
atom 3.5835751037220160 4.6019654316284395 21.1690882719883113 Pt
atom 2.6342904120539874 2.3009765124658359 23.7783819672986851 Pt
atom 2.2263738922613321 3.4178747586505720 22.1195624056225526 O
atom 1.2148826183721952 1.1840751329387398 22.8279325806894704 O
atom 3.9915031209430207 1.1168631854325695 22.8279478300706984 O
atom 8.7288479710804658 3.4850819528190740 19.5102808030970287 O
atom 9.1367909579317654 0.0000079166292738 21.1690864279065138 Pt
atom 8.1875192666118934 6.9029406474609054 23.7783935266158721 Pt
atom 7.7796208581106034 8.0198152036450612 22.1195499517850607 O
atom 6.7681011222789875 5.7860615479386697 22.8279343458755015 O
atom 9.5447238131644081 5.7188295604317352 22.8279502968610508 O
atom 3.1756430862341674 8.0870619778174131 19.5102705578611229 O
atom 9.1367614415882077 4.6019743366340196 21.1691072736585397 Pt
atom 4.5328189088575694 2.3009801808019068 18.5597977398261236 Pt
atom 7.7795846056225830 3.4178455636505345 22.1195742009613383 O
atom 6.7680985263579192 1.1841231079395267 22.8279323387632154 O
atom 9.5447104995542880 1.1168713004397464 22.8279270936188112 O
atom 3.1756217532570203 3.4850930678261864 19.5102553758138555 O
atom 5.4109395165379510 9.2039128449542549 23.7783847997878652 Pt
atom 0.8069639263489589 6.9029502291285629 21.1690912383078782 Pt
atom 0.3990302641893171 8.0198162253225274 19.5102492907265948 O
atom 10.4939565216247335 5.7860898696131864 20.2186355417056376 O
atom 2.1641451068602975 5.7188308421111138 20.2186219481057350 O
atom 10.5562099117968682 8.0870609261496682 22.1195561592074164 O
atom 5.4109049011676573 4.6019556849611849 23.7783990269479233 Pt
atom 0.8069593841670519 2.3009791091246674 21.1691168544730601 Pt
atom 0.3990134919437055 3.4178246653248290 19.5102609473647384 O
atom 10.4939716585016978 1.1841312296113931 20.2186208351143435 O
atom 2.1641207127341193 1.1168605621197516 20.2186120352012999 O
atom 10.5561784177817373 3.4850820761585379 22.1195556501628730 O
atom 10.9641228657073100 9.2039222399608143 23.7784031598271639 Pt
atom 10.0148925934368940 6.9029431607786931 26.3877170513561907 Pt
atom 9.6069430502696438 8.0198059069773944 24.7288742003215134 O
atom 8.5954803910552648 5.7860717012605187 25.4372278641423044 O
atom 0.2656205656391268 5.7188297837707038 25.4372228411773129 O
atom 8.6576881013184863 8.0870554178082550 27.3381581797695290 O
atom 10.0148871607516856 2.3009793707845168 26.3876934564528902 Pt
atom 9.6069384924411931 3.4178711969786786 24.7288728957163073 O
atom 8.5954598099100199 1.1840956012634489 25.4372419440765931 O
atom 0.2656373409982533 1.1168645537640516 25.4372309400088952 O
atom 8.6576964579801174 3.4850807278028038 27.3381726139033958 O
atom 7.2382571319565141 0.0000073982860601 26.3877157618051683 Pt
atom 2.6343048165597649 6.9029523724585280 23.7783998772506564 Pt
atom 5.8810802749046038 8.0198292553032431 27.3381821012106379 O
atom 1.2771197959611704 8.0870655794773878 24.7288675715996327 O
atom 7.2382861843429405 4.6019633982810806 26.3876996925769660 Pt
atom 5.8810849728822614 3.4178727253032135 27.3381738262112144 O
atom 1.2771220867800470 3.4850799194717146 24.7288922236856870 O
atom 1.6850650736313455 0.0000058832819149 26.3876978484951685 Pt
atom 0.3278949738101869 8.0198131702977005 27.3381613723737118 O
atom 6.8303541668550967 8.0870599444700542 24.7288819784497775 O
atom 1.6850355572877878 4.6019723032866597 26.3877186942471944 Pt
atom 8.1875299894785005 2.3009781474545474 23.7784091604147747 Pt
atom 0.3278587213221672 3.4178435303031756 27.3381856215499965 O
atom 6.8303328338779501 3.4850910344788271 24.7288667964025066 O
atom 4.4616750069698936 6.9029481957812040 26.3877026588965293 Pt
atom 4.0537413448102466 8.0198141919751684 24.7288607113152530 O
atom 3.0422306373243160 5.7860878362658275 25.4372469622942958 O
atom 5.8188561874812290 5.7188288087637549 25.4372333686943897 O
atom 3.1044840274964516 8.0870588928023093 27.3381675797960710 O
atom 4.4616704647879839 2.3009770757773085 26.3877282750617113 Pt
atom 4.0537245725646374 3.4178226319774700 24.7288723679533966 O
atom 3.0422457742012767 1.1841291962640341 25.4372322557029982 O
atom 5.8188317933550540 1.1168585287723927 25.4372234557899581 O
atom 3.1044525334813193 3.4850800428111786 27.3381670707515241 O
