#===============================================================================
# Created using the Atomic Simulation Environment (ASE)

# Mon Mar 23 14:01:23 2026

#=======================================================
lattice_vector 9.1788565200000374 0.0000000000000000 0.0000000000000000 
lattice_vector -0.0000000170647224 6.4846065199999998 0.0000000000000000 
lattice_vector 0.0000000000000000 0.0000000000000000 52.4008337499992649 
atom 4.5894266429347468 6.4846063308451694 18.1689167334505477 Pt
atom 4.5894262264672614 3.2423024008451669 18.1689184284505849 Pt
atom 2.2947092107333722 1.6211526218838737 15.8742036534508379 Pt
atom 0.8741984791839861 1.6211519581456841 17.2947214819008224 O
atom 1.4205152934495042 0.0000003822795953 15.0000000000000000 O
atom 3.1689169115487044 0.0000011414881824 16.7483973719004275 O
atom 2.2947102172010618 4.8634553818838731 15.8742042084507453 Pt
atom 0.8741986356516196 4.8634562881456835 17.2947214369008080 O
atom 1.4205040899181380 3.2423042822795654 15.0000110150010109 O
atom 3.1689062180177068 3.2423036814881470 16.7484124469013942 O
atom 6.8841495507342287 1.6211505868838727 15.8742128684497423 Pt
atom 5.4636330591844251 1.6211522931456832 17.2947261269002439 O
atom 6.0099411563863034 6.4846062572795669 15.0000166050002139 O
atom 7.7583419815505117 0.0000009264881484 16.7484171469007208 O
atom 6.8841495472021084 4.8634563668838675 15.8742156034497448 Pt
atom 5.4636322856521806 4.8634535831456809 17.2947273919003131 O
atom 6.0099528199175101 3.2423040772795999 15.0000038699991620 O
atom 7.7583535980170062 3.2423030364881806 16.7484044718996650 O
atom 2.2947190657333709 1.6211521348064655 20.4636318834499633 Pt
atom 0.0000046500002116 0.0000008058451631 18.1689251684499808 Pt
atom 3.7152292372829319 1.6211515585446519 19.0431159750000347 O
atom 0.8742011041833334 1.6211490210682786 21.8841424919005973 O
atom 1.4205253913851756 6.4846059452021789 19.5894326099991005 O
atom 3.1689211565488540 0.0000005644107653 21.3378272719000641 O
atom 2.2947199822011632 4.8634540148064636 20.4636335784498797 Pt
atom 0.0000035564677441 3.2423041258451630 18.1689239934500790 Pt
atom 3.7152295637505923 4.8634542385446506 19.0431162000000000 O
atom 0.8742012806510041 4.8634559010682779 21.8841428869005838 O
atom 1.4205108649184204 3.2423038452021493 19.5894423950004182 O
atom 3.1689125030179408 3.2423024244107310 21.3378432769008413 O
atom 6.8841423257334577 1.6211522598064587 20.4636326184504149 Pt
atom 4.5894283029345440 6.4846063066903357 27.3477710134504299 Pt
atom 8.3046635272837843 1.6211520035446436 19.0431251899994862 O
atom 5.4636318741840597 1.6211516960682695 21.8841503269003752 O
atom 6.0099374884503467 0.0000005202021555 19.5894373750005641 O
atom 7.7583335465497019 0.0000000194107339 21.3378364369014939 O
atom 6.8841421822010220 4.8634546198064585 20.4636318134504265 Pt
atom 4.5894278864670595 3.2423023766903341 27.3477727084504671 Pt
atom 8.3046635937513908 4.8634561435446440 19.0431248549994798 O
atom 5.4636316306516761 4.8634531460682693 21.8841500819003940 O
atom 6.0099477049167742 3.2423033402021870 19.5894239899996414 O
atom 7.7583482230162462 3.2423036694107688 21.3378243419001699 O
atom 2.2947108707331698 1.6211525977290411 25.0530579334507237 Pt
atom 9.1788546379344478 6.4846052687677540 22.7583414684505847 Pt
atom 3.7152274222829726 1.6211516414672298 23.6325446950002132 O
atom 0.8742001391837835 1.6211519339908511 26.4735757619007082 O
atom 1.4205169534493016 0.0000003581247622 24.1788542799998893 O
atom 3.1689185715485020 0.0000011173333493 25.9272516519003098 O
atom 2.2947118772008595 4.8634553577290403 25.0530584884506276 Pt
atom 0.0000018514666248 3.2423025087677617 22.7583398634502529 Pt
atom 3.7152276787505816 4.8634532814672307 23.6325443400001873 O
atom 0.8742002956514170 4.8634562639908507 26.4735757169006938 O
atom 1.4205057499179354 3.2423042581247321 24.1788652950009002 O
atom 3.1689078780175040 3.2423036573333142 25.9272667269012764 O
atom 6.8841512107340250 1.6211505627290397 25.0530671484496246 Pt
atom 4.5894306379349397 6.4846056137677524 22.7583471434502016 Pt
atom 8.3046646122834940 1.6211511764672306 23.6325502599994053 O
atom 5.4636347191842223 1.6211522689908504 26.4735804069001368 O
atom 6.0099428163861006 6.4846062331247349 24.1788708850001015 O
atom 7.7583436415503098 0.0000009023333153 25.9272714269006030 O
atom 6.8841512072019064 4.8634563427290347 25.0530698834496306 Pt
atom 4.5894318414674435 3.2423019837677498 22.7583486984500922 Pt
atom 8.3046640087512387 4.8634538064672288 23.6325513949994566 O
atom 5.4636339456519769 4.8634535589908472 26.4735816719001988 O
atom 6.0099544799173064 3.2423040531247662 24.1788581499990478 O
atom 7.7583552580168043 3.2423030123333474 25.9272587518995472 O
atom 2.2947207257331685 1.6211521106516320 29.6424861634498491 Pt
atom 0.0000063100000091 0.0000007816903301 27.3477794484498666 Pt
atom 3.7152308972827299 1.6211515343898188 28.2219702549999170 O
atom 0.8742027641831310 1.6211489969134456 31.0629967719004760 O
atom 1.4205270513849730 6.4846059210473461 28.7682868899989863 O
atom 3.1689228165486516 0.0000005402559322 30.5166815518999464 O
atom 2.2947216422009613 4.8634539906516308 29.6424878584497655 Pt
atom 0.0000052164675415 3.2423041016903298 27.3477782734499648 Pt
atom 3.7152312237503899 4.8634542143898178 28.2219704799998858 O
atom 0.8742029406508016 4.8634558769134459 31.0629971669004696 O
atom 1.4205125249182180 3.2423038210473170 28.7682966750003040 O
atom 3.1689141630177384 3.2423024002558982 30.5166975569007235 O
atom 6.8841439857332549 1.6211522356516253 29.6424868984503043 Pt
atom 4.5894299629343411 6.4846062825355029 36.5266252934503228 Pt
atom 8.3046651872835824 1.6211519793898104 28.2219794699993756 O
atom 5.4636335341838569 1.6211516719134360 31.0630046069002539 O
atom 6.0099391484501421 0.0000004960473224 28.7682916550004499 O
atom 7.7583351894847761 6.4846065152559005 30.5166907169013797 O
atom 6.8841438422008183 4.8634545956516257 29.6424860934503087 Pt
atom 4.5894295464668566 3.2423023525355008 36.5266269884503529 Pt
atom 8.3046652537511889 4.8634561193898111 28.2219791349993692 O
atom 5.4636332906514742 4.8634531219134365 31.0630043619002727 O
atom 6.0099493649165723 3.2423033160473547 28.7682782699995272 O
atom 7.7583498830160424 3.2423036452559355 30.5166786219000556 O
atom 2.2947125307329674 1.6211525735742076 34.2319122134506131 Pt
atom 9.1788562979342476 6.4846052446129212 31.9371957484504705 Pt
atom 3.7152290822827707 1.6211516173123963 32.8113989750000954 O
atom 0.8742017991835810 1.6211519098360179 35.6524300419005868 O
atom 1.4205186134490990 0.0000003339699292 33.3577085599997787 O
atom 3.1689202315482996 0.0000010931785162 35.1061059319002027 O
atom 2.2947135372006571 4.8634553335742075 34.2319127684505133 Pt
atom 0.0000035114664226 3.2423024846129285 31.9371941434501316 Pt
atom 3.7152293387503792 4.8634532573123970 32.8113986200000767 O
atom 0.8742019556512145 4.8634562398360170 35.6524299969005796 O
atom 1.4205074099177328 3.2423042339699002 33.3577195750007860 O
atom 3.1689095380173016 3.2423036331784809 35.1061210069011622 O
atom 6.8841528707338231 1.6211505385742067 34.2319214284495104 Pt
atom 4.5894322979347377 6.4846055896129187 31.9372014234500838 Pt
atom 8.3046662722832920 1.6211511523123974 32.8114045399992875 O
atom 5.4636363791840195 1.6211522448360174 35.6524346869000155 O
atom 6.0099444763858969 6.4846062089699004 33.3577251649999909 O
atom 7.7583453015501060 0.0000008781784823 35.1061257069004853 O
atom 6.8841528672017027 4.8634563185742010 34.2319241634495199 Pt
atom 4.5894335014672407 3.2423019596129166 31.9372029784499745 Pt
atom 8.3046656687510367 4.8634537823123951 32.8114056749993352 O
atom 5.4636356056517750 4.8634535348360144 35.6524359519000882 O
atom 6.0099561399171044 3.2423040289699343 33.3577124299989336 O
atom 7.7583569180166005 3.2423029881785146 35.1061130318994401 O
atom 0.0000079699998065 0.0000007575354970 36.5266337284497524 Pt
atom 3.7152325572825271 1.6211515102349856 37.4008245349997992 O
atom 0.0000068764673390 3.2423040775354970 36.5266325534498506 Pt
atom 3.7152328837501871 4.8634541902349850 37.4008247599997716 O
atom 8.3046668472833787 1.6211519552349776 37.4008337499992649 O
atom 8.3046669137509852 4.8634560952349775 37.4008334149992550 O
