#===============================================================================
# Created using the Atomic Simulation Environment (ASE)

# Mon Mar 23 14:01:22 2026

#=======================================================
lattice_vector 11.2383934762033828 0.0000000000000000 0.0000000000000000 
lattice_vector 3.7416502063603971 10.5972441125269068 0.0000000000000000 
lattice_vector 0.0000000000000000 0.0000000000000000 43.4890765254297094 
atom 14.2694172244030995 10.0945191663868155 15.0000051523511342 O
atom 12.3985880586893575 4.7958971594621973 15.0000017753647743 O
atom 9.3675684685565237 2.6516881857073842 15.8738072052230343 Pt
atom 8.6502081509771802 10.0945282005887087 15.0000000000000000 O
atom 5.6191921048885174 7.9503144842591160 15.8738059657083745 Pt
atom 3.7483730370170054 2.6516908553032326 15.8738097618034288 Pt
atom 6.7793859575874338 4.7959128843488790 15.0000068772778814 O
atom 12.1771669804816369 8.6144276876553842 19.3143368534042779 Pt
atom 11.2383981158571800 7.9503134002913907 15.8738150875723463 Pt
atom 11.0169742505710957 10.2544482433458075 19.3143335310760520 O
atom 13.3373575108130176 6.9744034192031892 19.3143310232764698 O
atom 12.3985854836046112 8.7710692313690348 17.2936903476413910 O
atom 13.8265703111827545 9.7812607977832737 19.0413012646042432 O
atom 14.0479935794404547 9.9378943831610247 17.0206535446005311 Pt
atom 9.3675727032498486 6.6268469550538178 18.1674976424954195 Pt
atom 9.1461489809567009 0.9806704126516161 17.0206497586740824 O
atom 3.9697866867815650 8.2978678077041597 17.0206502320514836 O
atom 10.5277683877700259 7.4475875267743046 19.5873724362915773 O
atom 0.7173649266777620 0.5074709732066716 16.7476203105892480 O
atom 12.1771668237964867 4.6392668574456453 17.0206511683199970 Pt
atom 7.4967422792712055 1.3282229493237512 18.1674906864524495 Pt
atom 11.0169808352070859 6.2792943908044228 17.0206578229869905 O
atom 2.0989682054224645 2.9992460054937915 17.0206544438435436 O
atom 8.6569392220562822 2.1489655198496882 19.5873690593052174 O
atom 2.5881839500113921 5.8060883949705246 16.7476138860947792 O
atom 10.3063422673078957 3.3158015202168438 19.3143337038194822 Pt
atom 5.6259196319234492 0.0047565460948755 20.4611744891634793 Pt
atom 9.1461556355182037 4.9558283733601991 19.3143419575488160 O
atom 11.4665381075864179 1.6757807916107987 19.3143365654838099 O
atom 10.5277529621802994 3.4724442355639216 17.2936835267764089 O
atom 11.9557429043877139 4.4826386233275350 19.0412990983772836 O
atom 8.4287934963710995 9.9378858108501440 17.0206484922320200 Pt
atom 3.7483692859430384 6.6268451792804299 18.1674881944428215 Pt
atom 3.5269529600603331 0.9806671652382485 17.0206494240504966 O
atom 9.5889885099098056 8.2978647225888320 17.0206516170491007 O
atom 4.9085593143441102 7.4475965609761996 19.5873672839404449 O
atom 6.3365452048246960 0.5074801124266555 16.7476149362151112 O
atom 6.5579698198481493 8.6144209142377743 19.3143325651376401 Pt
atom 1.8775432682554494 5.3033828446466060 20.4611732496488194 Pt
atom 5.3977793929089408 10.2544464511251743 19.3143318750137531 O
atom 7.7181634374448507 6.9743986219149203 19.3143360759362075 O
atom 6.7793923597764847 8.7710492465103673 17.2936840047634455 O
atom 8.2073837206784912 9.7812450969547413 19.0413002628558736 O
atom 4.6871526753462733 3.3158065712377462 19.3143413373127864 Pt
atom 0.0067242003839275 0.0047592156907233 20.4611770457438702 Pt
atom 3.5269584583943399 4.9558297214718428 19.3143399813138821 O
atom 5.8473425888778872 1.6757808443843816 19.3143409760444626 O
atom 4.9085725636290389 3.4724337379194448 17.2936902949890197 O
atom 6.3365621647931318 4.4826279710364147 19.0413067148668951 O
atom 6.5579778733968510 4.6392705780439689 17.0206608474364209 Pt
atom 1.8775501022242314 1.3282257731616187 18.1674945164093060 Pt
atom 5.3977841672246170 6.2792949557704452 17.0206561635453077 O
atom 7.7181691770708332 2.9992464409186406 17.0206561903365170 O
atom 3.0377371209543584 2.1489812447363699 19.5873741612183210 O
atom 8.2073768944765852 5.8061079844356849 16.7476217345931602 O
atom 8.4355181438485651 5.9674960480428769 23.9017041373447228 Pt
atom 7.4967492792241028 5.3033817606788833 20.4611823715127876 Pt
atom 7.2753254139380239 7.6075166037332966 23.9017008150165005 O
atom 9.5957086741799476 4.3274717795906783 23.9016983072169111 O
atom 8.6569366469715341 6.1241375917565266 21.8810576315818288 O
atom 10.0849214745496774 7.1343291581707629 23.6286685485446846 O
atom 10.3063447428073722 7.2909627435485156 21.6080208285409761 Pt
atom 5.6259238666167803 3.9799153154413074 22.7548649264358644 Pt
atom 9.1461503506840245 8.9309828855660136 21.6080170426145273 O
atom 11.4665313263518680 5.6509361680916488 21.6080175159919250 O
atom 6.7861195511369452 4.8006558871617973 24.1747397202320187 O
atom 11.9557597726084648 8.4577834461210681 21.3349875945296894 O
atom 8.4355179871634132 1.9923352178331355 21.6080184522604419 Pt
atom 7.4967436489985255 9.2785354222381482 22.7548579703928944 Pt
atom 7.2753319985740141 3.6323627511919119 21.6080251069274354 O
atom 9.5957128449927716 0.3523143658812810 21.6080217277839886 O
atom 8.6569405917836093 10.0992779927640850 24.1747363432456588 O
atom 10.0849285895817076 3.1591567553580142 21.3349811700352205 O
atom 6.5646934306748204 0.6688698806043322 23.9017009877599271 Pt
atom 5.6259210016507728 7.9550690190092705 25.0485417731039206 Pt
atom 5.4045067988851283 2.3088967337476887 23.9017092414892609 O
atom 11.4665394773137450 9.6260932645251955 23.9017038494242549 O
atom 6.7861041255472188 0.8255125959514117 21.8810508107168502 O
atom 8.2140940677546315 1.8357069837150251 23.6286663823177285 O
atom 4.6871446597380206 7.2909541712376358 21.6080157761724614 Pt
atom 11.2451139255133477 3.9799135396679226 22.7548554783832664 Pt
atom 3.5269543297876575 8.9309796381526461 21.6080167079909380 O
atom 5.8473396732767329 5.6509330829763229 21.6080189009895420 O
atom 12.4053039539144159 4.8006649213636878 24.1747345678808898 O
atom 6.3365465745520204 8.4577925853410534 21.3349822201555561 O
atom 2.8163209832150784 5.9674892746252644 23.9016998490780814 Pt
atom 9.3742879078257513 2.6564512050340987 25.0485405335892573 Pt
atom 12.8945240324792518 7.6075148115126634 23.9016991589541981 O
atom 3.9765146008117771 4.3274669823024103 23.9017033598766524 O
atom 3.0377435231434093 6.1241176068978564 21.8810512887038904 O
atom 4.4657348840454159 7.1343134573422313 23.6286675467963185 O
atom 0.9455038387131879 0.6688749316252358 23.9017086212532313 Pt
atom 11.2451190463146364 7.9550716886051189 25.0485443296843151 Pt
atom 11.0237030979646438 2.3088980818593341 23.9017072652543270 O
atom 5.8473439586052098 9.6260933172987801 23.9017082599849040 O
atom 1.1669237269959685 0.8255020983069350 21.8810575789294610 O
atom 2.5949133281600543 1.8356963314239045 23.6286739988073400 O
atom 2.8163290367637850 1.9923389384314585 21.6080281313768658 Pt
atom 13.1159449481549402 9.2785382460760157 22.7548618003497474 Pt
atom 1.6561353305915396 3.6323633161579361 21.6080234474857491 O
atom 3.9765203404377596 0.3523148013061300 21.6080234742769619 O
atom 14.2761319668850621 10.0992937176507667 24.1747414451587623 O
atom 4.4657280578435117 3.1591763448231744 21.3349890185336015 O
atom 4.6938693072154898 3.3205644084303660 28.4890714212851641 Pt
atom 3.7551004425910373 2.6564501210663729 25.0485496554532325 Pt
atom 3.5336765773049486 4.9605849641207866 28.4890680989569347 O
atom 5.8540598375468686 1.6805401399781716 28.4890655911573525 O
atom 4.9152878103384587 3.4772059521440162 26.4684249155222773 O
atom 6.3432726379166029 4.4873975185582555 28.2160358324851295 O
atom 6.5646959061743058 4.6440311039360047 26.1953881124814210 Pt
atom 1.8842750299837050 1.3329836758287985 27.3422322103763058 Pt
atom 5.4045015140509589 6.2840512459535036 26.1953843265549722 O
atom 7.7248824897187989 3.0040045284791401 26.1953847999323663 O
atom 8.2141109359753930 5.8108518065085573 25.9223548784701343 O
atom 8.4355193568907350 9.9426476907475330 26.1953857362008797 Pt
atom 3.7550948123654546 6.6316037826256382 27.3422252543333357 Pt
atom 3.5336831619409392 0.9854311115794033 26.1953923908678767 O
atom 9.5957142147200951 8.3026268387956783 26.1953890117244264 O
atom 6.3432797529486340 0.5122251157455041 25.9223484539756619 O
atom 6.5646948004021377 8.6191823535187311 28.4890682717003685 Pt
atom 5.4045081686124501 10.2592092066620868 28.4890765254297023 O
atom 7.7248906406806706 6.9791616249126864 28.4890711333646962 O
atom 6.7861054952745459 8.7758250688658084 26.4684180946572916 O
atom 8.2140954374819639 9.7860194566294219 28.2160336662581699 O
atom 12.1838892993083370 4.6440225316251240 26.1953830601129063 Pt
atom 7.5034650888802830 1.3329819000554102 27.3422227623237113 Pt
atom 11.0236989693579641 6.2840479985401361 26.1953839919313829 O
atom 2.1056908366436575 3.0040014433638129 26.1953861849299869 O
atom 2.5948977379189446 5.8108609457285434 25.9223495040960010 O
atom 10.3130656227853859 3.3205576350127566 28.4890671330185228 Pt
atom 9.1528751958461871 4.9605831719001534 28.4890664428946430 O
atom 11.4732592403820846 1.6805353426899023 28.4890706438170938 O
atom 10.5344881627137177 3.4771859672853460 26.4684185726443353 O
atom 11.9624795236157286 4.4873818177297231 28.2160348307367599 O
atom 12.1838986846439017 8.6191874045396322 28.4890759051936726 Pt
atom 11.0237044676919744 10.2592105547737305 28.4890745491947683 O
atom 13.3440885981755208 6.9791616776862684 28.4890755439253489 O
atom 12.4053185729266726 8.7758145712213320 26.4684248628699059 O
atom 13.8333081740907726 9.7860088043383016 28.2160412827477884 O
atom 14.0547238826944838 9.9426514113458548 26.1953954153173072 Pt
atom 9.3742961115218701 6.6316066064635049 27.3422290842901958 Pt
atom 9.1528799701618464 0.9854316765454247 26.1953907314261976 O
atom 3.9765217101650823 8.3026272742205283 26.1953907582174068 O
atom 0.7240792212104361 0.5122447052106659 25.9223563024740464 O
