#===============================================================================
# Created using the Atomic Simulation Environment (ASE)

# Mon Mar 23 14:01:22 2026

#=======================================================
lattice_vector 11.2383934762033828 0.0000000000000000 0.0000000000000000 
lattice_vector 3.7416502063603971 10.5972441125269068 0.0000000000000000 
lattice_vector 0.0000000000000000 0.0000000000000000 30.0000109342723533 
atom 4.6938693072154898 3.3205644084303660 15.0000058301278116 Pt
atom 3.5336765773049486 4.9605849641207866 15.0000025077995822 O
atom 5.8540598375468686 1.6805401399781716 15.0000000000000000 O
atom 6.5646948004021377 8.6191823535187311 15.0000026805430160 Pt
atom 5.4045081686124501 10.2592092066620868 15.0000109342723498 O
atom 7.7248906406806706 6.9791616249126864 15.0000055422073437 O
atom 10.3130656227853859 3.3205576350127566 15.0000015418611703 Pt
atom 9.1528751958461871 4.9605831719001534 15.0000008517372905 O
atom 11.4732592403820846 1.6805353426899023 15.0000050526597413 O
atom 12.1838986846439017 8.6191874045396322 15.0000103140363201 Pt
atom 11.0237044676919744 10.2592105547737305 15.0000089580374159 O
atom 13.3440885981755208 6.9791616776862684 15.0000099527679964 O
