#===============================================================================
# Created using the Atomic Simulation Environment (ASE)

# Mon Mar 23 14:01:22 2026

#=======================================================
lattice_vector 11.2383934762033828 0.0000000000000000 0.0000000000000000 
lattice_vector 3.7416502063603971 10.5972441125269068 0.0000000000000000 
lattice_vector 0.0000000000000000 0.0000000000000000 34.5873782182127911 
atom 8.4355181438485651 5.9674960480428769 15.0000058301278116 Pt
atom 7.2753254139380239 7.6075166037332966 15.0000025077995893 O
atom 9.5957086741799476 4.3274717795906783 15.0000000000000000 O
atom 6.7861195511369452 4.8006558871617973 15.2730414130151075 O
atom 8.6569405917836093 10.0992779927640850 15.2730380360287477 O
atom 6.5646934306748204 0.6688698806043322 15.0000026805430160 Pt
atom 5.6259210016507728 7.9550690190092705 16.1468434658870095 Pt
atom 5.4045067988851283 2.3088967337476887 15.0000109342723498 O
atom 11.4665394773137450 9.6260932645251955 15.0000055422073437 O
atom 12.4053039539144159 4.8006649213636878 15.2730362606639787 O
atom 2.8163209832150784 5.9674892746252644 15.0000015418611703 Pt
atom 9.3742879078257513 2.6564512050340987 16.1468422263723461 Pt
atom 12.8945240324792518 7.6075148115126634 15.0000008517372869 O
atom 3.9765146008117771 4.3274669823024103 15.0000050526597413 O
atom 0.9455038387131879 0.6688749316252358 15.0000103140363201 Pt
atom 11.2451190463146364 7.9550716886051189 16.1468460224674040 Pt
atom 11.0237030979646438 2.3088980818593341 15.0000089580374159 O
atom 5.8473439586052098 9.6260933172987801 15.0000099527679929 O
atom 14.2761319668850621 10.0992937176507667 15.2730431379418512 O
atom 4.6938693072154898 3.3205644084303660 19.5873731140682530 Pt
atom 3.7551004425910373 2.6564501210663729 16.1468513482363214 Pt
atom 3.5336765773049486 4.9605849641207866 19.5873697917400236 O
atom 5.8540598375468686 1.6805401399781716 19.5873672839404414 O
atom 4.9152878103384587 3.4772059521440162 17.5667266083053661 O
atom 6.3432726379166029 4.4873975185582555 19.3143375252682183 O
atom 6.5646959061743058 4.6440311039360047 17.2936898052645098 Pt
atom 1.8842750299837050 1.3329836758287985 18.4405339031593947 Pt
atom 5.4045015140509589 6.2840512459535036 17.2936860193380610 O
atom 7.7248824897187989 3.0040045284791401 17.2936864927154552 O
atom 8.2141109359753930 5.8108518065085573 17.0206565712532232 O
atom 8.4355193568907350 9.9426476907475330 17.2936874289839686 Pt
atom 3.7550948123654546 6.6316037826256382 18.4405269471164246 Pt
atom 3.5336831619409392 0.9854311115794033 17.2936940836509656 O
atom 9.5957142147200951 8.3026268387956783 17.2936907045075152 O
atom 6.3432797529486340 0.5122251157455041 17.0206501467587508 O
atom 6.5646948004021377 8.6191823535187311 19.5873699644834574 Pt
atom 5.4045081686124501 10.2592092066620868 19.5873782182127911 O
atom 7.7248906406806706 6.9791616249126864 19.5873728261477851 O
atom 6.7861054952745459 8.7758250688658084 17.5667197874403804 O
atom 8.2140954374819639 9.7860194566294219 19.3143353590412588 O
atom 12.1838892993083370 4.6440225316251240 17.2936847528959952 Pt
atom 7.5034650888802830 1.3329819000554102 18.4405244551068002 Pt
atom 11.0236989693579641 6.2840479985401361 17.2936856847144718 O
atom 2.1056908366436575 3.0040014433638129 17.2936878777130758 O
atom 2.5948977379189446 5.8108609457285434 17.0206511968790899 O
atom 10.3130656227853859 3.3205576350127566 19.5873688258016116 Pt
atom 9.1528751958461871 4.9605831719001534 19.5873681356777318 O
atom 11.4732592403820846 1.6805353426899023 19.5873723366001826 O
atom 10.5344881627137177 3.4771859672853460 17.5667202654274242 O
atom 11.9624795236157286 4.4873818177297231 19.3143365235198488 O
atom 12.1838986846439017 8.6191874045396322 19.5873775979767615 Pt
atom 11.0237044676919744 10.2592105547737305 19.5873762419778572 O
atom 13.3440885981755208 6.9791616776862684 19.5873772367084378 O
atom 12.4053185729266726 8.7758145712213320 17.5667265556529948 O
atom 13.8333081740907726 9.7860088043383016 19.3143429755308773 O
atom 14.0547238826944838 9.9426514113458548 17.2936971081003961 Pt
atom 9.3742961115218701 6.6316066064635049 18.4405307770732847 Pt
atom 9.1528799701618464 0.9854316765454247 17.2936924242092864 O
atom 3.9765217101650823 8.3026272742205283 17.2936924510004957 O
atom 0.7240792212104361 0.5122447052106659 17.0206579952571353 O
