#===============================================================================
# Created using the Atomic Simulation Environment (ASE)

# Mon Mar 23 14:01:23 2026

#=======================================================
lattice_vector 9.1788565200000374 0.0000000000000000 0.0000000000000000 
lattice_vector -0.0000000170647224 6.4846065199999998 0.0000000000000000 
lattice_vector 0.0000000000000000 0.0000000000000000 40.9272580330985676 
atom 4.5894283029345440 6.4846063066903357 15.8741952965497362 Pt
atom 4.5894278864670595 3.2423023766903341 15.8741969915497734 Pt
atom 0.8742001391837835 1.6211519339908511 15.0000000450000144 O
atom 0.8742002956514170 4.8634562639908507 15.0000000000000000 O
atom 5.4636347191842223 1.6211522689908504 15.0000046899994430 O
atom 5.4636339456519769 4.8634535589908472 15.0000059549995051 O
atom 2.2947207257331685 1.6211521106516320 18.1689104465491553 Pt
atom 0.0000063100000091 0.0000007816903301 15.8742037315491729 Pt
atom 3.7152308972827299 1.6211515343898188 16.7483945380992232 O
atom 0.8742027641831310 1.6211489969134456 19.5894210549997823 O
atom 1.4205270513849730 6.4846059210473461 17.2947111730982925 O
atom 3.1689228165486516 0.0000005402559322 19.0431058349992526 O
atom 2.2947216422009613 4.8634539906516308 18.1689121415490717 Pt
atom 0.0000052164675415 3.2423041016903298 15.8742025565492710 Pt
atom 3.7152312237503899 4.8634542143898178 16.7483947630991921 O
atom 0.8742029406508016 4.8634558769134459 19.5894214499997759 O
atom 1.4205125249182180 3.2423038210473170 17.2947209580996102 O
atom 3.1689141630177384 3.2423024002558982 19.0431218400000297 O
atom 6.8841439857332549 1.6211522356516253 18.1689111815496105 Pt
atom 4.5894299629343411 6.4846062825355029 25.0530495765496291 Pt
atom 8.3046651872835824 1.6211519793898104 16.7484037530986818 O
atom 5.4636335341838569 1.6211516719134360 19.5894288899995601 O
atom 6.0099391484501421 0.0000004960473224 17.2947159380997562 O
atom 7.7583351894847761 6.4846065152559005 19.0431150000006859 O
atom 6.8841438422008183 4.8634545956516257 18.1689103765496149 Pt
atom 4.5894295464668566 3.2423023525355008 25.0530512715496592 Pt
atom 8.3046652537511889 4.8634561193898111 16.7484034180986754 O
atom 5.4636332906514742 4.8634531219134365 19.5894286449995789 O
atom 6.0099493649165723 3.2423033160473547 17.2947025530988334 O
atom 7.7583498830160424 3.2423036452559355 19.0431029049993619 O
atom 2.2947125307329674 1.6211525735742076 22.7583364965499193 Pt
atom 9.1788562979342476 6.4846052446129212 20.4636200315497767 Pt
atom 3.7152290822827707 1.6211516173123963 21.3378232580994016 O
atom 0.8742017991835810 1.6211519098360179 24.1788543249998931 O
atom 1.4205186134490990 0.0000003339699292 21.8841328430990849 O
atom 3.1689202315482996 0.0000010931785162 23.6325302149995089 O
atom 2.2947135372006571 4.8634553335742075 22.7583370515498196 Pt
atom 0.0000035114664226 3.2423024846129285 20.4636184265494379 Pt
atom 3.7152293387503792 4.8634532573123970 21.3378229030993829 O
atom 0.8742019556512145 4.8634562398360170 24.1788542799998858 O
atom 1.4205074099177328 3.2423042339699002 21.8841438581000922 O
atom 3.1689095380173016 3.2423036331784809 23.6325452900004684 O
atom 6.8841528707338231 1.6211505385742067 22.7583457115488166 Pt
atom 4.5894322979347377 6.4846055896129187 20.4636257065493901 Pt
atom 8.3046662722832920 1.6211511523123974 21.3378288230985937 O
atom 5.4636363791840195 1.6211522448360174 24.1788589699993217 O
atom 6.0099444763858969 6.4846062089699004 21.8841494480992971 O
atom 7.7583453015501060 0.0000008781784823 23.6325499899997915 O
atom 6.8841528672017027 4.8634563185742010 22.7583484465488262 Pt
atom 4.5894335014672407 3.2423019596129166 20.4636272615492807 Pt
atom 8.3046656687510367 4.8634537823123951 21.3378299580986415 O
atom 5.4636356056517750 4.8634535348360144 24.1788602349993944 O
atom 6.0099561399171044 3.2423040289699343 21.8841367130982398 O
atom 7.7583569180166005 3.2423029881785146 23.6325373149987463 O
atom 0.0000079699998065 0.0000007575354970 25.0530580115490586 Pt
atom 3.7152325572825271 1.6211515102349856 25.9272488180991054 O
atom 0.0000068764673390 3.2423040775354970 25.0530568365491568 Pt
atom 3.7152328837501871 4.8634541902349850 25.9272490430990779 O
atom 8.3046668472833787 1.6211519552349776 25.9272580330985711 O
atom 8.3046669137509852 4.8634560952349775 25.9272576980985612 O
