#===============================================================================
# Created using the Atomic Simulation Environment (ASE)

# Mon Mar 23 14:01:22 2026

#=======================================================
lattice_vector 9.1788542800000368 0.0000000000000000 0.0000000000000000 
lattice_vector 0.0000016600002026 9.1788565199998882 0.0000000000000000 
lattice_vector 0.0000000000000000 0.0000000000000000 46.2115203700000237 
atom 2.2947116986694134 2.2947169736692770 15.0000031100000086 Pt
atom 0.8741960471193889 3.7152274021197367 15.0000025300000033 O
atom 3.7152220502187387 0.8741987552193006 15.0000000000000000 O
atom 1.4205122543217206 1.4205234574204186 19.8634569180952028 O
atom 2.2947133851371366 2.2947178901367655 18.2423049900000116 Pt
atom 0.0000033894030851 0.0000018794026112 16.6211550950000131 Pt
atom 0.8741962635870579 3.7152277285873567 18.2423052100000049 O
atom 3.7152224366863886 0.8741989316869013 18.2423068800000010 O
atom 1.4205220478527667 1.4205089309518923 16.6211548180951993 O
atom 3.1689232459523651 3.1689102528523221 16.6211534019048273 O
atom 2.2947132636690624 6.8841402336691537 15.0000032350000048 Pt
atom 9.1788512308703964 4.5894249658708519 19.8634573000000003 Pt
atom 0.8742060921200353 8.3046616921188470 15.0000029750000223 O
atom 3.7152307152190640 5.4636295252185336 15.0000026750000117 O
atom 2.2947124501366893 6.8841400901368681 18.2423055950000048 Pt
atom 9.1788529344027197 4.5894245494030601 16.6211533700000018 Pt
atom 0.8742057485876789 8.3046617585865121 18.2423071150000169 O
atom 3.7152304616866827 5.4636292816861971 18.2423041250000111 O
atom 1.4205044728536445 6.0099457709534985 16.6211543130951895 O
atom 3.1689051409531395 7.7583459728539763 16.6211546469048130 O
atom 6.8841377486686186 2.2947079486693749 15.0000035850000017 Pt
atom 4.5894225158703810 9.1788521308710163 19.8634562499999987 Pt
atom 5.4636247671191693 3.7152247571195929 15.0000026250000005 O
atom 8.3046553202185915 0.8741969602187432 15.0000029250000040 O
atom 6.8841382951363475 2.2947089551369655 18.2423063450000029 Pt
atom 4.5894209194030795 9.1788558644035181 16.6211534899999975 Pt
atom 5.4636244035868318 3.7152250135872666 18.2423042650000014 O
atom 8.3046552666862414 0.8741971166863864 18.2423072550000072 O
atom 6.0099449478522491 1.4205029859522755 16.6211552430951883 O
atom 7.7583466959518903 3.1689047978526541 16.6211546469048166 O
atom 6.8841477936698130 6.8841482886684870 15.0000015500000217 Pt
atom 4.5894273608706637 4.5894281308705569 19.8634565950000095 Pt
atom 5.4636311621200777 8.3046619471190279 15.0000021600000153 O
atom 8.3046607952192630 5.4636315402182669 15.0000032600000210 O
atom 6.0099513593207865 6.0099400524193554 19.8634572180952063 O
atom 6.8841505201374478 6.8841482851358764 18.2423073300000240 Pt
atom 4.5894289244031352 4.5894293344027774 16.6211529650000109 Pt
atom 5.4636322885876627 8.3046613435865719 18.2423047900000199 O
atom 8.3046620516868330 5.4636307666857942 18.2423045500000178 O
atom 6.0099386328542002 6.0099517159528633 16.6211550380952033 O
atom 7.7583395509537230 7.7583521778533209 16.6211540019048272 O
atom 2.2947116816046891 2.2947169566045571 21.4846096300000085 Pt
atom 0.0000045558708212 0.0000029558701454 19.8634582950000151 Pt
atom 0.8741960300546648 3.7152273850550177 21.4846090500000031 O
atom 3.7152220331540144 0.8741987381545813 21.4846065199999998 O
atom 1.4205122372569963 1.4205234403556990 26.3480634380952026 O
atom 3.1689072324207843 3.1689188893214082 19.8634580619048222 O
atom 2.2947133680724123 2.2947178730720461 24.7269115100000114 Pt
atom 0.0000033723383609 0.0000018623378919 23.1057616150000129 Pt
atom 0.8741962465223339 3.7152277115226373 24.7269117300000048 O
atom 3.7152224196216648 0.8741989146221819 24.7269134000000008 O
atom 1.4205220307880424 1.4205089138871727 23.1057613380951992 O
atom 3.1689232288876412 3.1689102357876031 23.1057599219048271 O
atom 2.2947132466043385 6.8841402166044343 21.4846097550000046 Pt
atom 9.1788512138056717 4.5894249488061334 26.3480638199999966 Pt
atom 0.8742060750553112 8.3046616750541276 21.4846094950000222 O
atom 3.7152306981543397 5.4636295081538142 21.4846091950000115 O
atom 1.4205178493203570 6.0099355374199295 19.8634580130951903 O
atom 3.1689172274194504 7.7583312793205232 19.8634575169048091 O
atom 2.2947124330719655 6.8841400730721496 24.7269121150000011 Pt
atom 9.1788529173379949 4.5894245323383407 23.1057598900000016 Pt
atom 0.8742057315229548 8.3046617415217945 24.7269136350000167 O
atom 3.7152304446219584 5.4636292646214777 24.7269106450000109 O
atom 1.4205044557889202 6.0099457538887799 23.1057608330951894 O
atom 3.1689051238884156 7.7583459557892578 23.1057611669048129 O
atom 6.8841377316038930 2.2947079316046555 21.4846101050000016 Pt
atom 4.5894224988056571 9.1788521138062986 26.3480627699999950 Pt
atom 5.4636247500544446 3.7152247400548735 21.4846091450000003 O
atom 8.3046553031538668 0.8741969431540239 21.4846094450000038 O
atom 6.0099339243208982 1.4205141724209123 19.8634578630951886 O
atom 7.7583316124204931 3.1689154743216577 19.8634586269048121 O
atom 6.8841382780716236 2.2947089380722465 24.7269128649999956 Pt
atom 4.5894209023383556 9.1788558473388004 23.1057600099999974 Pt
atom 5.4636243865221088 3.7152249965225481 24.7269107850000012 O
atom 8.3046552496215185 0.8741970996216671 24.7269137750000034 O
atom 6.0099449307875252 1.4205029688875559 23.1057617630951846 O
atom 7.7583466788871664 3.1689047807879351 23.1057611669048164 O
atom 6.8841477766050883 6.8841482716037685 21.4846080700000215 Pt
atom 4.5894273438059390 4.5894281138058375 26.3480631150000058 Pt
atom 5.4636311450553539 8.3046619300543103 21.4846086800000151 O
atom 8.3046607781545401 5.4636315231535475 21.4846097800000209 O
atom 6.0099513422560626 6.0099400353546359 26.3480637380952025 O
atom 7.7583522174203070 7.7583405443198128 19.8634584119048299 O
atom 6.8841505030727230 6.8841482680711579 24.7269138500000238 Pt
atom 4.5894289073384105 4.5894293173380580 23.1057594850000072 Pt
atom 5.4636322715229380 8.3046613265218525 24.7269113100000162 O
atom 8.3046620346221083 5.4636307496210748 24.7269110700000141 O
atom 6.0099386157894763 6.0099516988881447 23.1057615580951996 O
atom 7.7583395338889973 7.7583521607886015 23.1057605219048270 O
atom 2.2947116645399652 2.2947169395398386 27.9692161500000083 Pt
atom 0.0000045388060970 0.0000029388054260 26.3480648150000150 Pt
atom 0.8741960129899407 3.7152273679902983 27.9692155699999994 O
atom 3.7152220160892901 0.8741987210898620 27.9692130399999996 O
atom 3.1689072153560600 3.1689188722566888 26.3480645819048149 O
atom 2.2947133510076885 2.2947178560073263 31.2115180300000077 Pt
atom 0.0000033552736368 0.0000018452731725 29.5903681350000127 Pt
atom 0.8741962294576098 3.7152276944579183 31.2115182500000046 O
atom 3.7152224025569405 0.8741988975574626 31.2115199200000006 O
atom 1.4205220137233183 1.4205088968224537 29.5903678580951990 O
atom 3.1689232118229169 3.1689102187228833 29.5903664419048269 O
atom 2.2947132295396142 6.8841401995397158 27.9692162750000044 Pt
atom 0.8742060579905870 8.3046616579894081 27.9692160150000184 O
atom 3.7152306810896158 5.4636294910890948 27.9692157150000114 O
atom 1.4205178322556331 6.0099355203552101 26.3480645330951901 O
atom 3.1689172103547261 7.7583312622558038 26.3480640369048125 O
atom 2.2947124160072407 6.8841400560074293 31.2115186350000045 Pt
atom 9.1788529002732719 4.5894245152736222 29.5903664100000015 Pt
atom 0.8742057144582306 8.3046617244570733 31.2115201550000165 O
atom 3.7152304275572345 5.4636292475567592 31.2115171650000107 O
atom 1.4205044387241961 6.0099457368240605 29.5903673530951892 O
atom 3.1689051068236913 7.7583459387245393 29.5903676869048127 O
atom 6.8841377145391691 2.2947079145399361 27.9692166249999978 Pt
atom 5.4636247329897207 3.7152247229901545 27.9692156650000001 O
atom 8.3046552860891438 0.8741969260893044 27.9692159650000036 O
atom 6.0099339072561744 1.4205141553561931 26.3480643830951884 O
atom 7.7583315953557692 3.1689154572569382 26.3480651469048119 O
atom 6.8841382610068989 2.2947089210075271 31.2115193849999955 Pt
atom 4.5894208852736318 9.1788558302740793 29.5903665299999972 Pt
atom 5.4636243694573841 3.7152249794578287 31.2115173050000010 O
atom 8.3046552325567937 0.8741970825569477 31.2115202949999997 O
atom 6.0099449137228005 1.4205029518228369 29.5903682830951844 O
atom 7.7583466618224417 3.1689047637232157 29.5903676869048162 O
atom 6.8841477595403644 6.8841482545390491 27.9692145900000178 Pt
atom 5.4636311279906300 8.3046619129895891 27.9692152000000149 O
atom 8.3046607610898135 5.4636315060888299 27.9692163000000171 O
atom 7.7583522003555840 7.7583405272550934 26.3480649319048261 O
atom 6.8841504860079992 6.8841482510064385 31.2115203700000237 Pt
atom 4.5894288902736875 4.5894293002733386 29.5903660050000070 Pt
atom 5.4636322544582141 8.3046613094571331 31.2115178300000196 O
atom 8.3046620175573853 5.4636307325563553 31.2115175900000139 O
atom 6.0099385987247524 6.0099516818234244 29.5903680780951994 O
atom 7.7583395168242744 7.7583521437238820 29.5903670419048268 O
