#===============================================================================
# Created using the Atomic Simulation Environment (ASE)

# Mon Mar 23 14:01:23 2026

#=======================================================
lattice_vector 11.2383934762033828 0.0000000000000000 0.0000000000000000 
lattice_vector 0.0000013697273223 9.1788565199999361 0.0000000000000000 
lattice_vector 0.0000000000000000 0.0000000000000000 36.9355375986049737 
atom 4.6938679374881636 2.2947183482198588 15.8196457005306463 Pt
atom 3.5336752075776254 3.7152286929007716 15.0000007873196424 O
atom 5.8540584678195442 0.8742002135388004 16.6392845418433275 O
atom 6.3432712681892784 3.1689201929009023 15.0000000000000000 O
atom 2.8230456998138962 2.2947195438636405 18.4677668526075713 Pt
atom 1.8842736602563805 0.0000032582197273 15.8196492678607115 Pt
atom 1.6628513076905478 3.7152292985446667 17.6481217445922312 O
atom 3.0444693447765521 1.4205103935386432 16.6392949197333948 O
atom 4.4724607296149985 3.1689118185442311 17.6481293926807226 O
atom 4.6938691505303369 6.8841416082198128 15.8196462267219928 Pt
atom 0.0134446060050544 4.5894266238637851 18.4677655183010785 Pt
atom 3.5336831619409370 8.3046629829004885 15.0000064678678449 O
atom 5.8540640083596989 5.4636309835387502 16.6392912474570878 O
atom 6.3432797529486304 7.7583325829005334 15.0000048431257156 O
atom 2.8230445940417472 6.8841417438637134 18.4677663283226607 Pt
atom 1.8842707952903779 4.5894259282197236 15.8196446479516553 Pt
atom 1.6628579622520514 8.3046633285445211 17.6481282944593261 O
atom 3.0444552889141443 6.0099472335391448 16.6392838875062523 O
atom 4.4724452311215561 7.7583475385448990 17.6481194839374851 O
atom 8.4422390929479274 2.2947095938638862 18.4677667607039773 Pt
atom 7.5034650888802741 9.1788535182197890 15.8196419718706771 Pt
atom 7.2820487629975625 3.7152263185446812 17.6481230777338638 O
atom 8.6636537475540116 1.4205156435391053 16.6392859419262393 O
atom 10.0916410077619201 3.1689170485449880 17.6481201700817678 O
atom 10.3130642530580623 2.2947103382198737 15.8196453714149925 Pt
atom 5.6326377014653524 0.0000009938638964 18.4677627553044275 Pt
atom 9.1528738261188565 3.7152263129006036 15.0000002486208999 O
atom 0.2348643944513808 0.8741985835389486 16.6392913157968039 O
atom 0.7240846776850161 3.1689060929005013 15.0000069792195205 O
atom 7.5034688399542322 4.5894295182196707 15.8196455281480404 Pt
atom 7.2820542613315666 8.3046635085444329 17.6481259089804254 O
atom 8.6636683665662719 6.0099415235384956 16.6392949962926018 O
atom 10.0916579677303577 7.7583421185443147 17.6481314047517905 O
atom 10.3130736763340867 6.8841496682195658 15.8196527508733347 Pt
atom 5.6326459051614695 4.5894309838635410 18.4677674243524805 Pt
atom 9.1528799701618446 8.3046626429003929 15.0000047481779788 O
atom 0.2348715038046872 5.4636322335384984 16.6392925425760581 O
atom 0.7240792212104331 7.7583534729006631 15.0000018508077773 O
atom 0.9522191008550924 2.2947188895077621 21.1158883028430218 Pt
atom 0.0134502362306228 0.0000046138636370 18.4677711979929846 Pt
atom 11.0304198471479324 3.7152292341886750 20.2962433896320213 O
atom 2.1124096311864733 0.8742007548267039 21.9355271441556994 O
atom 1.1736376039780614 1.4205251991828045 19.2874096274779561 O
atom 2.6016224315561973 3.1689207341888057 20.2962426023123790 O
atom 9.3810182998266818 0.0000037995076309 21.1158918701730869 Pt
atom 3.9832322833584000 0.8742006691830474 19.2874090275180237 O
atom 10.5412139843468644 1.4205109348265470 21.9355375220457631 O
atom 0.9522203138972659 6.8841421495077180 21.1158888290343754 Pt
atom 11.0304278015112391 8.3046635241883902 20.2962490701802203 O
atom 2.1124151717266177 5.4636315248266545 21.9355338497694703 O
atom 1.1736415487901337 6.0099372791827159 19.2874132712376181 O
atom 2.6016309163155587 7.7583331241884377 20.2962474454380875 O
atom 9.3810154348606805 4.5894264695076270 21.1158872502640307 Pt
atom 3.9832404343202636 5.4636310191825554 19.2874109289463043 O
atom 10.5411999284844562 6.0099477748270491 21.9355264898186277 O
atom 3.7618162522471987 9.1788540595076924 21.1158845741830525 Pt
atom 9.6024341064866459 0.8741986891828081 19.2874117690055797 O
atom 4.9220049109209425 1.4205161848270089 21.9355285442386148 O
atom 6.5714154164249887 2.2947108795077771 21.1158879737273644 Pt
atom 5.4112249894857802 3.7152268541885070 20.2962428509332788 O
atom 7.7316090340216883 0.8741991248268524 21.9355339181091793 O
atom 6.7928379563533161 1.4205047191827649 19.2874141215045398 O
atom 8.2208293172553226 3.1689066341884047 20.2962495815319031 O
atom 8.4422484782835063 6.8841499338633909 18.4677704157347300 Pt
atom 3.7618200033211586 4.5894300595075741 21.1158881304604158 Pt
atom 9.6024383918151202 5.4636332691826590 19.2874147228005270 O
atom 4.9220195299331939 6.0099420648263990 21.9355375986049737 O
atom 6.5714248397010122 6.8841502095074691 21.1158953531857030 Pt
atom 5.4112311335287684 8.3046631841882963 20.2962473504903578 O
atom 7.7316161433749899 5.4636327748264026 21.9355351448884335 O
atom 6.7928329238915879 6.0099534491829383 19.2874098313726172 O
atom 8.2208238607807402 7.7583540141885674 20.2962444531201527 O
