#===============================================================================
# Created using the Atomic Simulation Environment (ASE)

# Mon Mar 23 14:01:22 2026

#=======================================================
lattice_vector 9.1788542800000368 0.0000000000000000 0.0000000000000000 
lattice_vector 0.0000016600002026 9.1788565199998882 0.0000000000000000 
lattice_vector 0.0000000000000000 0.0000000000000000 44.5903674050000092 
atom 1.4205122543217206 1.4205234574204186 18.2423039530951918 O
atom 2.2947133851371366 2.2947178901367655 16.6211520250000007 Pt
atom 0.0000033894030851 0.0000018794026112 15.0000021300000022 Pt
atom 0.8741962635870579 3.7152277285873567 16.6211522449999940 O
atom 3.7152224366863886 0.8741989316869013 16.6211539149999901 O
atom 1.4205220478527667 1.4205089309518923 15.0000018530951884 O
atom 3.1689232459523651 3.1689102528523221 15.0000004369048163 O
atom 9.1788512308703964 4.5894249658708519 18.2423043349999894 Pt
atom 2.2947124501366893 6.8841400901368681 16.6211526299999939 Pt
atom 9.1788529344027197 4.5894245494030601 15.0000004049999909 Pt
atom 0.8742057485876789 8.3046617585865121 16.6211541500000060 O
atom 3.7152304616866827 5.4636292816861971 16.6211511600000001 O
atom 1.4205044728536445 6.0099457709534985 15.0000013480951786 O
atom 3.1689051409531395 7.7583459728539763 15.0000016819048021 O
atom 4.5894225158703810 9.1788521308710163 18.2423032849999878 Pt
atom 6.8841382951363475 2.2947089551369655 16.6211533799999920 Pt
atom 4.5894209194030795 9.1788558644035181 15.0000005249999866 Pt
atom 5.4636244035868318 3.7152250135872666 16.6211512999999904 O
atom 8.3046552666862414 0.8741971166863864 16.6211542899999962 O
atom 6.0099449478522491 1.4205029859522755 15.0000022780951774 O
atom 7.7583466959518903 3.1689047978526541 15.0000016819048057 O
atom 4.5894273608706637 4.5894281308705569 18.2423036299999985 Pt
atom 6.0099513593207865 6.0099400524193554 18.2423042530951953 O
atom 6.8841505201374478 6.8841482851358764 16.6211543650000131 Pt
atom 4.5894289244031352 4.5894293344027774 15.0000000000000000 Pt
atom 5.4636322885876627 8.3046613435865719 16.6211518250000090 O
atom 8.3046620516868330 5.4636307666857942 16.6211515850000069 O
atom 6.0099386328542002 6.0099517159528633 15.0000020730951924 O
atom 7.7583395509537230 7.7583521778533209 15.0000010369048162 O
atom 2.2947116816046891 2.2947169566045571 19.8634566649999975 Pt
atom 0.0000045558708212 0.0000029558701454 18.2423053300000042 Pt
atom 0.8741960300546648 3.7152273850550177 19.8634560849999922 O
atom 3.7152220331540144 0.8741987381545813 19.8634535549999889 O
atom 1.4205122372569963 1.4205234403556990 24.7269104730951916 O
atom 3.1689072324207843 3.1689188893214082 18.2423050969048113 O
atom 2.2947133680724123 2.2947178730720461 23.1057585450000005 Pt
atom 0.0000033723383609 0.0000018623378919 21.4846086500000020 Pt
atom 0.8741962465223339 3.7152277115226373 23.1057587649999938 O
atom 3.7152224196216648 0.8741989146221819 23.1057604349999899 O
atom 1.4205220307880424 1.4205089138871727 21.4846083730951882 O
atom 3.1689232288876412 3.1689102357876031 21.4846069569048161 O
atom 2.2947132466043385 6.8841402166044343 19.8634567899999936 Pt
atom 9.1788512138056717 4.5894249488061334 24.7269108549999856 Pt
atom 0.8742060750553112 8.3046616750541276 19.8634565300000112 O
atom 3.7152306981543397 5.4636295081538142 19.8634562300000006 O
atom 1.4205178493203570 6.0099355374199295 18.2423050480951794 O
atom 3.1689172274194504 7.7583312793205232 18.2423045519047982 O
atom 2.2947124330719655 6.8841400730721496 23.1057591499999901 Pt
atom 9.1788529173379949 4.5894245323383407 21.4846069249999907 Pt
atom 0.8742057315229548 8.3046617415217945 23.1057606700000058 O
atom 3.7152304446219584 5.4636292646214777 23.1057576800000000 O
atom 1.4205044557889202 6.0099457538887799 21.4846078680951784 O
atom 3.1689051238884156 7.7583459557892578 21.4846082019048019 O
atom 6.8841377316038930 2.2947079316046555 19.8634571399999906 Pt
atom 4.5894224988056571 9.1788521138062986 24.7269098049999840 Pt
atom 5.4636247500544446 3.7152247400548735 19.8634561799999894 O
atom 8.3046553031538668 0.8741969431540239 19.8634564799999929 O
atom 6.0099339243208982 1.4205141724209123 18.2423048980951776 O
atom 7.7583316124204931 3.1689154743216577 18.2423056619048012 O
atom 6.8841382780716236 2.2947089380722465 23.1057598999999847 Pt
atom 4.5894209023383556 9.1788558473388004 21.4846070449999864 Pt
atom 5.4636243865221088 3.7152249965225481 23.1057578199999902 O
atom 8.3046552496215185 0.8741970996216671 23.1057608099999925 O
atom 6.0099449307875252 1.4205029688875559 21.4846087980951737 O
atom 7.7583466788871664 3.1689047807879351 21.4846082019048055 O
atom 6.8841477766050883 6.8841482716037685 19.8634551050000105 Pt
atom 4.5894273438059390 4.5894281138058375 24.7269101499999948 Pt
atom 5.4636311450553539 8.3046619300543103 19.8634557150000042 O
atom 8.3046607781545401 5.4636315231535475 19.8634568150000099 O
atom 6.0099513422560626 6.0099400353546359 24.7269107730951916 O
atom 7.7583522174203070 7.7583405443198128 18.2423054469048189 O
atom 6.8841505030727230 6.8841482680711579 23.1057608850000129 Pt
atom 4.5894289073384105 4.5894293173380580 21.4846065199999963 Pt
atom 5.4636322715229380 8.3046613265218525 23.1057583450000052 O
atom 8.3046620346221083 5.4636307496210748 23.1057581050000032 O
atom 6.0099386157894763 6.0099516988881447 21.4846085930951887 O
atom 7.7583395338889973 7.7583521607886015 21.4846075569048161 O
atom 2.2947116645399652 2.2947169395398386 26.3480631849999973 Pt
atom 0.0000045388060970 0.0000029388054260 24.7269118500000040 Pt
atom 0.8741960129899407 3.7152273679902983 26.3480626049999884 O
atom 3.7152220160892901 0.8741987210898620 26.3480600749999887 O
atom 3.1689072153560600 3.1689188722566888 24.7269116169048040 O
atom 2.2947133510076885 2.2947178560073263 29.5903650649999967 Pt
atom 0.0000033552736368 0.0000018452731725 27.9692151700000018 Pt
atom 0.8741962294576098 3.7152276944579183 29.5903652849999936 O
atom 3.7152224025569405 0.8741988975574626 29.5903669549999897 O
atom 1.4205220137233183 1.4205088968224537 27.9692148930951880 O
atom 3.1689232118229169 3.1689102187228833 27.9692134769048160 O
atom 2.2947132295396142 6.8841401995397158 26.3480633099999935 Pt
atom 0.8742060579905870 8.3046616579894081 26.3480630500000075 O
atom 3.7152306810896158 5.4636294910890948 26.3480627500000004 O
atom 1.4205178322556331 6.0099355203552101 24.7269115680951792 O
atom 3.1689172103547261 7.7583312622558038 24.7269110719048015 O
atom 2.2947124160072407 6.8841400560074293 29.5903656699999935 Pt
atom 9.1788529002732719 4.5894245152736222 27.9692134449999905 Pt
atom 0.8742057144582306 8.3046617244570733 29.5903671900000056 O
atom 3.7152304275572345 5.4636292475567592 29.5903641999999998 O
atom 1.4205044387241961 6.0099457368240605 27.9692143880951782 O
atom 3.1689051068236913 7.7583459387245393 27.9692147219048017 O
atom 6.8841377145391691 2.2947079145399361 26.3480636599999869 Pt
atom 5.4636247329897207 3.7152247229901545 26.3480626999999892 O
atom 8.3046552860891438 0.8741969260893044 26.3480629999999927 O
atom 6.0099339072561744 1.4205141553561931 24.7269114180951775 O
atom 7.7583315953557692 3.1689154572569382 24.7269121819048010 O
atom 6.8841382610068989 2.2947089210075271 29.5903664199999845 Pt
atom 4.5894208852736318 9.1788558302740793 27.9692135649999862 Pt
atom 5.4636243694573841 3.7152249794578287 29.5903643399999901 O
atom 8.3046552325567937 0.8741970825569477 29.5903673299999888 O
atom 6.0099449137228005 1.4205029518228369 27.9692153180951735 O
atom 7.7583466618224417 3.1689047637232157 27.9692147219048053 O
atom 6.8841477595403644 6.8841482545390491 26.3480616250000068 Pt
atom 5.4636311279906300 8.3046619129895891 26.3480622350000040 O
atom 8.3046607610898135 5.4636315060888299 26.3480633350000062 O
atom 7.7583522003555840 7.7583405272550934 24.7269119669048152 O
atom 6.8841504860079992 6.8841482510064385 29.5903674050000127 Pt
atom 4.5894288902736875 4.5894293002733386 27.9692130399999961 Pt
atom 5.4636322544582141 8.3046613094571331 29.5903648650000086 O
atom 8.3046620175573853 5.4636307325563553 29.5903646250000030 O
atom 6.0099385987247524 6.0099516818234244 27.9692151130951885 O
atom 7.7583395168242744 7.7583521437238820 27.9692140769048159 O
