#===============================================================================
# Created using the Atomic Simulation Environment (ASE)

# Mon Mar 23 14:01:23 2026

#=======================================================
lattice_vector 9.1788565200000374 0.0000000000000000 0.0000000000000000 
lattice_vector -0.0000000170647224 6.4846065199999998 0.0000000000000000 
lattice_vector 0.0000000000000000 0.0000000000000000 45.5166912580986676 
atom 0.8742011041833334 1.6211490210682786 15.0000000000000000 O
atom 0.8742012806510041 4.8634559010682779 15.0000003949999865 O
atom 4.5894283029345440 6.4846063066903357 20.4636285215498326 Pt
atom 5.4636318741840597 1.6211516960682695 15.0000078349997779 O
atom 4.5894278864670595 3.2423023766903341 20.4636302165498698 Pt
atom 5.4636316306516761 4.8634531460682693 15.0000075899997967 O
atom 2.2947108707331698 1.6211525977290411 18.1689154415501264 Pt
atom 9.1788546379344478 6.4846052687677540 15.8741989765499873 Pt
atom 3.7152274222829726 1.6211516414672298 16.7484022030996158 O
atom 0.8742001391837835 1.6211519339908511 19.5894332700001108 O
atom 1.4205169534493016 0.0000003581247622 17.2947117880992920 O
atom 3.1689185715485020 0.0000011173333493 19.0431091599997124 O
atom 2.2947118772008595 4.8634553577290403 18.1689159965500302 Pt
atom 0.0000018514666248 3.2423025087677617 15.8741973715496556 Pt
atom 3.7152276787505816 4.8634532814672307 16.7484018480995900 O
atom 0.8742002956514170 4.8634562639908507 19.5894332250000964 O
atom 1.4205057499179354 3.2423042581247321 17.2947228031003029 O
atom 3.1689078780175040 3.2423036573333142 19.0431242350006791 O
atom 6.8841512107340250 1.6211505627290397 18.1689246565490272 Pt
atom 4.5894306379349397 6.4846056137677524 15.8742046515496043 Pt
atom 8.3046646122834940 1.6211511764672306 16.7484077680988079 O
atom 5.4636347191842223 1.6211522689908504 19.5894379149995395 O
atom 6.0099428163861006 6.4846062331247349 17.2947283930995042 O
atom 7.7583436415503098 0.0000009023333153 19.0431289350000057 O
atom 6.8841512072019064 4.8634563427290347 18.1689273915490332 Pt
atom 4.5894318414674435 3.2423019837677498 15.8742062065494949 Pt
atom 8.3046640087512387 4.8634538064672288 16.7484089030988592 O
atom 5.4636339456519769 4.8634535589908472 19.5894391799996015 O
atom 6.0099544799173064 3.2423040531247662 17.2947156580984505 O
atom 7.7583552580168043 3.2423030123333474 19.0431162599989499 O
atom 2.2947207257331685 1.6211521106516320 22.7583436715492518 Pt
atom 0.0000063100000091 0.0000007816903301 20.4636369565492693 Pt
atom 3.7152308972827299 1.6211515343898188 21.3378277630993196 O
atom 0.8742027641831310 1.6211489969134456 24.1788542799998787 O
atom 1.4205270513849730 6.4846059210473461 21.8841443980983890 O
atom 3.1689228165486516 0.0000005402559322 23.6325390599993490 O
atom 2.2947216422009613 4.8634539906516308 22.7583453665491682 Pt
atom 0.0000052164675415 3.2423041016903298 20.4636357815493675 Pt
atom 3.7152312237503899 4.8634542143898178 21.3378279880992885 O
atom 0.8742029406508016 4.8634558769134459 24.1788546749998723 O
atom 1.4205125249182180 3.2423038210473170 21.8841541830997066 O
atom 3.1689141630177384 3.2423024002558982 23.6325550650001261 O
atom 6.8841439857332549 1.6211522356516253 22.7583444065497069 Pt
atom 4.5894299629343411 6.4846062825355029 29.6424828015497255 Pt
atom 8.3046651872835824 1.6211519793898104 21.3378369780987782 O
atom 5.4636335341838569 1.6211516719134360 24.1788621149996565 O
atom 6.0099391484501421 0.0000004960473224 21.8841491630998526 O
atom 7.7583351894847761 6.4846065152559005 23.6325482250007823 O
atom 6.8841438422008183 4.8634545956516257 22.7583436015497114 Pt
atom 4.5894295464668566 3.2423023525355008 29.6424844965497556 Pt
atom 8.3046652537511889 4.8634561193898111 21.3378366430987718 O
atom 5.4636332906514742 4.8634531219134365 24.1788618699996753 O
atom 6.0099493649165723 3.2423033160473547 21.8841357780989298 O
atom 7.7583498830160424 3.2423036452559355 23.6325361299994583 O
atom 2.2947125307329674 1.6211525735742076 27.3477697215500157 Pt
atom 9.1788562979342476 6.4846052446129212 25.0530532565498731 Pt
atom 3.7152290822827707 1.6211516173123963 25.9272564830994980 O
atom 0.8742017991835810 1.6211519098360179 28.7682875499999895 O
atom 1.4205186134490990 0.0000003339699292 26.4735660680991813 O
atom 3.1689202315482996 0.0000010931785162 28.2219634399996053 O
atom 2.2947135372006571 4.8634553335742075 27.3477702765499160 Pt
atom 0.0000035114664226 3.2423024846129285 25.0530516515495343 Pt
atom 3.7152293387503792 4.8634532573123970 25.9272561280994793 O
atom 0.8742019556512145 4.8634562398360170 28.7682875049999822 O
atom 1.4205074099177328 3.2423042339699002 26.4735770831001886 O
atom 3.1689095380173016 3.2423036331784809 28.2219785150005649 O
atom 6.8841528707338231 1.6211505385742067 27.3477789365489130 Pt
atom 4.5894322979347377 6.4846055896129187 25.0530589315494865 Pt
atom 8.3046662722832920 1.6211511523123974 25.9272620480986902 O
atom 5.4636363791840195 1.6211522448360174 28.7682921949994181 O
atom 6.0099444763858969 6.4846062089699004 26.4735826730993935 O
atom 7.7583453015501060 0.0000008781784823 28.2219832149998879 O
atom 6.8841528672017027 4.8634563185742010 27.3477816715489226 Pt
atom 4.5894335014672407 3.2423019596129166 25.0530604865493771 Pt
atom 8.3046656687510367 4.8634537823123951 25.9272631830987379 O
atom 5.4636356056517750 4.8634535348360144 28.7682934599994908 O
atom 6.0099561399171044 3.2423040289699343 26.4735699380983363 O
atom 7.7583569180166005 3.2423029881785146 28.2219705399988428 O
atom 0.0000079699998065 0.0000007575354970 29.6424912365491551 Pt
atom 3.7152325572825271 1.6211515102349856 30.5166820430992018 O
atom 0.0000068764673390 3.2423040775354970 29.6424900615492533 Pt
atom 3.7152328837501871 4.8634541902349850 30.5166822680991743 O
atom 8.3046668472833787 1.6211519552349776 30.5166912580986676 O
atom 8.3046669137509852 4.8634560952349775 30.5166909230986576 O
