#===============================================================================
# Created using the Atomic Simulation Environment (ASE)

# Mon Mar 23 14:01:20 2026

#=======================================================
lattice_vector 11.1064369649213504 0.0000000000000000 0.0000000000000000 
lattice_vector 0.0000051885324174 9.2039351799990605 0.0000000000000000 
lattice_vector 0.0000000000000000 0.0000000000000000 39.7288719958603309 
atom 7.3094448115385351 4.6019471433012287 15.9504634653439439 Pt
atom 8.6666183950833844 5.7860759762849820 15.0000000000000000 O
atom 0.3367791671112842 5.7188409287875119 15.0000039923222630 O
atom 10.0860162963544102 2.3009785458131944 15.9504569210203684 Pt
atom 8.6666085026726165 1.1840771662860992 15.0000075344111501 O
atom 0.3367920403220889 1.1168652187799286 15.0000227837923781 O
atom 4.5328081859909641 6.9029426808082652 15.9504684803375447 Pt
atom 3.1133900416580533 5.7860635812860286 15.0000092995971812 O
atom 5.8900127325434752 5.7188315937790941 15.0000252505827270 O
atom 3.1133874457369872 1.1841251412868858 15.0000072924848951 O
atom 5.8899994189333569 1.1168733337871055 15.0000020473404874 O
atom 1.7562284359170188 9.2039148783016138 15.9504597535095414 Pt
atom 1.7561938205467198 4.6019577183085438 15.9504739806695994 Pt
atom 7.3094117850863807 9.2039242733081732 15.9504781135488471 Pt
atom 6.3601815128159656 6.9029451941260520 18.5597920050778669 Pt
atom 5.9522319696487109 8.0198079403247533 16.9009491540431895 O
atom 4.9407693104343338 5.7860737346078777 17.6093028178639841 O
atom 7.7173464499395479 5.7188318171180619 17.6092977948989962 O
atom 5.0029770206975543 8.0870574511556139 19.5102331334912051 O
atom 10.9641558921594680 4.6019451099538689 21.1690748859326021 Pt
atom 6.3601760801307536 2.3009814041318757 18.5597684101745628 Pt
atom 5.9522274118202603 3.4178732303260375 16.9009478494379906 O
atom 4.9407487292890933 1.1840976346108079 17.6093168977982728 O
atom 7.7173632252986746 1.1168665871114103 17.6093058937305678 O
atom 5.0029853773591855 3.4850827611501631 19.5102475676250755 O
atom 3.5835460513355821 0.0000094316334191 18.5597907155268445 Pt
atom 10.0860307008601797 6.9029544058058878 15.9504748309723361 Pt
atom 2.2263691942836745 8.0198312886506020 19.5102570549323175 O
atom 1.2148925107829673 5.7860739429376231 20.2186114205886547 O
atom 3.9914902477322136 5.7188388954401539 20.2186154129109212 O
atom 8.7288456802615872 8.0870676128247467 16.9009425253213124 O
atom 3.5835751037220160 4.6019654316284395 18.5597746462986457 Pt
atom 2.6342904120539874 2.3009765124658359 21.1690683416090195 Pt
atom 2.2263738922613321 3.4178747586505720 19.5102487799328870 O
atom 1.2148826183721952 1.1840751329387398 20.2186189549998048 O
atom 3.9915031209430207 1.1168631854325695 20.2186342043810328 O
atom 8.7288479710804658 3.4850819528190740 16.9009671774073631 O
atom 9.1367909579317654 0.0000079166292738 18.5597728022168482 Pt
atom 8.1875192666118934 6.9029406474609054 21.1690799009262065 Pt
atom 7.7796208581106034 8.0198152036450612 19.5102363260953950 O
atom 6.7681011222789875 5.7860615479386697 20.2186207201858359 O
atom 9.5447238131644081 5.7188295604317352 20.2186366711713852 O
atom 3.1756430862341674 8.0870619778174131 16.9009569321714572 O
atom 9.1367614415882077 4.6019743366340196 18.5597936479688741 Pt
atom 4.5328189088575694 2.3009801808019068 15.9504841141364579 Pt
atom 7.7795846056225830 3.4178455636505345 19.5102605752716727 O
atom 6.7680985263579192 1.1841231079395267 20.2186187130735497 O
atom 9.5447104995542880 1.1168713004397464 20.2186134679291456 O
atom 3.1756217532570203 3.4850930678261864 16.9009417501241899 O
atom 5.4109395165379510 9.2039128449542549 21.1690711740981996 Pt
atom 0.8069639263489589 6.9029502291285629 18.5597776126182126 Pt
atom 0.3990302641893171 8.0198162253225274 16.9009356650369291 O
atom 10.4939565216247335 5.7860898696131864 17.6093219160159720 O
atom 2.1641451068602975 5.7188308421111138 17.6093083224160694 O
atom 10.5562099117968682 8.0870609261496682 19.5102425335177507 O
atom 5.4109049011676573 4.6019556849611849 21.1690854012582577 Pt
atom 0.8069593841670519 2.3009791091246674 18.5598032287833945 Pt
atom 0.3990134919437055 3.4178246653248290 16.9009473216750727 O
atom 10.4939716585016978 1.1841312296113931 17.6093072094246779 O
atom 2.1641207127341193 1.1168605621197516 17.6092984095116343 O
atom 10.5561784177817373 3.4850820761585379 19.5102420244732073 O
atom 10.9641228657073100 9.2039222399608143 21.1690895341374983 Pt
atom 10.0148925934368940 6.9029431607786931 23.7784034256665251 Pt
atom 9.6069430502696438 8.0198059069773944 22.1195605746318478 O
atom 8.5954803910552648 5.7860717012605187 22.8279142384526388 O
atom 0.2656205656391268 5.7188297837707038 22.8279092154876473 O
atom 8.6576881013184863 8.0870554178082550 24.7288445540798634 O
atom 10.0148871607516856 2.3009793707845168 23.7783798307632246 Pt
atom 9.6069384924411931 3.4178711969786786 22.1195592700266417 O
atom 8.5954598099100199 1.1840956012634489 22.8279283183869275 O
atom 0.2656373409982533 1.1168645537640516 22.8279173143192295 O
atom 8.6576964579801174 3.4850807278028038 24.7288589882137302 O
atom 7.2382571319565141 0.0000073982860601 23.7784021361155027 Pt
atom 2.6343048165597649 6.9029523724585280 21.1690862515609908 Pt
atom 5.8810802749046038 8.0198292553032431 24.7288684755209722 O
atom 1.2771197959611704 8.0870655794773878 22.1195539459099670 O
atom 7.2382861843429405 4.6019633982810806 23.7783860668873004 Pt
atom 5.8810849728822614 3.4178727253032135 24.7288602005215488 O
atom 1.2771220867800470 3.4850799194717146 22.1195785979960213 O
atom 1.6850650736313455 0.0000058832819149 23.7783842228055029 Pt
atom 0.3278949738101869 8.0198131702977005 24.7288477466840462 O
atom 6.8303541668550967 8.0870599444700542 22.1195683527601119 O
atom 1.6850355572877878 4.6019723032866597 23.7784050685575288 Pt
atom 8.1875299894785005 2.3009781474545474 21.1690955347251091 Pt
atom 0.3278587213221672 3.4178435303031756 24.7288719958603309 O
atom 6.8303328338779501 3.4850910344788271 22.1195531707128410 O
atom 4.4616750069698936 6.9029481957812040 23.7783890332068637 Pt
atom 4.0537413448102466 8.0198141919751684 22.1195470856255874 O
atom 3.0422306373243160 5.7860878362658275 22.8279333366046302 O
atom 5.8188561874812290 5.7188288087637549 22.8279197430047240 O
atom 3.1044840274964516 8.0870588928023093 24.7288539541064054 O
atom 4.4616704647879839 2.3009770757773085 23.7784146493720456 Pt
atom 4.0537245725646374 3.4178226319774700 22.1195587422637310 O
atom 3.0422457742012767 1.1841291962640341 22.8279186300133325 O
atom 5.8188317933550540 1.1168585287723927 22.8279098301002925 O
atom 3.1044525334813193 3.4850800428111786 24.7288534450618585 O
