#===============================================================================
# Created using the Atomic Simulation Environment (ASE)

# Mon Mar 23 14:01:20 2026

#=======================================================
lattice_vector 6.3710923900000003 0.0000000000000000 0.0000000000000000 
lattice_vector -0.0000000000000100 9.0973690600005526 0.0000000000000000 
lattice_vector 0.0000000000000000 0.0000000000000000 34.5347449324969773 
atom 1.5927721768276553 0.6174422322232203 15.0000057300027549 O
atom 0.0000007033216380 4.5487201013948741 16.1168625151396512 Pt
atom 1.5927923168276428 5.1661374022243267 15.0000081149991047 O
atom 3.1855473833216377 0.0000036513951252 16.1168640301507722 Pt
atom 4.7783151568276718 0.6174500722212236 15.0000000000000000 O
atom 4.7782984568276303 5.1661421522255955 15.0000117549973240 O
atom 6.3710860733215755 0.0000335814020413 16.1168838701403203 Pt
atom 1.5927876560983907 2.2743618631834850 18.4178619326454083 Pt
atom 0.0000001696044221 1.6569382640101797 17.3009998327880155 O
atom 0.0000038225923299 2.8917754423601822 19.5347337625061925 O
atom 1.5927547298155302 3.9312690705767102 17.2337493052919513 O
atom 1.5927703760984111 6.8230510831809061 18.4178537376437106 Pt
atom 0.0000020596044936 6.2056239140019658 17.3009754677876231 O
atom 6.3710906325923267 7.4404729823600313 19.5347325375016396 O
atom 1.5927703798155544 8.4799575805737994 17.2337401602906084 O
atom 4.7783090560983785 2.2743662131847162 18.4178654626438103 Pt
atom 3.1855503096044475 1.6569003140072947 17.3009915528012499 O
atom 3.1855463925922933 2.8918018723640753 19.5347449324969773 O
atom 4.7783374898155406 3.9312683005754865 17.2337457952923288 O
atom 3.1855449933215403 4.5486788014055906 16.1168932651540331 Pt
atom 4.7783225760984003 6.8230374031820062 18.4178568976484911 Pt
atom 3.1855449396044424 6.2056013140075681 17.3009915477955047 O
atom 3.1855477225923750 7.4404965423548362 19.5347176274934426 O
atom 4.7783168898155353 8.4799471905757748 17.2337458302942252 O
