#===============================================================================
# Created using the Atomic Simulation Environment (ASE)

# Mon Mar 23 14:01:19 2026

#=======================================================
lattice_vector 9.2039351800005225 0.0000000000000000 0.0000000000000000 
lattice_vector -0.0000000269221396 6.3710923900000003 0.0000000000000000 
lattice_vector 0.0000000000000000 0.0000000000000000 40.3322627576514350 
atom 4.6020026723141489 0.0000022350000670 17.8917645588185010 Pt
atom 2.3009938445656841 1.5927705025000367 15.6174490038267990 Pt
atom 1.1841151583392484 0.0000021812865572 15.0000226000054226 O
atom 3.4178730473292696 6.3710907637135161 16.2348701376480022 O
atom 1.1168814026326355 1.5927705012135105 17.2743563126507169 O
atom 6.9029697045657645 1.5927490575000460 15.6174484038240138 Pt
atom 5.7860716614137608 6.3710919762865457 15.0000118800091471 O
atom 8.0198718842551369 0.0000003587135521 16.2348804376374858 O
atom 5.7188670626362832 1.5927934962135297 17.2743664526446281 O
atom 0.0000056888553951 3.1855475000000339 17.8917722088283924 Pt
atom 2.3009969911000003 4.7783227025000405 15.6174353238257311 Pt
atom 1.1841312248705702 3.1855450612865739 15.0000000000000000 O
atom 3.4178581507982715 3.1855478537135014 16.2348936976530283 O
atom 1.1168870591680653 4.7783170112135158 17.2743459226488056 O
atom 6.9029681111057251 4.7783425675000419 15.6174516138245494 Pt
atom 5.7861227848769925 3.1855464762865995 15.0000182999919289 O
atom 8.0198167907908005 3.1855459787134919 16.2348707376560384 O
atom 5.7188659091762171 4.7783000162135272 17.2743693026450131 O
atom 0.0000255154044155 6.3710861900000548 17.8918021388217170 Pt
atom 2.3010051566176877 1.5927877825000543 20.1661288438232447 Pt
atom 1.1841426403924749 0.0000002912865919 19.5487060099964225 O
atom 3.4178774163006223 0.0000039537135277 20.7835416576467935 O
atom 3.4851177685511900 1.5927545437865811 18.5092227749992801 O
atom 1.1168936646849135 1.5927548512135283 21.8230368626468447 O
atom 6.9029689466141964 1.5927668275000499 20.1661176338245269 Pt
atom 5.7860773234708880 6.3710904862865547 19.5487068700075000 O
atom 8.0198535163085651 0.0000051687135369 20.7835644676439344 O
atom 8.0870829985476540 1.5927722887865778 18.5092115550000784 O
atom 5.7188683546849228 1.5927729562135362 21.8230361726444499 O
atom 0.0000073043808177 0.0000008200000416 22.4404886588281158 Pt
atom 2.3010000786728870 1.5927705025000536 24.7148180638252200 Pt
atom 1.1841213924464515 0.0000021812865736 24.0973916600038365 O
atom 3.4178792814364733 6.3710907637135330 25.3322391976464303 O
atom 3.4851127906052191 1.5927681637865805 23.0579086150012245 O
atom 4.6019864843706726 0.0000028350000542 22.4404577688242171 Pt
atom 6.9029759386729683 1.5927490575000625 24.7148174638224276 Pt
atom 5.7860778955209646 6.3710919762865617 24.0973809400075680 O
atom 8.0198781183623407 0.0000003587135684 25.3322494976359138 O
atom 8.0870885006048177 1.5927924287865889 23.0579067249984888 O
atom 2.3010086731581092 4.7783091825000561 20.1661331938220627 Pt
atom 1.1841343469186185 3.1855504312865826 19.5486680599992155 O
atom 3.4178885728484589 3.1855465237135387 20.7835680876430402 O
atom 3.4851189950904646 4.7783404237865810 18.5092239249988637 O
atom 1.1168901412235444 4.7783376112135247 21.8230360926480245 O
atom 4.6019744488685435 3.1855461550000350 17.8918104688279982 Pt
atom 6.9029711731576935 4.7783296275000504 20.1661312538237780 Pt
atom 5.7861039869328481 3.1855509862865845 19.5487095399985265 O
atom 8.0198270128483351 3.1855448787135074 20.7835669376528500 O
atom 8.0870772550892251 4.7783152687865709 18.5092193950020061 O
atom 5.7188590512260644 4.7783144262135240 21.8230427326475791 O
atom 0.0000380409058414 3.1855451100000747 22.4404473588177638 Pt
atom 2.3010032252072037 4.7783227025000556 24.7148043838241591 Pt
atom 1.1841374589777733 3.1855450612865899 24.0973690599984138 O
atom 3.4178643849054744 3.1855478537135178 25.3322627576514350 O
atom 3.4851218471410079 4.7783191937865901 23.0578993049981591 O
atom 4.6019952009176910 3.1855383950000618 22.4404817488212700 Pt
atom 6.9029743452129289 4.7783425675000588 24.7148206738229703 Pt
atom 5.7861290189841963 3.1855464762866159 24.0973873599903499 O
atom 8.0198230248980025 3.1855459787135079 25.3322397976544522 O
atom 8.0870921271453895 4.7782985687865915 23.0579114749972547 O
