#===============================================================================
# Created using the Atomic Simulation Environment (ASE)

# Mon Mar 23 14:01:23 2026

#=======================================================
lattice_vector 9.1788565200000374 0.0000000000000000 0.0000000000000000 
lattice_vector -0.0000000170647224 6.4846065199999998 0.0000000000000000 
lattice_vector 0.0000000000000000 0.0000000000000000 36.3378369780987924 
atom 0.8742027641831310 1.6211489969134456 15.0000000000000000 O
atom 0.8742029406508016 4.8634558769134459 15.0000003949999936 O
atom 4.5894299629343411 6.4846062825355029 20.4636285215498468 Pt
atom 5.4636335341838569 1.6211516719134360 15.0000078349997779 O
atom 4.5894295464668566 3.2423023525355008 20.4636302165498769 Pt
atom 5.4636332906514742 4.8634531219134365 15.0000075899997967 O
atom 2.2947125307329674 1.6211525735742076 18.1689154415501370 Pt
atom 9.1788562979342476 6.4846052446129212 15.8741989765499945 Pt
atom 3.7152290822827707 1.6211516173123963 16.7484022030996194 O
atom 0.8742017991835810 1.6211519098360179 19.5894332700001108 O
atom 1.4205186134490990 0.0000003339699292 17.2947117880993027 O
atom 3.1689202315482996 0.0000010931785162 19.0431091599997266 O
atom 2.2947135372006571 4.8634553335742075 18.1689159965500373 Pt
atom 0.0000035114664226 3.2423024846129285 15.8741973715496556 Pt
atom 3.7152293387503792 4.8634532573123970 16.7484018480996006 O
atom 0.8742019556512145 4.8634562398360170 19.5894332250001035 O
atom 1.4205074099177328 3.2423042339699002 17.2947228031003100 O
atom 3.1689095380173016 3.2423036331784809 19.0431242350006862 O
atom 6.8841528707338231 1.6211505385742067 18.1689246565490343 Pt
atom 4.5894322979347377 6.4846055896129187 15.8742046515496078 Pt
atom 8.3046662722832920 1.6211511523123974 16.7484077680988115 O
atom 5.4636363791840195 1.6211522448360174 19.5894379149995395 O
atom 6.0099444763858969 6.4846062089699004 17.2947283930995148 O
atom 7.7583453015501060 0.0000008781784823 19.0431289350000092 O
atom 6.8841528672017027 4.8634563185742010 18.1689273915490439 Pt
atom 4.5894335014672407 3.2423019596129166 15.8742062065494984 Pt
atom 8.3046656687510367 4.8634537823123951 16.7484089030988592 O
atom 5.4636356056517750 4.8634535348360144 19.5894391799996122 O
atom 6.0099561399171044 3.2423040289699343 17.2947156580984576 O
atom 7.7583569180166005 3.2423029881785146 19.0431162599989641 O
atom 0.0000079699998065 0.0000007575354970 20.4636369565492764 Pt
atom 3.7152325572825271 1.6211515102349856 21.3378277630993232 O
atom 0.0000068764673390 3.2423040775354970 20.4636357815493746 Pt
atom 3.7152328837501871 4.8634541902349850 21.3378279880992956 O
atom 8.3046668472833787 1.6211519552349776 21.3378369780987889 O
atom 8.3046669137509852 4.8634560952349775 21.3378366430987789 O
