#===============================================================================
# Created using the Atomic Simulation Environment (ASE)

# Mon Mar 23 14:01:23 2026

#=======================================================
lattice_vector 11.2383934762033828 0.0000000000000000 0.0000000000000000 
lattice_vector 0.0000013697273223 9.1788565199999361 0.0000000000000000 
lattice_vector 0.0000000000000000 0.0000000000000000 47.5280228032297245 
atom 0.9387721345509348 2.2947172656440515 15.8196457005306428 Pt
atom 11.0169728808437721 3.7152276103249644 15.0000007873196424 O
atom 2.0989626648823081 0.8741991309629931 16.6392845418433275 O
atom 2.5881754652520450 3.1689191103250951 15.0000000000000000 O
atom 10.3063433730800451 2.2947184612878333 18.4677668526075713 Pt
atom 9.3675713335225286 0.0000021756439200 15.8196492678607079 Pt
atom 9.1461489809566974 3.7152282159688594 17.6481217445922312 O
atom 10.5277670180427023 1.4205093109628364 16.6392949197333948 O
atom 0.7173649266777622 3.1689107359684239 17.6481293926807155 O
atom 0.9387733475931032 6.8841405256440069 15.8196462267219946 Pt
atom 7.4967422792712011 4.5894255412879783 18.4677655183010785 Pt
atom 11.0169808352070859 8.3046619003246800 15.0000064678678449 O
atom 2.0989682054224628 5.4636299009629425 16.6392912474570878 O
atom 2.5881839500113961 7.7583315003247266 15.0000048431257120 O
atom 10.3063422673078922 6.8841406612879066 18.4677663283226536 Pt
atom 9.3675684685565237 4.5894248456439168 15.8196446479516535 Pt
atom 9.1461556355181983 8.3046622459687125 17.6481282944593225 O
atom 10.5277529621802941 6.0099461509633381 16.6392838875062523 O
atom 0.7173494281843231 7.7583464559690922 17.6481194839374815 O
atom 4.6871432900106988 2.2947085112880790 18.4677667607039808 Pt
atom 3.7483692859430398 9.1788524356439805 15.8196419718706753 Pt
atom 3.5269529600603318 3.7152252359688740 17.6481230777338602 O
atom 4.9085579446167795 1.4205145609632983 16.6392859419262429 O
atom 6.3365452048246889 3.1689159659691808 17.6481201700817678 O
atom 6.5579684501208275 2.2947092556440665 15.8196453714149889 Pt
atom 1.8775432682554465 9.1788564312880254 18.4677627553044239 Pt
atom 5.3977780231816208 3.7152252303247963 15.0000002486208999 O
atom 7.7181620677175271 0.8741975009631415 16.6392913157968003 O
atom 8.2073823509511641 3.1689050103246936 15.0000069792195205 O
atom 3.7483730370169992 4.5894284356438639 15.8196455281480386 Pt
atom 3.5269584583943359 8.3046624259686244 17.6481259089804290 O
atom 4.9085725636290372 6.0099404409626889 16.6392949962925982 O
atom 6.3365621647931301 7.7583410359685079 17.6481314047517905 O
atom 6.5579778733968501 6.8841485856437590 15.8196527508733311 Pt
atom 1.8775501022242311 4.5894299012877342 18.4677674243524770 Pt
atom 5.3977841672246107 8.3046615603245844 15.0000047481779788 O
atom 7.7181691770708332 5.4636311509626916 16.6392925425760545 O
atom 8.2073768944765799 7.7583523903248555 15.0000018508077773 O
atom 8.4355167741212416 2.2947178069319554 21.1158883028430182 Pt
atom 7.4967479094967739 0.0000035312878298 18.4677711979929811 Pt
atom 7.2753240442106941 3.7152281516128678 20.2962433896320178 O
atom 9.5957073044526187 0.8741996722508966 21.9355271441556994 O
atom 8.6569352772442105 1.4205241166069975 19.2874096274779490 O
atom 10.0849201048223538 3.1689196516129980 20.2962426023123754 O
atom 6.5646945364469698 2.2947190025757362 23.7640094549199503 Pt
atom 5.6259224968894506 0.0000027169318237 21.1158918701730798 Pt
atom 5.4045001443236256 3.7152287572567628 22.9443643469046066 O
atom 0.2281364804211637 0.8741995866072403 19.2874090275180201 O
atom 6.7861181814096287 1.4205098522507400 21.9355375220457702 O
atom 8.2141095662480677 3.1689112772563273 22.9443719949930909 O
atom 8.4355179871634096 6.8841410669319112 21.1158888290343718 Pt
atom 3.7550934426381279 4.5894260825758817 23.7640081206134539 Pt
atom 7.2753319985740088 8.3046624416125816 20.2962490701802203 O
atom 9.5957128449927698 5.4636304422508477 21.9355338497694632 O
atom 8.6569392220562804 6.0099361966069083 19.2874132712376181 O
atom 10.0849285895817040 7.7583320416126309 20.2962474454380875 O
atom 6.5646934306748133 6.8841412025758100 23.7640089306350291 Pt
atom 5.6259196319234492 4.5894253869318202 21.1158872502640307 Pt
atom 5.4045067988851230 8.3046627872566159 22.9443708967717015 O
atom 0.2281446313830302 5.4636299366067487 19.2874109289463007 O
atom 6.7861041255472170 6.0099466922512423 21.9355264898186277 O
atom 8.2140940677546315 7.7583469972569956 22.9443620862498605 O
atom 0.9454944533776259 2.2947090525759823 23.7640093630163562 Pt
atom 0.0067204493099650 9.1788529769318856 21.1158845741830490 Pt
atom 11.0236975996306388 3.7152257772567774 22.9443656800462392 O
atom 5.8473383035494093 0.8741976066070009 19.2874117690055726 O
atom 1.1669091079837060 1.4205151022512019 21.9355285442386219 O
atom 2.5948963681916184 3.1689165072570842 22.9443627723941432 O
atom 2.8163196134877495 2.2947097969319699 21.1158879737273608 Pt
atom 9.3742865380984259 0.0000004525759907 23.7640053576168029 Pt
atom 1.6561291865485464 3.7152257716126997 20.2962428509332753 O
atom 3.9765132310844518 0.8741980422510450 21.9355339181091793 O
atom 3.0377421534160849 1.4205036366069579 19.2874141215045327 O
atom 4.4657335143180923 3.1689055516125970 20.2962495815318960 O
atom 4.6871526753462680 6.8841488512875841 18.4677704157347264 Pt
atom 0.0067242003839250 4.5894289769317673 21.1158881304604122 Pt
atom 11.0237030979646402 8.3046629672565295 22.9443685112928044 O
atom 5.8473425888778836 5.4636321866068513 19.2874147228005235 O
atom 1.1669237269959625 6.0099409822505923 21.9355375986049772 O
atom 2.5949133281600560 7.7583415772564113 22.9443740070641695 O
atom 2.8163290367637788 6.8841491269316624 21.1158953531857065 Pt
atom 9.3742947417945377 4.5894304425756376 23.7640100266648560 Pt
atom 1.6561353305915347 8.3046621016124877 20.2962473504903542 O
atom 3.9765203404377583 5.4636316922505959 21.9355351448884299 O
atom 3.0377371209543593 6.0099523666071315 19.2874098313726172 O
atom 4.4657280578435063 7.7583529316127606 20.2962444531201527 O
atom 4.6938679374881636 2.2947183482198588 26.4121309051553972 Pt
atom 3.7550990728637035 0.0000040725757334 23.7640138003053600 Pt
atom 3.5336752075776254 3.7152286929007716 25.5924859919443932 O
atom 5.8540584678195442 0.8742002135388004 27.2317697464680784 O
atom 4.9152864406111343 1.4205246578949009 24.5836522297903244 O
atom 6.3432712681892784 3.1689201929009023 25.5924852046247508 O
atom 2.8230456998138962 2.2947195438636405 29.0602520572323222 Pt
atom 1.8842736602563805 0.0000032582197273 26.4121344724854623 Pt
atom 1.6628513076905478 3.7152292985446667 28.2406069492169820 O
atom 7.7248811199914726 0.8742001278951440 24.5836516298303991 O
atom 3.0444693447765521 1.4205103935386432 27.2317801243581457 O
atom 4.4724607296149985 3.1689118185442311 28.2406145973054734 O
atom 4.6938691505303369 6.8841416082198128 26.4121314313467437 Pt
atom 0.0134446060050544 4.5894266238637851 29.0602507229258293 Pt
atom 3.5336831619409370 8.3046629829004885 25.5924916724925957 O
atom 5.8540640083596989 5.4636309835387502 27.2317764520818386 O
atom 4.9152903854232095 6.0099367378948108 24.5836558735499970 O
atom 6.3432797529486304 7.7583325829005334 25.5924900477504664 O
atom 2.8230445940417472 6.8841417438637134 29.0602515329474116 Pt
atom 1.8842707952903779 4.5894259282197236 26.4121298525764061 Pt
atom 1.6628579622520514 8.3046633285445211 28.2406134990840769 O
atom 7.7248892709533372 5.4636304778946529 24.5836535312586761 O
atom 3.0444552889141443 6.0099472335391448 27.2317690921310032 O
atom 4.4724452311215561 7.7583475385448990 28.2406046885622359 O
atom 8.4422390929479274 2.2947095938638862 29.0602519653287281 Pt
atom 7.5034650888802741 9.1788535182197890 26.4121271764954280 Pt
atom 7.2820487629975625 3.7152263185446812 28.2406082823586146 O
atom 2.1056894669163331 0.8741981478949045 24.5836543713179516 O
atom 8.6636537475540116 1.4205156435391053 27.2317711465509902 O
atom 10.0916410077619201 3.1689170485449880 28.2406053747065187 O
atom 10.3130642530580623 2.2947103382198737 26.4121305760397433 Pt
atom 5.6326377014653524 0.0000009938638964 29.0602479599291783 Pt
atom 9.1528738261188565 3.7152263129006036 25.5924854532456507 O
atom 0.2348643944513808 0.8741985835389486 27.2317765204215547 O
atom 10.5344867929863923 1.4205041778948613 24.5836567238169081 O
atom 0.7240846776850161 3.1689060929005013 25.5924921838442714 O
atom 0.9455038387131947 6.8841493925754866 23.7640130180471054 Pt
atom 7.5034688399542322 4.5894295182196707 26.4121307327727912 Pt
atom 7.2820542613315666 8.3046635085444329 28.2406111136051763 O
atom 2.1056937522448078 5.4636327278947547 24.5836573251129025 O
atom 8.6636683665662719 6.0099415235384956 27.2317802009173526 O
atom 10.0916579677303577 7.7583421185443147 28.2406166093765414 O
atom 10.3130736763340867 6.8841496682195658 26.4121379554980855 Pt
atom 5.6326459051614695 4.5894309838635410 29.0602526289772314 Pt
atom 9.1528799701618446 8.3046626429003929 25.5924899528027296 O
atom 0.2348715038046872 5.4636322335384984 27.2317777472008089 O
atom 10.5344817605246668 6.0099529078950349 24.5836524336849962 O
atom 0.7240792212104331 7.7583534729006631 25.5924870554325281 O
atom 0.9522191008550924 2.2947188895077621 31.7083735074677726 Pt
atom 0.0134502362306228 0.0000046138636370 29.0602564026177355 Pt
atom 11.0304198471479324 3.7152292341886750 30.8887285942567722 O
atom 2.1124096311864733 0.8742007548267039 32.5280123487804502 O
atom 1.1736376039780614 1.4205251991828045 29.8798948321027069 O
atom 2.6016224315561973 3.1689207341888057 30.8887278069371298 O
atom 9.3810182998266818 0.0000037995076309 31.7083770747978377 Pt
atom 3.9832322833584000 0.8742006691830474 29.8798942321427745 O
atom 10.5412139843468644 1.4205109348265470 32.5280227266705140 O
atom 0.9522203138972659 6.8841421495077180 31.7083740336591262 Pt
atom 11.0304278015112391 8.3046635241883902 30.8887342748049711 O
atom 2.1124151717266177 5.4636315248266545 32.5280190543942211 O
atom 1.1736415487901337 6.0099372791827159 29.8798984758623689 O
atom 2.6016309163155587 7.7583331241884377 30.8887326500628383 O
atom 9.3810154348606805 4.5894264695076270 31.7083724548887815 Pt
atom 3.9832404343202636 5.4636310191825554 29.8798961335710551 O
atom 10.5411999284844562 6.0099477748270491 32.5280116944433786 O
atom 3.7618162522471987 9.1788540595076924 31.7083697788078034 Pt
atom 9.6024341064866459 0.8741986891828081 29.8798969736303306 O
atom 4.9220049109209425 1.4205161848270089 32.5280137488633656 O
atom 6.5714154164249887 2.2947108795077771 31.7083731783521152 Pt
atom 5.4112249894857802 3.7152268541885070 30.8887280555580297 O
atom 7.7316090340216883 0.8741991248268524 32.5280191227339301 O
atom 6.7928379563533161 1.4205047191827649 29.8798993261292907 O
atom 8.2208293172553226 3.1689066341884047 30.8887347861566539 O
atom 8.4422484782835063 6.8841499338633909 29.0602556203594808 Pt
atom 3.7618200033211586 4.5894300595075741 31.7083733350851666 Pt
atom 9.6024383918151202 5.4636332691826590 29.8798999274252779 O
atom 4.9220195299331939 6.0099420648263990 32.5280228032297245 O
atom 6.5714248397010122 6.8841502095074691 31.7083805578104538 Pt
atom 5.4112311335287684 8.3046631841882963 30.8887325551151086 O
atom 7.7316161433749899 5.4636327748264026 32.5280203495131843 O
atom 6.7928329238915879 6.0099534491829383 29.8798950359973681 O
atom 8.2208238607807402 7.7583540141885674 30.8887296577449035 O
