#===============================================================================
# Created using the Atomic Simulation Environment (ASE)

# Mon Mar 23 14:01:23 2026

#=======================================================
lattice_vector 9.1788565200000374 0.0000000000000000 0.0000000000000000 
lattice_vector -0.0000000170647224 6.4846065199999998 0.0000000000000000 
lattice_vector 0.0000000000000000 0.0000000000000000 31.7484037530986853 
atom 4.5894299629343411 6.4846062825355029 15.8741952965497433 Pt
atom 4.5894295464668566 3.2423023525355008 15.8741969915497734 Pt
atom 0.8742017991835810 1.6211519098360179 15.0000000450000073 O
atom 0.8742019556512145 4.8634562398360170 15.0000000000000000 O
atom 5.4636363791840195 1.6211522448360174 15.0000046899994359 O
atom 5.4636356056517750 4.8634535348360144 15.0000059549995086 O
atom 0.0000079699998065 0.0000007575354970 15.8742037315491729 Pt
atom 3.7152325572825271 1.6211515102349856 16.7483945380992196 O
atom 0.0000068764673390 3.2423040775354970 15.8742025565492710 Pt
atom 3.7152328837501871 4.8634541902349850 16.7483947630991921 O
atom 8.3046668472833787 1.6211519552349776 16.7484037530986853 O
atom 8.3046669137509852 4.8634560952349775 16.7484034180986754 O
