#===============================================================================
# Created using the Atomic Simulation Environment (ASE)

# Mon Mar 23 14:01:22 2026

#=======================================================
lattice_vector 9.1788542800000368 0.0000000000000000 0.0000000000000000 
lattice_vector 0.0000016600002026 9.1788565199998882 0.0000000000000000 
lattice_vector 0.0000000000000000 0.0000000000000000 34.8634576000000322 
atom 1.4205122372569963 1.4205234403556990 15.0000006680952076 O
atom 9.1788512138056717 4.5894249488061334 15.0000010500000016 Pt
atom 4.5894224988056571 9.1788521138062986 15.0000000000000000 Pt
atom 4.5894273438059390 4.5894281138058375 15.0000003450000108 Pt
atom 6.0099513422560626 6.0099400353546359 15.0000009680952076 O
atom 2.2947116645399652 2.2947169395398386 16.6211533800000133 Pt
atom 0.0000045388060970 0.0000029388054260 15.0000020450000200 Pt
atom 0.8741960129899407 3.7152273679902983 16.6211528000000044 O
atom 3.7152220160892901 0.8741987210898620 16.6211502700000047 O
atom 3.1689072153560600 3.1689188722566888 15.0000018119048200 O
atom 2.2947133510076885 2.2947178560073263 19.8634552600000127 Pt
atom 0.0000033552736368 0.0000018452731725 18.2423053650000178 Pt
atom 0.8741962294576098 3.7152276944579183 19.8634554800000096 O
atom 3.7152224025569405 0.8741988975574626 19.8634571500000057 O
atom 1.4205220137233183 1.4205088968224537 18.2423050880952040 O
atom 3.1689232118229169 3.1689102187228833 18.2423036719048319 O
atom 2.2947132295396142 6.8841401995397158 16.6211535050000094 Pt
atom 0.8742060579905870 8.3046616579894081 16.6211532450000234 O
atom 3.7152306810896158 5.4636294910890948 16.6211529450000164 O
atom 1.4205178322556331 6.0099355203552101 15.0000017630951952 O
atom 3.1689172103547261 7.7583312622558038 15.0000012669048175 O
atom 2.2947124160072407 6.8841400560074293 19.8634558650000095 Pt
atom 9.1788529002732719 4.5894245152736222 18.2423036400000065 Pt
atom 0.8742057144582306 8.3046617244570733 19.8634573850000216 O
atom 3.7152304275572345 5.4636292475567592 19.8634543950000158 O
atom 1.4205044387241961 6.0099457368240605 18.2423045830951942 O
atom 3.1689051068236913 7.7583459387245393 18.2423049169048177 O
atom 6.8841377145391691 2.2947079145399361 16.6211538550000029 Pt
atom 5.4636247329897207 3.7152247229901545 16.6211528950000051 O
atom 8.3046552860891438 0.8741969260893044 16.6211531950000087 O
atom 6.0099339072561744 1.4205141553561931 15.0000016130951934 O
atom 7.7583315953557692 3.1689154572569382 15.0000023769048170 O
atom 6.8841382610068989 2.2947089210075271 19.8634566150000005 Pt
atom 4.5894208852736318 9.1788558302740793 18.2423037600000022 Pt
atom 5.4636243694573841 3.7152249794578287 19.8634545350000060 O
atom 8.3046552325567937 0.8741970825569477 19.8634575250000047 O
atom 6.0099449137228005 1.4205029518228369 18.2423055130951894 O
atom 7.7583466618224417 3.1689047637232157 18.2423049169048213 O
atom 6.8841477595403644 6.8841482545390491 16.6211518200000228 Pt
atom 5.4636311279906300 8.3046619129895891 16.6211524300000200 O
atom 8.3046607610898135 5.4636315060888299 16.6211535300000222 O
atom 7.7583522003555840 7.7583405272550934 15.0000021619048312 O
atom 6.8841504860079992 6.8841482510064385 19.8634576000000287 Pt
atom 4.5894288902736875 4.5894293002733386 18.2423032350000121 Pt
atom 5.4636322544582141 8.3046613094571331 19.8634550600000246 O
atom 8.3046620175573853 5.4636307325563553 19.8634548200000189 O
atom 6.0099385987247524 6.0099516818234244 18.2423053080952045 O
atom 7.7583395168242744 7.7583521437238820 18.2423042719048318 O
