#===============================================================================
# Created using the Atomic Simulation Environment (ASE)

# Mon Mar 23 14:01:22 2026

#=======================================================
lattice_vector 9.1788542800000368 0.0000000000000000 0.0000000000000000 
lattice_vector 0.0000016600002026 9.1788565199998882 0.0000000000000000 
lattice_vector 0.0000000000000000 0.0000000000000000 38.1057608850000165 
atom 1.4205122372569963 1.4205234403556990 18.2423039530951954 O
atom 2.2947133680724123 2.2947178730720461 16.6211520250000042 Pt
atom 0.0000033723383609 0.0000018623378919 15.0000021300000057 Pt
atom 0.8741962465223339 3.7152277115226373 16.6211522449999975 O
atom 3.7152224196216648 0.8741989146221819 16.6211539149999936 O
atom 1.4205220307880424 1.4205089138871727 15.0000018530951920 O
atom 3.1689232288876412 3.1689102357876031 15.0000004369048199 O
atom 9.1788512138056717 4.5894249488061334 18.2423043349999894 Pt
atom 2.2947124330719655 6.8841400730721496 16.6211526299999939 Pt
atom 9.1788529173379949 4.5894245323383407 15.0000004049999944 Pt
atom 0.8742057315229548 8.3046617415217945 16.6211541500000095 O
atom 3.7152304446219584 5.4636292646214777 16.6211511600000037 O
atom 1.4205044557889202 6.0099457538887799 15.0000013480951822 O
atom 3.1689051238884156 7.7583459557892578 15.0000016819048057 O
atom 4.5894224988056571 9.1788521138062986 18.2423032849999878 Pt
atom 6.8841382780716236 2.2947089380722465 16.6211533799999884 Pt
atom 4.5894209023383556 9.1788558473388004 15.0000005249999901 Pt
atom 5.4636243865221088 3.7152249965225481 16.6211512999999940 O
atom 8.3046552496215185 0.8741970996216671 16.6211542899999962 O
atom 6.0099449307875252 1.4205029688875559 15.0000022780951774 O
atom 7.7583466788871664 3.1689047807879351 15.0000016819048092 O
atom 4.5894273438059390 4.5894281138058375 18.2423036299999985 Pt
atom 6.0099513422560626 6.0099400353546359 18.2423042530951953 O
atom 6.8841505030727230 6.8841482680711579 16.6211543650000166 Pt
atom 4.5894289073384105 4.5894293173380580 15.0000000000000000 Pt
atom 5.4636322715229380 8.3046613265218525 16.6211518250000090 O
atom 8.3046620346221083 5.4636307496210748 16.6211515850000069 O
atom 6.0099386157894763 6.0099516988881447 15.0000020730951924 O
atom 7.7583395338889973 7.7583521607886015 15.0000010369048198 O
atom 2.2947116645399652 2.2947169395398386 19.8634566650000011 Pt
atom 0.0000045388060970 0.0000029388054260 18.2423053300000078 Pt
atom 0.8741960129899407 3.7152273679902983 19.8634560849999922 O
atom 3.7152220160892901 0.8741987210898620 19.8634535549999924 O
atom 3.1689072153560600 3.1689188722566888 18.2423050969048077 O
atom 2.2947133510076885 2.2947178560073263 23.1057585450000005 Pt
atom 0.0000033552736368 0.0000018452731725 21.4846086500000055 Pt
atom 0.8741962294576098 3.7152276944579183 23.1057587649999974 O
atom 3.7152224025569405 0.8741988975574626 23.1057604349999934 O
atom 1.4205220137233183 1.4205088968224537 21.4846083730951918 O
atom 3.1689232118229169 3.1689102187228833 21.4846069569048197 O
atom 2.2947132295396142 6.8841401995397158 19.8634567899999972 Pt
atom 0.8742060579905870 8.3046616579894081 19.8634565300000112 O
atom 3.7152306810896158 5.4636294910890948 19.8634562300000042 O
atom 1.4205178322556331 6.0099355203552101 18.2423050480951829 O
atom 3.1689172103547261 7.7583312622558038 18.2423045519048053 O
atom 2.2947124160072407 6.8841400560074293 23.1057591499999972 Pt
atom 9.1788529002732719 4.5894245152736222 21.4846069249999942 Pt
atom 0.8742057144582306 8.3046617244570733 23.1057606700000093 O
atom 3.7152304275572345 5.4636292475567592 23.1057576800000035 O
atom 1.4205044387241961 6.0099457368240605 21.4846078680951820 O
atom 3.1689051068236913 7.7583459387245393 21.4846082019048055 O
atom 6.8841377145391691 2.2947079145399361 19.8634571399999906 Pt
atom 5.4636247329897207 3.7152247229901545 19.8634561799999929 O
atom 8.3046552860891438 0.8741969260893044 19.8634564799999964 O
atom 6.0099339072561744 1.4205141553561931 18.2423048980951812 O
atom 7.7583315953557692 3.1689154572569382 18.2423056619048047 O
atom 6.8841382610068989 2.2947089210075271 23.1057598999999882 Pt
atom 4.5894208852736318 9.1788558302740793 21.4846070449999900 Pt
atom 5.4636243694573841 3.7152249794578287 23.1057578199999938 O
atom 8.3046552325567937 0.8741970825569477 23.1057608099999925 O
atom 6.0099449137228005 1.4205029518228369 21.4846087980951772 O
atom 7.7583466618224417 3.1689047637232157 21.4846082019048090 O
atom 6.8841477595403644 6.8841482545390491 19.8634551050000105 Pt
atom 5.4636311279906300 8.3046619129895891 19.8634557150000077 O
atom 8.3046607610898135 5.4636315060888299 19.8634568150000099 O
atom 7.7583522003555840 7.7583405272550934 18.2423054469048189 O
atom 6.8841504860079992 6.8841482510064385 23.1057608850000165 Pt
atom 4.5894288902736875 4.5894293002733386 21.4846065199999998 Pt
atom 5.4636322544582141 8.3046613094571331 23.1057583450000124 O
atom 8.3046620175573853 5.4636307325563553 23.1057581050000067 O
atom 6.0099385987247524 6.0099516818234244 21.4846085930951922 O
atom 7.7583395168242744 7.7583521437238820 21.4846075569048196 O
