#===============================================================================
# Created using the Atomic Simulation Environment (ASE)

# Mon Mar 23 14:01:24 2026

#=======================================================
lattice_vector 12.9808606199443606 0.0000000000000000 0.0000000000000000 
lattice_vector -0.0000000000000017 6.4846065199999998 0.0000000000000000 
lattice_vector 0.0000000000000000 0.0000000000000000 42.2082535335246547 
atom 6.4904243066353438 4.8634543912322590 16.2363038592727520 Pt
atom 4.4815154999399907 4.8634549712322492 16.2362997392013781 O
atom 8.4993348740277064 4.8634575012322481 16.2362987233165654 O
atom 6.4904203774820894 0.0000005785360388 15.0000033587551087 O
atom 6.4904195313037327 6.4846059639284874 17.4726075700541159 O
atom 6.4904248511073392 1.6211525112322644 16.2363057118925802 Pt
atom 4.4815154221582025 1.6211522912322505 16.2363001351811640 O
atom 8.4993350225200803 1.6211506212322495 16.2362991334385285 O
atom 6.4904375743194151 3.2423026785360305 15.0000000000000000 O
atom 6.4904369614852531 3.2423041039284985 17.4726127743621511 O
atom 3.2452124149473436 4.8634542783096721 19.4815165853474497 Pt
atom 3.2452123654502407 0.0000002012322480 16.2362984110153938 Pt
atom 3.2452192408888436 6.4846060156134415 18.2452110290176321 O
atom 3.2452119411858820 1.6211519183096714 19.4815159206670145 Pt
atom 3.2452138645165061 3.2423041312322485 16.2362993090411862 Pt
atom 3.2452025460980143 3.2423031956134363 18.2452087945581667 O
atom 9.7356442805549506 4.8634539283096636 19.4815124487729676 Pt
atom 9.7356417491128351 0.0000012512322424 16.2362959361415449 Pt
atom 7.7267328504926596 4.8634548883096684 19.4815147280176433 O
atom 11.7445548408749989 4.8634545883096738 19.4815175305097732 O
atom 9.7356374381221489 6.4846061656134362 18.2452086672795062 O
atom 9.7356439552856955 1.6211511683096658 19.4815135589305726 Pt
atom 9.7356379802335109 3.2423040112322457 16.2362974352074616 Pt
atom 7.7267324120864638 1.6211532483096682 19.4815146643779755 O
atom 11.7445546923825610 1.6211502583096746 19.4815176153625700 O
atom 9.7356531429637805 3.2423022656134357 18.2452085400022028 O
atom 12.9808582016379344 4.8634559512322770 16.2363117647270059 Pt
atom 6.4904268027223200 0.0000009183096771 19.4815187031321599 Pt
atom 10.9719464180228510 4.8634553412322701 16.2363092356455212 O
atom 2.0089089834715863 4.8634542412322714 16.2363095420508685 O
atom 0.0000061895445640 0.0000002785360382 15.0000029839904876 O
atom 0.0000059231928218 6.4846056139285047 17.4726149310377536 O
atom 12.9808601320392167 1.6211501712322813 16.2363137021998192 Pt
atom 10.9719476413175343 1.6211527112322717 16.2363096174833288 O
atom 2.0089104188983082 1.6211529512322727 16.2363098956044283 O
atom 12.9808495631546226 3.2423024585360363 15.0000022203130570 O
atom 12.9808493604424928 3.2423035039285009 17.4726141885735302 O
atom 12.9808530326881861 4.8634544153870980 22.7267353430419909 Pt
atom 12.9808585834758894 6.4846057383096891 19.4815245367632848 Pt
atom 10.9719442259928393 4.8634549953870883 22.7267312229706206 O
atom 2.0089029801361975 4.8634575253870871 22.7267302070858115 O
atom 12.9808491035349380 0.0000006026908780 21.4904348425243512 O
atom 12.9808482573565787 6.4846059880833256 23.9630390538233655 O
atom 12.9808535771601878 1.6211525353871035 22.7267371956618298 Pt
atom 12.9808585198364845 3.2423024183096860 19.4815229387019535 Pt
atom 10.9719441482110494 1.6211523153870899 22.7267316189504065 O
atom 2.0089031286285688 1.6211506453870892 22.7267306172077710 O
atom 0.0000056804279011 3.2423027026908695 21.4904314837692425 O
atom 0.0000050675937362 3.2423041280833371 23.9630442581313936 O
atom 9.7356411410001904 4.8634543024645112 25.9719480691166922 Pt
atom 9.7356410915030835 0.0000002253870872 22.7267298947846363 Pt
atom 1.2363018051280192 4.8634545383096937 19.4815262609291580 O
atom 5.2541226924246640 4.8634548383096838 19.4815217802213070 O
atom 9.7356479669416967 6.4846060397682805 24.7356425127868782 O
atom 3.2452212867768186 0.0000000010058959 20.7178185707899267 O
atom 9.7356406672387319 1.6211519424645104 25.9719474044362570 Pt
atom 9.7356425905693538 3.2423041553870875 22.7267307928104323 Pt
atom 1.2363015152142633 1.6211503983096931 19.4815260770813552 O
atom 5.2541226853536402 1.6211533883096834 19.4815214408100452 O
atom 9.7356312721508615 3.2423032197682753 24.7356402783274092 O
atom 3.2452023504569931 3.2423028710059003 20.7178204021941852 O
atom 3.2452123866634390 4.8634539524645026 25.9719439325422172 Pt
atom 3.2452098552213231 0.0000012753870815 22.7267274199107909 Pt
atom 1.2363009566011534 4.8634549124645066 25.9719462117868858 O
atom 5.2541229469834860 4.8634546124645128 25.9719490142790193 O
atom 3.2452055442306378 6.4846061897682752 24.7356401510487522 O
atom 9.7356343574856243 6.4846054110058962 20.7178189455544199 O
atom 3.2452120613941808 1.6211511924645048 25.9719450426998151 Pt
atom 3.2452060863419989 3.2423040353870847 22.7267289189767112 Pt
atom 1.2363005181949520 1.6211532724645077 25.9719461481472251 O
atom 5.2541227984910481 1.6211502824645141 25.9719490991318196 O
atom 3.2452212490722654 3.2423022897682747 24.7356400237714524 O
atom 9.7356525725559315 3.2423028710059034 20.7178220497554122 O
atom 6.4904263077464206 4.8634559753871169 22.7267432484962448 Pt
atom 12.9808555287751641 0.0000009424645163 25.9719501869014024 Pt
atom 4.4815145241313346 4.8634553653871091 22.7267407194147708 O
atom 8.4993377095244327 4.8634542653871105 22.7267410258201075 O
atom 6.4904349155974135 0.0000003026908773 21.4904344677597301 O
atom 6.4904346492456737 6.4846056380833428 23.9630464148069926 O
atom 6.4904282381477012 1.6211501953871208 22.7267451859690652 Pt
atom 6.4904270572805220 3.2423045483096815 19.4815206476758362 Pt
atom 4.4815157474260205 1.6211527353871111 22.7267411012525784 O
atom 8.4993391449511577 1.6211529753871119 22.7267413793736743 O
atom 6.4904176692631115 3.2423024826908753 21.4904337040822995 O
atom 6.4904174665509791 3.2423035280833394 23.9630456723427763 O
atom 6.4904266895843783 6.4846057624645281 25.9719560205325308 Pt
atom 6.4904266259449637 3.2423024424645250 25.9719544224711996 Pt
atom 7.7267305311808663 4.8634545624645327 25.9719577446984005 O
atom 11.7445514184775099 4.8634548624645229 25.9719532639905566 O
atom 9.7356500128296677 0.0000000251607347 27.2082500545591728 O
atom 7.7267302412671102 1.6211504224645321 25.9719575608505977 O
atom 11.7445514114064871 1.6211534124645226 25.9719529245792984 O
atom 9.7356310765098453 3.2423028951607389 27.2082518859634277 O
atom 3.2452024635941110 6.4846054351607352 27.2082504293236696 O
atom 3.2452206786644195 3.2423028951607424 27.2082535335246547 O
atom 12.9808557833333698 3.2423045724645210 25.9719521314450787 Pt
