#===============================================================================
# Created using the Atomic Simulation Environment (ASE)

# Mon Mar 23 14:01:22 2026

#=======================================================
lattice_vector 9.1788542800000368 0.0000000000000000 0.0000000000000000 
lattice_vector 0.0000016600002026 9.1788565199998882 0.0000000000000000 
lattice_vector 0.0000000000000000 0.0000000000000000 31.6211543650000166 
atom 2.2947133510076885 2.2947178560073263 16.6211520250000007 Pt
atom 0.0000033552736368 0.0000018452731725 15.0000021300000057 Pt
atom 0.8741962294576098 3.7152276944579183 16.6211522449999975 O
atom 3.7152224025569405 0.8741988975574626 16.6211539149999936 O
atom 1.4205220137233183 1.4205088968224537 15.0000018530951920 O
atom 3.1689232118229169 3.1689102187228833 15.0000004369048199 O
atom 2.2947124160072407 6.8841400560074293 16.6211526299999974 Pt
atom 9.1788529002732719 4.5894245152736222 15.0000004049999944 Pt
atom 0.8742057144582306 8.3046617244570733 16.6211541500000095 O
atom 3.7152304275572345 5.4636292475567592 16.6211511600000037 O
atom 1.4205044387241961 6.0099457368240605 15.0000013480951822 O
atom 3.1689051068236913 7.7583459387245393 15.0000016819048057 O
atom 6.8841382610068989 2.2947089210075271 16.6211533799999884 Pt
atom 4.5894208852736318 9.1788558302740793 15.0000005249999901 Pt
atom 5.4636243694573841 3.7152249794578287 16.6211512999999940 O
atom 8.3046552325567937 0.8741970825569477 16.6211542899999927 O
atom 6.0099449137228005 1.4205029518228369 15.0000022780951774 O
atom 7.7583466618224417 3.1689047637232157 15.0000016819048092 O
atom 6.8841504860079992 6.8841482510064385 16.6211543650000166 Pt
atom 4.5894288902736875 4.5894293002733386 15.0000000000000000 Pt
atom 5.4636322544582141 8.3046613094571331 16.6211518250000125 O
atom 8.3046620175573853 5.4636307325563553 16.6211515850000069 O
atom 6.0099385987247524 6.0099516818234244 15.0000020730951924 O
atom 7.7583395168242744 7.7583521437238820 15.0000010369048198 O
