#===============================================================================
# Created using the Atomic Simulation Environment (ASE)

# Mon Mar 23 14:01:18 2026

#=======================================================
lattice_vector 9.0973690600005526 0.0000000000000000 0.0000000000000000 
lattice_vector 0.0000063071332193 9.2039351799983606 0.0000000000000000 
lattice_vector 0.0000000000000000 0.0000000000000000 31.5928041724999922 
atom 9.0973600971292150 9.2039220857761901 15.0000091049999789 Pt
atom 2.2743472917850327 2.3009883315403759 16.5927707874999975 Pt
atom 1.6568813926076122 1.1841144284282958 15.0000120362865239 O
atom 2.8917829509643940 3.4178678081240350 15.0000081287134783 O
atom 0.6174388343914005 3.4850997888941264 16.5928020287865188 O
atom 3.9312493791758030 1.1168686641887786 16.5927992162134608 O
atom 0.0000261435624631 4.6019556657636800 15.0000077599999813 Pt
atom 2.2743485053498675 6.9029508315402088 16.5927912324999873 Pt
atom 1.6569260261749366 5.7860840684130208 15.0000125912865272 O
atom 2.8917849545208463 8.0198062481236168 15.0000064837134488 O
atom 0.6174374579547590 8.0870580488949120 16.5927768737865158 O
atom 3.9312591727428732 5.7188375741856703 16.5927760312134644 O
atom 4.5486598800059079 0.0000161407811020 15.0000067150000120 Pt
atom 6.8230184817823245 2.3009797665450087 16.5927843074999863 Pt
atom 6.2055823926078864 1.1841144234225629 15.0000066662865237 O
atom 7.4404776209551544 3.4178405031204999 15.0000094587134463 O
atom 5.1661142143915848 3.4850995238973379 16.5927807987865243 O
atom 8.4799282691760922 1.1168686991907664 16.5927786162134616 O
atom 4.5486974235688828 4.6019733007683064 15.0000000000000000 Pt
atom 6.8230379253501638 6.9029508865384903 16.5928041724999922 Pt
atom 6.2056038461828482 5.7861059834153643 15.0000080812865448 O
atom 7.4404578145186457 8.0197991431276829 15.0000075837134368 O
atom 5.1661295379591312 8.0870698038922981 16.5927601737865267 O
atom 8.4799548027466258 5.7188475491818167 16.5927616212134730 O
