#===============================================================================
# Created using the Atomic Simulation Environment (ASE)

# Mon Mar 23 14:01:24 2026

#=======================================================
lattice_vector 12.9808606199443606 0.0000000000000000 0.0000000000000000 
lattice_vector -0.0000000000000017 6.4846065199999998 0.0000000000000000 
lattice_vector 0.0000000000000000 0.0000000000000000 32.4726135097532023 
atom 9.7356411410001904 4.8634543024645112 16.2363080453452397 Pt
atom 9.7356479669416967 6.4846060397682805 15.0000024890154258 O
atom 9.7356406672387319 1.6211519424645104 16.2363073806648046 Pt
atom 9.7356312721508615 3.2423032197682753 15.0000002545559568 O
atom 3.2452123866634390 4.8634539524645026 16.2363039087707648 Pt
atom 1.2363009566011534 4.8634549124645066 16.2363061880154333 O
atom 5.2541229469834860 4.8634546124645128 16.2363089905075668 O
atom 3.2452055442306378 6.4846061897682752 15.0000001272772998 O
atom 3.2452120613941808 1.6211511924645048 16.2363050189283626 Pt
atom 1.2363005181949520 1.6211532724645077 16.2363061243757727 O
atom 5.2541227984910481 1.6211502824645141 16.2363090753603672 O
atom 3.2452212490722654 3.2423022897682747 15.0000000000000000 O
atom 12.9808555287751641 0.0000009424645163 16.2363101631299500 Pt
atom 6.4904266895843783 6.4846057624645281 16.2363159967610784 Pt
atom 6.4904266259449637 3.2423024424645250 16.2363143986997471 Pt
atom 7.7267305311808663 4.8634545624645327 16.2363177209269480 O
atom 11.7445514184775099 4.8634548624645229 16.2363132402191042 O
atom 9.7356500128296677 0.0000000251607347 17.4726100307877203 O
atom 7.7267302412671102 1.6211504224645321 16.2363175370791453 O
atom 11.7445514114064871 1.6211534124645226 16.2363129008078459 O
atom 9.7356310765098453 3.2423028951607389 17.4726118621919753 O
atom 3.2452024635941110 6.4846054351607352 17.4726104055522171 O
atom 3.2452206786644195 3.2423028951607424 17.4726135097532023 O
atom 12.9808557833333698 3.2423045724645210 16.2363121076736263 Pt
