#===============================================================================
# Created using the Atomic Simulation Environment (ASE)

# Mon Mar 23 14:01:18 2026

#=======================================================
lattice_vector 9.0973690600005526 0.0000000000000000 0.0000000000000000 
lattice_vector 0.0000063071332193 9.2039351799983606 0.0000000000000000 
lattice_vector 0.0000000000000000 0.0000000000000000 30.0000439987134655 
atom 2.2743472917850327 2.3009883315403759 15.0000106137134708 Pt
atom 0.6174388343914005 3.4850997888941264 15.0000418549999921 O
atom 3.9312493791758030 1.1168686641887786 15.0000390424269341 O
atom 2.2743485053498675 6.9029508315402088 15.0000310587134607 Pt
atom 0.6174374579547590 8.0870580488949120 15.0000166999999891 O
atom 3.9312591727428732 5.7188375741856703 15.0000158574269378 O
atom 6.8230184817823245 2.3009797665450087 15.0000241337134597 Pt
atom 5.1661142143915848 3.4850995238973379 15.0000206249999977 O
atom 8.4799282691760922 1.1168686991907664 15.0000184424269349 O
atom 6.8230379253501638 6.9029508865384903 15.0000439987134655 Pt
atom 5.1661295379591312 8.0870698038922981 15.0000000000000000 O
atom 8.4799548027466258 5.7188475491818167 15.0000014474269463 O
