#===============================================================================
# Created using the Atomic Simulation Environment (ASE)

# Mon Mar 23 14:01:19 2026

#=======================================================
lattice_vector 9.2039351800005225 0.0000000000000000 0.0000000000000000 
lattice_vector -0.0000000269221396 6.3710923900000003 0.0000000000000000 
lattice_vector 0.0000000000000000 0.0000000000000000 56.2526549549994641 
atom 4.6019902040997414 0.0000022350000342 15.6174186361696954 Pt
atom 1.1168689344182283 1.5927705012134774 15.0000103900019113 O
atom 5.7188545944218774 1.5927934962134969 15.0000205299958225 O
atom 9.2039284006415105 3.1855475000000015 15.6174262861795938 Pt
atom 1.1168745909536579 4.7783170112134830 15.0000000000000000 O
atom 5.7188534409618113 4.7783000162134952 15.0000233799962075 O
atom 0.0000130471900084 6.3710861900000229 15.6174562161729114 Pt
atom 2.3009926884032805 1.5927877825000214 17.8917829211744461 Pt
atom 1.1841301721780677 0.0000002912865591 17.2743600873476169 O
atom 3.4178649480862151 0.0000039537134949 18.5091957349979950 O
atom 3.4851053003367833 1.5927545437865482 16.2348768523504745 O
atom 1.1168811964705061 1.5927548512134957 19.5486909399980355 O
atom 4.6019964382069460 0.0000022350000506 24.7147876961681092 Pt
atom 6.9029564783997897 1.5927668275000169 17.8917717111757248 Pt
atom 5.7860648552564804 6.3710904862865227 17.2743609473586943 O
atom 8.0198410480941575 0.0000051687135041 18.5092185449951288 O
atom 8.0870705303332464 1.5927722887865450 16.2348656323512728 O
atom 5.7188558864705152 1.5927729562135036 19.5486902499956443 O
atom 9.2039300161669324 0.0000008200000088 20.1661427361793102 Pt
atom 2.3009876104584803 1.5927705025000207 22.4404721411764143 Pt
atom 1.1841089242320446 0.0000021812865408 21.8230457373550308 O
atom 3.4178668132220658 6.3710907637135001 23.0578932749976175 O
atom 3.4851003223908119 1.5927681637865474 20.7835626923524117 O
atom 1.1168751685254319 1.5927705012134941 24.0973794500003251 O
atom 4.6019740161562668 0.0000028350000214 20.1661118461754043 Pt
atom 6.9029634704585607 1.5927490575000296 22.4404715411736291 Pt
atom 5.7860654273065570 6.3710919762865288 21.8230350173587553 O
atom 8.0198656501479331 0.0000003587135357 23.0579035749871011 O
atom 8.0870760323904101 1.5927924287865560 20.7835608023496761 O
atom 5.7188608285290803 1.5927934962135135 24.0973895899942399 O
atom 9.2039346347487143 3.1855475000000175 24.7147953461780112 Pt
atom 2.3009962049437025 4.7783091825000223 17.8917872711732571 Pt
atom 1.1841218787042116 3.1855504312865501 17.2743221373504099 O
atom 3.4178761046340518 3.1855465237135054 18.5092221649942346 O
atom 3.4851065268760579 4.7783404237865490 16.2348780023500581 O
atom 1.1168776730091374 4.7783376112134910 19.5486901699992188 O
atom 4.6019619806541368 3.1855461550000022 15.6174645461791997 Pt
atom 6.9029587049432868 4.7783296275000193 17.8917853311749724 Pt
atom 5.7860915187184414 3.1855509862865521 17.2743636173497173 O
atom 8.0198145446339275 3.1855448787134746 18.5092210150040515 O
atom 8.0870647868748176 4.7783152687865389 16.2348734723532004 O
atom 5.7188465830116586 4.7783144262134920 19.5486968099987735 O
atom 0.0000255726914343 3.1855451100000418 20.1661014361689510 Pt
atom 2.3009907569927965 4.7783227025000237 22.4404584611753499 Pt
atom 1.1841249907633664 3.1855450612865575 21.8230231373496153 O
atom 3.4178519166910672 3.1855478537134845 23.0579168350026364 O
atom 3.4851093789266003 4.7783191937865563 20.7835533823493570 O
atom 1.1168808250608617 4.7783170112134989 24.0973690599984138 O
atom 4.6019827327032843 3.1855383950000298 20.1661358261724679 Pt
atom 6.9029618769985222 4.7783425675000277 22.4404747511741611 Pt
atom 5.7861165507697896 3.1855464762865831 21.8230414373415407 O
atom 8.0198105566835931 3.1855459787134750 23.0578938750056537 O
atom 8.0870796589309819 4.7782985687865596 20.7835655523484490 O
atom 5.7188596750690142 4.7783000162135103 24.0973924399946213 O
atom 0.0000192812972119 6.3710861900000380 24.7148252761713287 Pt
atom 2.3009989225104839 1.5927877825000374 26.9891519811728600 Pt
atom 1.1841364062852715 0.0000002912865755 26.3717291473460342 O
atom 3.4178711821934185 0.0000039537135113 27.6065647949964088 O
atom 3.4851115344439867 1.5927545437865651 25.3322459123488919 O
atom 1.1168874305777099 1.5927548512135119 28.6460599999964529 O
atom 4.6020026723141489 0.0000022350000670 33.8121567561665302 Pt
atom 6.9029627125069926 1.5927668275000333 26.9891407711741458 Pt
atom 5.7860710893636833 6.3710904862865387 26.3717300073571081 O
atom 8.0198472822013631 0.0000051687135205 27.6065876049935461 O
atom 8.0870767644404502 1.5927722887865619 25.3322346923496866 O
atom 5.7188621205777181 1.5927729562135198 28.6460593099940617 O
atom 0.0000010702736137 0.0000008200000252 29.2635117961777276 Pt
atom 2.3009938445656841 1.5927705025000367 31.5378412011748281 Pt
atom 1.1841151583392484 0.0000021812865572 30.9204147973534518 O
atom 3.4178730473292696 6.3710907637135161 32.1552623349960314 O
atom 3.4851065564980157 1.5927681637865638 29.8809317523508255 O
atom 1.1168814026326355 1.5927705012135105 33.1947485099987460 O
atom 4.6019802502634697 0.0000028350000378 29.2634809061738252 Pt
atom 6.9029697045657645 1.5927490575000460 31.5378406011720429 Pt
atom 5.7860716614137608 6.3710919762865457 30.9204040773571762 O
atom 8.0198718842551369 0.0000003587135521 32.1552726349855149 O
atom 8.0870822664976139 1.5927924287865727 29.8809298623480899 O
atom 5.7188670626362832 1.5927934962135297 33.1947586499926572 O
atom 0.0000056888553951 3.1855475000000339 33.8121644061764215 Pt
atom 2.3010024390509063 4.7783091825000392 26.9891563311716745 Pt
atom 1.1841281128114152 3.1855504312865670 26.3716911973488237 O
atom 3.4178823387412551 3.1855465237135223 27.6065912249926484 O
atom 3.4851127609832617 4.7783404237865632 25.3322470623484755 O
atom 1.1168839071163410 4.7783376112135079 28.6460592299976362 O
atom 4.6019682147613405 3.1855461550000190 24.7148336061776170 Pt
atom 6.9029649390504897 4.7783296275000353 26.9891543911733862 Pt
atom 5.7860977528256443 3.1855509862865690 26.3717326773481346 O
atom 8.0198207787411313 3.1855448787134915 27.6065900750024689 O
atom 8.0870710209820231 4.7783152687865558 25.3322425323516143 O
atom 5.7188528171188615 4.7783144262135071 28.6460658699971908 O
atom 0.0000318067986378 3.1855451100000578 29.2634704961673684 Pt
atom 2.3009969911000003 4.7783227025000405 31.5378275211737602 Pt
atom 1.1841312248705702 3.1855450612865739 30.9203921973480291 O
atom 3.4178581507982715 3.1855478537135014 32.1552858950010574 O
atom 3.4851156130338046 4.7783191937865732 29.8809224423477744 O
atom 1.1168870591680653 4.7783170112135158 33.1947381199968348 O
atom 4.6019889668104872 3.1855383950000458 29.2635048861708782 Pt
atom 6.9029681111057251 4.7783425675000419 31.5378438111725785 Pt
atom 5.7861227848769925 3.1855464762865995 30.9204104973399581 O
atom 8.0198167907908005 3.1855459787134919 32.1552629350040675 O
atom 8.0870858930381839 4.7782985687865747 29.8809346123468700 O
atom 5.7188659091762171 4.7783000162135272 33.1947614999930423 O
atom 0.0000255154044155 6.3710861900000548 33.8121943361697461 Pt
atom 2.3010051566176877 1.5927877825000543 36.0865210411712738 Pt
atom 1.1841426403924749 0.0000002912865919 35.4690982073444516 O
atom 3.4178774163006223 0.0000039537135277 36.7039338549948226 O
atom 3.4851177685511900 1.5927545437865811 34.4296149723473093 O
atom 1.1168936646849135 1.5927548512135283 37.7434290599948739 O
atom 6.9029689466141964 1.5927668275000499 36.0865098311725561 Pt
atom 5.7860773234708880 6.3710904862865547 35.4690990673555291 O
atom 8.0198535163085651 0.0000051687135369 36.7039566649919635 O
atom 8.0870829985476540 1.5927722887865778 34.4296037523481075 O
atom 5.7188683546849228 1.5927729562135362 37.7434283699924791 O
atom 0.0000073043808177 0.0000008200000416 38.3608808561761450 Pt
atom 2.3010000786728870 1.5927705025000536 40.6352102611732491 Pt
atom 1.1841213924464515 0.0000021812865736 40.0177838573518656 O
atom 3.4178792814364733 6.3710907637135330 41.2526313949944594 O
atom 3.4851127906052191 1.5927681637865805 38.9783008123492536 O
atom 4.6019864843706726 0.0000028350000542 38.3608499661722462 Pt
atom 6.9029759386729683 1.5927490575000625 40.6352096611704567 Pt
atom 5.7860778955209646 6.3710919762865617 40.0177731373555972 O
atom 8.0198781183623407 0.0000003587135684 41.2526416949839430 O
atom 8.0870885006048177 1.5927924287865889 38.9782989223465179 O
atom 2.3010086731581092 4.7783091825000561 36.0865253911700918 Pt
atom 1.1841343469186185 3.1855504312865826 35.4690602573472447 O
atom 3.4178885728484589 3.1855465237135387 36.7039602849910693 O
atom 3.4851189950904646 4.7783404237865810 34.4296161223468928 O
atom 1.1168901412235444 4.7783376112135247 37.7434282899960536 O
atom 4.6019744488685435 3.1855461550000350 33.8122026661760273 Pt
atom 6.9029711731576935 4.7783296275000504 36.0865234511718072 Pt
atom 5.7861039869328481 3.1855509862865845 35.4691017373465556 O
atom 8.0198270128483351 3.1855448787135074 36.7039591350008791 O
atom 8.0870772550892251 4.7783152687865709 34.4296115923500352 O
atom 5.7188590512260644 4.7783144262135240 37.7434349299956082 O
atom 0.0000380409058414 3.1855451100000747 38.3608395561657929 Pt
atom 2.3010032252072037 4.7783227025000556 40.6351965811721882 Pt
atom 1.1841374589777733 3.1855450612865899 40.0177612573464430 O
atom 3.4178643849054744 3.1855478537135178 41.2526549549994641 O
atom 3.4851218471410079 4.7783191937865901 38.9782915023461882 O
atom 4.6019952009176910 3.1855383950000618 38.3608739461692991 Pt
atom 6.9029743452129289 4.7783425675000588 40.6352128711709994 Pt
atom 5.7861290189841963 3.1855464762866159 40.0177795573383790 O
atom 8.0198230248980025 3.1855459787135079 41.2526319950024813 O
atom 8.0870921271453895 4.7782985687865915 38.9783036723452838 O
