#===============================================================================
# Created using the Atomic Simulation Environment (ASE)

# Mon Mar 23 14:01:19 2026

#=======================================================
lattice_vector 9.2039351800005225 0.0000000000000000 0.0000000000000000 
lattice_vector -0.0000000269221396 6.3710923900000003 0.0000000000000000 
lattice_vector 0.0000000000000000 0.0000000000000000 35.7835946976522195 
atom 2.3010051566176877 1.5927877825000543 15.6174607838240291 Pt
atom 1.1841426403924749 0.0000002912865919 15.0000379499972070 O
atom 3.4178774163006223 0.0000039537135277 16.2348735976475780 O
atom 1.1168936646849135 1.5927548512135283 17.2743688026476292 O
atom 6.9029689466141964 1.5927668275000499 15.6174495738253114 Pt
atom 5.7860773234708880 6.3710904862865547 15.0000388100082844 O
atom 8.0198535163085651 0.0000051687135369 16.2348964076447189 O
atom 5.7188683546849228 1.5927729562135362 17.2743681126452344 O
atom 0.0000073043808177 0.0000008200000416 17.8918205988289003 Pt
atom 2.3010000786728870 1.5927705025000536 20.1661500038260044 Pt
atom 1.1841213924464515 0.0000021812865736 19.5487236000046209 O
atom 3.4178792814364733 6.3710907637135330 20.7835711376472148 O
atom 3.4851127906052191 1.5927681637865805 18.5092405550020089 O
atom 4.6019864843706726 0.0000028350000542 17.8917897088250015 Pt
atom 6.9029759386729683 1.5927490575000625 20.1661494038232121 Pt
atom 5.7860778955209646 6.3710919762865617 19.5487128800083525 O
atom 8.0198781183623407 0.0000003587135684 20.7835814376366983 O
atom 8.0870885006048177 1.5927924287865889 18.5092386649992733 O
atom 2.3010086731581092 4.7783091825000561 15.6174651338228472 Pt
atom 1.1841343469186185 3.1855504312865826 15.0000000000000000 O
atom 3.4178885728484589 3.1855465237135387 16.2349000276438247 O
atom 1.1168901412235444 4.7783376112135247 17.2743680326488089 O
atom 6.9029711731576935 4.7783296275000504 15.6174631938245625 Pt
atom 5.7861039869328481 3.1855509862865845 15.0000414799993109 O
atom 8.0198270128483351 3.1855448787135074 16.2348988776536345 O
atom 5.7188590512260644 4.7783144262135240 17.2743746726483636 O
atom 0.0000380409058414 3.1855451100000747 17.8917792988185482 Pt
atom 2.3010032252072037 4.7783227025000556 20.1661363238249436 Pt
atom 1.1841374589777733 3.1855450612865899 19.5487009999991983 O
atom 3.4178643849054744 3.1855478537135178 20.7835946976522195 O
atom 3.4851218471410079 4.7783191937865901 18.5092312449989436 O
atom 4.6019952009176910 3.1855383950000618 17.8918136888220545 Pt
atom 6.9029743452129289 4.7783425675000588 20.1661526138237548 Pt
atom 5.7861290189841963 3.1855464762866159 19.5487192999911343 O
atom 8.0198230248980025 3.1855459787135079 20.7835717376552367 O
atom 8.0870921271453895 4.7782985687865915 18.5092434149980392 O
