#===============================================================================
# Created using the Atomic Simulation Environment (ASE)

# Mon Mar 23 14:01:23 2026

#=======================================================
lattice_vector 11.2383934762033828 0.0000000000000000 0.0000000000000000 
lattice_vector 0.0000013697273223 9.1788565199999361 0.0000000000000000 
lattice_vector 0.0000000000000000 0.0000000000000000 39.5836607169798640 
atom 6.5646945364469698 2.2947190025757362 15.8196473686700898 Pt
atom 5.4045001443236256 3.7152287572567628 15.0000022606547461 O
atom 8.2141095662480677 3.1689112772563273 15.0000099087432304 O
atom 3.7550934426381279 4.5894260825758817 15.8196460343635934 Pt
atom 6.5646934306748133 6.8841412025758100 15.8196468443851685 Pt
atom 5.4045067988851230 8.3046627872566159 15.0000088105218410 O
atom 8.2140940677546315 7.7583469972569956 15.0000000000000000 O
atom 0.9454944533776259 2.2947090525759823 15.8196472767664957 Pt
atom 11.0236975996306388 3.7152257772567774 15.0000035937963787 O
atom 2.5948963681916184 3.1689165072570842 15.0000006861442827 O
atom 9.3742865380984259 0.0000004525759907 15.8196432713669424 Pt
atom 11.0237030979646402 8.3046629672565295 15.0000064250429439 O
atom 2.5949133281600560 7.7583415772564113 15.0000119208143090 O
atom 9.3742947417945377 4.5894304425756376 15.8196479404149954 Pt
atom 4.6938679374881636 2.2947183482198588 18.4677688189055367 Pt
atom 3.7550990728637035 0.0000040725757334 15.8196517140554995 Pt
atom 3.5336752075776254 3.7152286929007716 17.6481239056945327 O
atom 5.8540584678195442 0.8742002135388004 19.2874076602182178 O
atom 4.9152864406111343 1.4205246578949009 16.6392901435404639 O
atom 6.3432712681892784 3.1689201929009023 17.6481231183748903 O
atom 2.8230456998138962 2.2947195438636405 21.1158899709824617 Pt
atom 1.8842736602563805 0.0000032582197273 18.4677723862356018 Pt
atom 1.6628513076905478 3.7152292985446667 20.2962448629671215 O
atom 7.7248811199914726 0.8742001278951440 16.6392895435805386 O
atom 3.0444693447765521 1.4205103935386432 19.2874180381082851 O
atom 4.4724607296149985 3.1689118185442311 20.2962525110556129 O
atom 4.6938691505303369 6.8841416082198128 18.4677693450968832 Pt
atom 0.0134446060050544 4.5894266238637851 21.1158886366759688 Pt
atom 3.5336831619409370 8.3046629829004885 17.6481295862427352 O
atom 5.8540640083596989 5.4636309835387502 19.2874143658319781 O
atom 4.9152903854232095 6.0099367378948108 16.6392937873001365 O
atom 6.3432797529486304 7.7583325829005334 17.6481279615006059 O
atom 2.8230445940417472 6.8841417438637134 21.1158894466975511 Pt
atom 1.8842707952903779 4.5894259282197236 18.4677677663265456 Pt
atom 1.6628579622520514 8.3046633285445211 20.2962514128342164 O
atom 7.7248892709533372 5.4636304778946529 16.6392914450088156 O
atom 3.0444552889141443 6.0099472335391448 19.2874070058811427 O
atom 4.4724452311215561 7.7583475385448990 20.2962426023123754 O
atom 8.4422390929479274 2.2947095938638862 21.1158898790788676 Pt
atom 7.5034650888802741 9.1788535182197890 18.4677650902455674 Pt
atom 7.2820487629975625 3.7152263185446812 20.2962461961087541 O
atom 2.1056894669163331 0.8741981478949045 16.6392922850680911 O
atom 8.6636537475540116 1.4205156435391053 19.2874090603011297 O
atom 10.0916410077619201 3.1689170485449880 20.2962432884566581 O
atom 10.3130642530580623 2.2947103382198737 18.4677684897898828 Pt
atom 5.6326377014653524 0.0000009938638964 21.1158858736793178 Pt
atom 9.1528738261188565 3.7152263129006036 17.6481233669957902 O
atom 0.2348643944513808 0.8741985835389486 19.2874144341716942 O
atom 10.5344867929863923 1.4205041778948613 16.6392946375670476 O
atom 0.7240846776850161 3.1689060929005013 17.6481300975944109 O
atom 0.9455038387131947 6.8841493925754866 15.8196509317972449 Pt
atom 7.5034688399542322 4.5894295182196707 18.4677686465229307 Pt
atom 7.2820542613315666 8.3046635085444329 20.2962490273553158 O
atom 2.1056937522448078 5.4636327278947547 16.6392952388630420 O
atom 8.6636683665662719 6.0099415235384956 19.2874181146674921 O
atom 10.0916579677303577 7.7583421185443147 20.2962545231266809 O
atom 10.3130736763340867 6.8841496682195658 18.4677758692482250 Pt
atom 5.6326459051614695 4.5894309838635410 21.1158905427273709 Pt
atom 9.1528799701618446 8.3046626429003929 17.6481278665528691 O
atom 0.2348715038046872 5.4636322335384984 19.2874156609509484 O
atom 10.5344817605246668 6.0099529078950349 16.6392903474351357 O
atom 0.7240792212104331 7.7583534729006631 17.6481249691826676 O
atom 0.9522191008550924 2.2947188895077621 23.7640114212179121 Pt
atom 0.0134502362306228 0.0000046138636370 21.1158943163678749 Pt
atom 11.0304198471479324 3.7152292341886750 22.9443665080069117 O
atom 2.1124096311864733 0.8742007548267039 24.5836502625305897 O
atom 1.1736376039780614 1.4205251991828045 21.9355327458528464 O
atom 2.6016224315561973 3.1689207341888057 22.9443657206872693 O
atom 9.3810182998266818 0.0000037995076309 23.7640149885479772 Pt
atom 3.9832322833584000 0.8742006691830474 21.9355321458929140 O
atom 10.5412139843468644 1.4205109348265470 24.5836606404206535 O
atom 0.9522203138972659 6.8841421495077180 23.7640119474092657 Pt
atom 11.0304278015112391 8.3046635241883902 22.9443721885551106 O
atom 2.1124151717266177 5.4636315248266545 24.5836569681443606 O
atom 1.1736415487901337 6.0099372791827159 21.9355363896125084 O
atom 2.6016309163155587 7.7583331241884377 22.9443705638129778 O
atom 9.3810154348606805 4.5894264695076270 23.7640103686389210 Pt
atom 3.9832404343202636 5.4636310191825554 21.9355340473211946 O
atom 10.5411999284844562 6.0099477748270491 24.5836496081935181 O
atom 3.7618162522471987 9.1788540595076924 23.7640076925579429 Pt
atom 9.6024341064866459 0.8741986891828081 21.9355348873804701 O
atom 4.9220049109209425 1.4205161848270089 24.5836516626135051 O
atom 6.5714154164249887 2.2947108795077771 23.7640110921022547 Pt
atom 5.4112249894857802 3.7152268541885070 22.9443659693081692 O
atom 7.7316090340216883 0.8741991248268524 24.5836570364840696 O
atom 6.7928379563533161 1.4205047191827649 21.9355372398794302 O
atom 8.2208293172553226 3.1689066341884047 22.9443726999067934 O
atom 8.4422484782835063 6.8841499338633909 21.1158935341096203 Pt
atom 3.7618200033211586 4.5894300595075741 23.7640112488353061 Pt
atom 9.6024383918151202 5.4636332691826590 21.9355378411754174 O
atom 4.9220195299331939 6.0099420648263990 24.5836607169798640 O
atom 6.5714248397010122 6.8841502095074691 23.7640184715605933 Pt
atom 5.4112311335287684 8.3046631841882963 22.9443704688652481 O
atom 7.7316161433749899 5.4636327748264026 24.5836582632633238 O
atom 6.7928329238915879 6.0099534491829383 21.9355329497475076 O
atom 8.2208238607807402 7.7583540141885674 22.9443675714950430 O
