#===============================================================================
# Created using the Atomic Simulation Environment (ASE)

# Mon Mar 23 14:01:20 2026

#=======================================================
lattice_vector 11.1938930464403850 0.0000000000000000 0.0000000000000000 
lattice_vector -0.0000051258591119 9.0973690599991084 0.0000000000000000 
lattice_vector 0.0000000000000000 0.0000000000000000 41.8249046113193685 
atom 3.6261482815291108 0.0000167031343070 15.6739526353812941 Pt
atom 6.4246280597316776 2.2743321981351556 15.6739471523331666 Pt
atom 4.5997611602794777 2.8917787691057164 15.0000169129197936 O
atom 7.3982325178036881 3.9312504741041487 15.0000113674751390 O
atom 3.6261672727717857 4.5487032231385625 15.6739462530568225 Pt
atom 6.4246121967279084 6.8230320281285666 15.6739347468207235 Pt
atom 4.5997381941262319 7.4404637991012601 15.0000251863587515 O
atom 7.3982401448062474 8.4799498141100784 15.0000292947537837 O
atom 0.8276733240077842 2.2743477581330822 15.6739481669007965 Pt
atom 10.1967027416473730 2.8917823891038585 15.0000144472942516 O
atom 1.8013052250797634 3.9312503941112862 15.0000205070437573 O
atom 9.2231136617611273 0.0000250331384262 15.6739470741281615 Pt
atom 10.1967233866376183 7.4404770591069722 15.0000000000000000 O
atom 1.8012909087215121 8.4799292841042302 15.0000035890632510 O
atom 9.2230921821747547 4.5486963131334655 15.6739507307386496 Pt
atom 7.2523057158824136 0.0000187462713876 20.9124448328743853 Pt
atom 2.6407690559209533 2.2743444297099793 18.2932126436706035 Pt
atom 2.6525374344174844 1.6569208371674007 16.3479068988877607 O
atom 0.8158996598779230 2.8917569806748435 17.6192571691299946 O
atom 1.6671392847917659 0.6174386237309126 18.9671329791957071 O
atom 3.6143602449772403 3.9312521856676983 17.6192385387579762 O
atom 11.0361653528663428 9.0973492047035656 18.2932110993968067 Pt
atom 10.0507854940849786 2.2743342412722360 20.9124393498262542 Pt
atom 10.0625884603777322 1.6569227187390130 18.9671324789321183 O
atom 8.2259185946327822 2.8917808122427973 20.2385091104128847 O
atom 5.4510191310036298 0.6174263821683337 16.3479001276792673 O
atom 11.0243899521569908 3.9312525172412291 20.2385035649682301 O
atom 7.2523247071250880 4.5487052662756433 20.9124384505499137 Pt
atom 2.6407633961025749 6.8230336497049331 18.2931937713165418 Pt
atom 2.6525559807875538 6.2056064871703587 16.3478945853672819 O
atom 0.8158949282734285 7.4404545206727475 17.6192518838753287 O
atom 1.6671511297298920 5.1661244637357635 18.9671395706113337 O
atom 3.6143741086447911 8.4799406956733208 17.6192462016806743 O
atom 11.0361841304047772 4.5486733547064198 18.2932006051392300 Pt
atom 10.0507696310812094 6.8230340712656465 20.9124269443138147 Pt
atom 10.0625888380672297 6.2055967887393377 18.9671322555475008 O
atom 8.2258956284795346 7.4404658422383401 20.2385173838518426 O
atom 5.4510260698963684 5.1661215521740704 16.3479180447958470 O
atom 11.0243975791595510 8.4799518572471602 20.2385214922468784 O
atom 5.4392424573934770 9.0973568547066375 18.2931936128645880 Pt
atom 4.4538307583610868 2.2743498012701626 20.9124403643938912 Pt
atom 4.4656252049824587 1.6568839087381566 18.9671515287050987 O
atom 2.6289671295602912 2.8917844322409394 20.2385066447873463 O
atom 11.0479751815224816 0.6174387521749561 16.3479202163331898 O
atom 5.4274626594330657 3.9312524372483670 20.2385127045368485 O
atom 1.6553780496740420 0.0000270762755069 20.9124392716212490 Pt
atom 8.2377143859797997 2.2743468397087638 18.2932081790909074 Pt
atom 8.2494916413292039 1.6569243671695593 16.3479070530606556 O
atom 6.4128579672932151 2.8917822606752188 17.6192426025234248 O
atom 7.2641007297034639 0.6174352437365009 18.9671403216857719 O
atom 9.2113161842080906 3.9312580556722403 17.6192482937151773 O
atom 5.4392196221951323 4.5486629447029614 18.2932082870714368 Pt
atom 0.8276854984814628 6.8230189481379551 15.6739544085922979 Pt
atom 4.4656195897816868 6.2055849087359896 18.9671471104902878 O
atom 2.6289877745505383 7.4404791022440531 20.2384921974930911 O
atom 11.0479607532642206 5.1661141321677331 16.3479026096022118 O
atom 5.4274483430748175 8.4799313272413119 20.2384957865563386 O
atom 1.6553565700876756 4.5486983562705463 20.9124429282317408 Pt
atom 8.2377191427292633 6.8230362597124614 18.2932188500273014 Pt
atom 8.2494684923671677 6.2056021871651499 16.3479158179074098 O
atom 6.4128618723723410 7.4404551206759395 17.6192394631101124 O
atom 7.2640789965420813 5.1661273237293495 18.9671332809231750 O
atom 9.2112972179835619 8.4799536856660271 17.6192421227535760 O
atom 10.8784631502357154 0.0000207894084682 26.1509370303674800 Pt
atom 6.2669264902742583 2.2743464728470602 23.5317048411636982 Pt
atom 6.2786948687707866 1.6569228803044813 21.5863990963808519 O
atom 4.4420570942312256 2.8917590238119244 22.8577493666230858 O
atom 5.2932967191450659 0.6174406668679931 24.2056251766887982 O
atom 7.2405176793305452 3.9312542288047783 22.8577307362510673 O
atom 3.4684297407792601 9.0973512478406455 23.5317032968898978 Pt
atom 2.4830498819978963 2.2743362844093173 26.1509315473193489 Pt
atom 2.4948528482906482 1.6569247618760936 24.2056246764252094 O
atom 0.6581829825456968 2.8917828553798772 25.4770013079059794 O
atom 9.0771765653569325 0.6174284253054144 21.5863923251723620 O
atom 3.4566543400699095 3.9312545603783104 25.4769957624613212 O
atom 10.8784821414783917 4.5487073094127233 26.1509306480430048 Pt
atom 6.2669208304558799 6.8230356928420131 23.5316859688096294 Pt
atom 6.2787134151408575 6.2056085303074395 21.5863867828603730 O
atom 4.4420523626267334 7.4404565638098275 22.8577440813684198 O
atom 5.2933085640831967 5.1661265068728426 24.2056317681044249 O
atom 7.2405315429980908 8.4799427388104025 22.8577383991737619 O
atom 3.4684485183176972 4.5486753978435006 23.5316928026323176 Pt
atom 2.4830340189941289 6.8230361144027265 26.1509191418069058 Pt
atom 2.4948532259801501 6.2055988318764177 24.2056244530405955 O
atom 0.6581600163924517 7.4404678853754209 25.4770095813449338 O
atom 9.0771835042496711 5.1661235953111513 21.5864102422889381 O
atom 3.4566619670724648 8.4799539003842401 25.4770136897399659 O
atom 9.0653998917467788 9.0973588978437192 23.5316858103576827 Pt
atom 8.0799881927143886 2.2743518444072439 26.1509325618869788 Pt
atom 8.0917826393357615 1.6568859518752375 24.2056437261981934 O
atom 6.2551245639135935 2.8917864753780198 25.4769988422804339 O
atom 3.4802395694353963 0.6174407953120369 21.5864124138262810 O
atom 9.0536200937863693 3.9312544803854474 25.4770049020299396 O
atom 5.2815354840273470 0.0000291194125875 26.1509314691143437 Pt
atom 0.6699787738927185 2.2743488828458451 23.5317003765839985 Pt
atom 0.6817560292421225 1.6569264103066399 21.5863992505537503 O
atom 10.0390154016465178 2.8917843038122997 22.8577348000165195 O
atom 10.8902581640567657 0.6174372868735817 24.2056325191788595 O
atom 1.6435805721210071 3.9312600988093211 22.8577404912082720 O
atom 9.0653770565484333 4.5486649878400423 23.5317004845645279 Pt
atom 4.4538429328347648 6.8230209912750359 20.9124466060853926 Pt
atom 8.0917770241349878 6.2055869518730704 24.2056393079833825 O
atom 6.2551452089038380 7.4404811453811330 25.4769843949861858 O
atom 3.4802251411771379 5.1661161753048139 21.5863948070953064 O
atom 9.0536057774281193 8.4799333703783919 25.4769879840494333 O
atom 5.2815140044409778 4.5487003994076272 26.1509351257248319 Pt
atom 0.6699835306421805 6.8230383028495432 23.5317110475203961 Pt
atom 0.6817328802800851 6.2056042303022299 21.5864080154004974 O
atom 10.0390193067256437 7.4404571638130195 22.8577316606032035 O
atom 10.8902364308953814 5.1661293668664294 24.2056254784162661 O
atom 1.6435616058964784 8.4799557288031071 22.8577343202466672 O
atom 9.9048523031240894 1.6569249234415622 26.8248912938739430 O
atom 1.5094409532698496 0.6174304684424949 26.8248845226654531 O
atom 9.9048708494941593 6.2056105734445204 26.8248789803534642 O
atom 1.5094478921625889 5.1661256384482321 26.8249024397820257 O
atom 7.1063970037887012 0.6174428384491175 26.8249046113193721 O
atom 4.3079134635954253 1.6569284534437203 26.8248914480468379 O
atom 8.0800003671880702 6.8230230344121159 26.1509388035784873 Pt
atom 7.1063825755304402 5.1661182184418930 26.8248870045884011 O
atom 4.3078903146333873 6.2056062734393107 26.8249002128935921 O
