#===============================================================================
# Created using the Atomic Simulation Environment (ASE)

# Mon Mar 23 14:01:20 2026

#=======================================================
lattice_vector 11.1064369649213504 0.0000000000000000 0.0000000000000000 
lattice_vector 0.0000051885324174 9.2039351799990605 0.0000000000000000 
lattice_vector 0.0000000000000000 0.0000000000000000 37.1195742009613383 
atom 6.3601815128159656 6.9029451941260520 15.9504942101788707 Pt
atom 4.9407693104343338 5.7860737346078777 15.0000050229649879 O
atom 7.7173464499395479 5.7188318171180619 15.0000000000000000 O
atom 5.0029770206975543 8.0870574511556139 16.9009353385922090 O
atom 10.9641558921594680 4.6019451099538689 18.5597770910336060 Pt
atom 6.3601760801307536 2.3009814041318757 15.9504706152755666 Pt
atom 4.9407487292890933 1.1840976346108079 15.0000191028992766 O
atom 7.7173632252986746 1.1168665871114103 15.0000080988315716 O
atom 5.0029853773591855 3.4850827611501631 16.9009497727260793 O
atom 3.5835460513355821 0.0000094316334191 15.9504929206278483 Pt
atom 2.2263691942836745 8.0198312886506020 16.9009592600333214 O
atom 1.2148925107829673 5.7860739429376231 17.6093136256896585 O
atom 3.9914902477322136 5.7188388954401539 17.6093176180119251 O
atom 3.5835751037220160 4.6019654316284395 15.9504768513996495 Pt
atom 2.6342904120539874 2.3009765124658359 18.5597705467100234 Pt
atom 2.2263738922613321 3.4178747586505720 16.9009509850338908 O
atom 1.2148826183721952 1.1840751329387398 17.6093211601008086 O
atom 3.9915031209430207 1.1168631854325695 17.6093364094820366 O
atom 9.1367909579317654 0.0000079166292738 15.9504750073178521 Pt
atom 8.1875192666118934 6.9029406474609054 18.5597821060272103 Pt
atom 7.7796208581106034 8.0198152036450612 16.9009385311963989 O
atom 6.7681011222789875 5.7860615479386697 17.6093229252868397 O
atom 9.5447238131644081 5.7188295604317352 17.6093388762723890 O
atom 9.1367614415882077 4.6019743366340196 15.9504958530698779 Pt
atom 7.7795846056225830 3.4178455636505345 16.9009627803726765 O
atom 6.7680985263579192 1.1841231079395267 17.6093209181745536 O
atom 9.5447104995542880 1.1168713004397464 17.6093156730301494 O
atom 5.4109395165379510 9.2039128449542549 18.5597733791992034 Pt
atom 0.8069639263489589 6.9029502291285629 15.9504798177192164 Pt
atom 10.4939565216247335 5.7860898696131864 15.0000241211169758 O
atom 2.1641451068602975 5.7188308421111138 15.0000105275170732 O
atom 10.5562099117968682 8.0870609261496682 16.9009447386187546 O
atom 5.4109049011676573 4.6019556849611849 18.5597876063592615 Pt
atom 0.8069593841670519 2.3009791091246674 15.9505054338843983 Pt
atom 10.4939716585016978 1.1841312296113931 15.0000094145256817 O
atom 2.1641207127341193 1.1168605621197516 15.0000006146126381 O
atom 10.5561784177817373 3.4850820761585379 16.9009442295742112 O
atom 10.9641228657073100 9.2039222399608143 18.5597917392385021 Pt
atom 10.0148925934368940 6.9029431607786931 21.1691056307675289 Pt
atom 9.6069430502696438 8.0198059069773944 19.5102627797328516 O
atom 8.5954803910552648 5.7860717012605187 20.2186164435536426 O
atom 0.2656205656391268 5.7188297837707038 20.2186114205886511 O
atom 8.6576881013184863 8.0870554178082550 22.1195467591808672 O
atom 10.0148871607516856 2.3009793707845168 21.1690820358642284 Pt
atom 9.6069384924411931 3.4178711969786786 19.5102614751276455 O
atom 8.5954598099100199 1.1840956012634489 20.2186305234879313 O
atom 0.2656373409982533 1.1168645537640516 20.2186195194202334 O
atom 8.6576964579801174 3.4850807278028038 22.1195611933147340 O
atom 7.2382571319565141 0.0000073982860601 21.1691043412165065 Pt
atom 2.6343048165597649 6.9029523724585280 18.5597884566619946 Pt
atom 5.8810802749046038 8.0198292553032431 22.1195706806219761 O
atom 1.2771197959611704 8.0870655794773878 19.5102561510109709 O
atom 7.2382861843429405 4.6019633982810806 21.1690882719883042 Pt
atom 5.8810849728822614 3.4178727253032135 22.1195624056225526 O
atom 1.2771220867800470 3.4850799194717146 19.5102808030970252 O
atom 1.6850650736313455 0.0000058832819149 21.1690864279065067 Pt
atom 0.3278949738101869 8.0198131702977005 22.1195499517850500 O
atom 6.8303541668550967 8.0870599444700542 19.5102705578611157 O
atom 1.6850355572877878 4.6019723032866597 21.1691072736585326 Pt
atom 8.1875299894785005 2.3009781474545474 18.5597977398261129 Pt
atom 0.3278587213221672 3.4178435303031756 22.1195742009613348 O
atom 6.8303328338779501 3.4850910344788271 19.5102553758138448 O
atom 4.4616750069698936 6.9029481957812040 21.1690912383078675 Pt
atom 4.0537413448102466 8.0198141919751684 19.5102492907265912 O
atom 3.0422306373243160 5.7860878362658275 20.2186355417056340 O
atom 5.8188561874812290 5.7188288087637549 20.2186219481057279 O
atom 3.1044840274964516 8.0870588928023093 22.1195561592074093 O
atom 4.4616704647879839 2.3009770757773085 21.1691168544730495 Pt
atom 4.0537245725646374 3.4178226319774700 19.5102609473647348 O
atom 3.0422457742012767 1.1841291962640341 20.2186208351143364 O
atom 5.8188317933550540 1.1168585287723927 20.2186120352012964 O
atom 3.1044525334813193 3.4850800428111786 22.1195556501628623 O
