#===============================================================================
# Created using the Atomic Simulation Environment (ASE)

# Mon Mar 23 14:01:19 2026

#=======================================================
lattice_vector 9.2039351800005225 0.0000000000000000 0.0000000000000000 
lattice_vector -0.0000000269221396 6.3710923900000003 0.0000000000000000 
lattice_vector 0.0000000000000000 0.0000000000000000 47.1552858950010503 
atom 4.6019964382069460 0.0000022350000506 15.6174186361696954 Pt
atom 1.1168751685254319 1.5927705012134941 15.0000103900019113 O
atom 5.7188608285290803 1.5927934962135135 15.0000205299958260 O
atom 9.2039346347487143 3.1855475000000175 15.6174262861795974 Pt
atom 1.1168808250608617 4.7783170112134989 15.0000000000000000 O
atom 5.7188596750690142 4.7783000162135103 15.0000233799962075 O
atom 0.0000192812972119 6.3710861900000380 15.6174562161729149 Pt
atom 2.3009989225104839 1.5927877825000374 17.8917829211744461 Pt
atom 1.1841364062852715 0.0000002912865755 17.2743600873476204 O
atom 3.4178711821934185 0.0000039537135113 18.5091957349979950 O
atom 3.4851115344439867 1.5927545437865651 16.2348768523504781 O
atom 1.1168874305777099 1.5927548512135119 19.5486909399980391 O
atom 4.6020026723141489 0.0000022350000670 24.7147876961681163 Pt
atom 6.9029627125069926 1.5927668275000333 17.8917717111757320 Pt
atom 5.7860710893636833 6.3710904862865387 17.2743609473586943 O
atom 8.0198472822013631 0.0000051687135205 18.5092185449951323 O
atom 8.0870767644404502 1.5927722887865619 16.2348656323512728 O
atom 5.7188621205777181 1.5927729562135198 19.5486902499956479 O
atom 0.0000010702736137 0.0000008200000252 20.1661427361793137 Pt
atom 2.3009938445656841 1.5927705025000367 22.4404721411764143 Pt
atom 1.1841151583392484 0.0000021812865572 21.8230457373550379 O
atom 3.4178730473292696 6.3710907637135161 23.0578932749976175 O
atom 3.4851065564980157 1.5927681637865638 20.7835626923524117 O
atom 1.1168814026326355 1.5927705012135105 24.0973794500003322 O
atom 4.6019802502634697 0.0000028350000378 20.1661118461754114 Pt
atom 6.9029697045657645 1.5927490575000460 22.4404715411736291 Pt
atom 5.7860716614137608 6.3710919762865457 21.8230350173587624 O
atom 8.0198718842551369 0.0000003587135521 23.0579035749871011 O
atom 8.0870822664976139 1.5927924287865727 20.7835608023496761 O
atom 5.7188670626362832 1.5927934962135297 24.0973895899942434 O
atom 0.0000056888553951 3.1855475000000339 24.7147953461780077 Pt
atom 2.3010024390509063 4.7783091825000392 17.8917872711732606 Pt
atom 1.1841281128114152 3.1855504312865670 17.2743221373504099 O
atom 3.4178823387412551 3.1855465237135223 18.5092221649942346 O
atom 3.4851127609832617 4.7783404237865632 16.2348780023500616 O
atom 1.1168839071163410 4.7783376112135079 19.5486901699992224 O
atom 4.6019682147613405 3.1855461550000190 15.6174645461792032 Pt
atom 6.9029649390504897 4.7783296275000353 17.8917853311749724 Pt
atom 5.7860977528256443 3.1855509862865690 17.2743636173497208 O
atom 8.0198207787411313 3.1855448787134915 18.5092210150040550 O
atom 8.0870710209820231 4.7783152687865558 16.2348734723532004 O
atom 5.7188528171188615 4.7783144262135071 19.5486968099987770 O
atom 0.0000318067986378 3.1855451100000578 20.1661014361689546 Pt
atom 2.3009969911000003 4.7783227025000405 22.4404584611753464 Pt
atom 1.1841312248705702 3.1855450612865739 21.8230231373496153 O
atom 3.4178581507982715 3.1855478537135014 23.0579168350026436 O
atom 3.4851156130338046 4.7783191937865732 20.7835533823493606 O
atom 1.1168870591680653 4.7783170112135158 24.0973690599984209 O
atom 4.6019889668104872 3.1855383950000458 20.1661358261724644 Pt
atom 6.9029681111057251 4.7783425675000419 22.4404747511741647 Pt
atom 5.7861227848769925 3.1855464762865995 21.8230414373415442 O
atom 8.0198167907908005 3.1855459787134919 23.0578938750056537 O
atom 8.0870858930381839 4.7782985687865747 20.7835655523484562 O
atom 5.7188659091762171 4.7783000162135272 24.0973924399946284 O
atom 0.0000255154044155 6.3710861900000548 24.7148252761713323 Pt
atom 2.3010051566176877 1.5927877825000543 26.9891519811728600 Pt
atom 1.1841426403924749 0.0000002912865919 26.3717291473460378 O
atom 3.4178774163006223 0.0000039537135277 27.6065647949964088 O
atom 3.4851177685511900 1.5927545437865811 25.3322459123488954 O
atom 1.1168936646849135 1.5927548512135283 28.6460599999964600 O
atom 6.9029689466141964 1.5927668275000499 26.9891407711741422 Pt
atom 5.7860773234708880 6.3710904862865547 26.3717300073571153 O
atom 8.0198535163085651 0.0000051687135369 27.6065876049935497 O
atom 8.0870829985476540 1.5927722887865778 25.3322346923496937 O
atom 5.7188683546849228 1.5927729562135362 28.6460593099940652 O
atom 0.0000073043808177 0.0000008200000416 29.2635117961777311 Pt
atom 2.3010000786728870 1.5927705025000536 31.5378412011748352 Pt
atom 1.1841213924464515 0.0000021812865736 30.9204147973534518 O
atom 3.4178792814364733 6.3710907637135330 32.1552623349960456 O
atom 3.4851127906052191 1.5927681637865805 29.8809317523508398 O
atom 4.6019864843706726 0.0000028350000542 29.2634809061738324 Pt
atom 6.9029759386729683 1.5927490575000625 31.5378406011720429 Pt
atom 5.7860778955209646 6.3710919762865617 30.9204040773571833 O
atom 8.0198781183623407 0.0000003587135684 32.1552726349855291 O
atom 8.0870885006048177 1.5927924287865889 29.8809298623481041 O
atom 2.3010086731581092 4.7783091825000561 26.9891563311716780 Pt
atom 1.1841343469186185 3.1855504312865826 26.3716911973488308 O
atom 3.4178885728484589 3.1855465237135387 27.6065912249926555 O
atom 3.4851189950904646 4.7783404237865810 25.3322470623484790 O
atom 1.1168901412235444 4.7783376112135247 28.6460592299976398 O
atom 4.6019744488685435 3.1855461550000350 24.7148336061776135 Pt
atom 6.9029711731576935 4.7783296275000504 26.9891543911733933 Pt
atom 5.7861039869328481 3.1855509862865845 26.3717326773481417 O
atom 8.0198270128483351 3.1855448787135074 27.6065900750024653 O
atom 8.0870772550892251 4.7783152687865709 25.3322425323516214 O
atom 5.7188590512260644 4.7783144262135240 28.6460658699971944 O
atom 0.0000380409058414 3.1855451100000747 29.2634704961673791 Pt
atom 2.3010032252072037 4.7783227025000556 31.5378275211737744 Pt
atom 1.1841374589777733 3.1855450612865899 30.9203921973480291 O
atom 3.4178643849054744 3.1855478537135178 32.1552858950010503 O
atom 3.4851218471410079 4.7783191937865901 29.8809224423477744 O
atom 4.6019952009176910 3.1855383950000618 29.2635048861708853 Pt
atom 6.9029743452129289 4.7783425675000588 31.5378438111725856 Pt
atom 5.7861290189841963 3.1855464762866159 30.9204104973399652 O
atom 8.0198230248980025 3.1855459787135079 32.1552629350040675 O
atom 8.0870921271453895 4.7782985687865915 29.8809346123468700 O
