#===============================================================================
# Created using the Atomic Simulation Environment (ASE)

# Mon Mar 23 14:01:19 2026

#=======================================================
lattice_vector 9.2039351800005225 0.0000000000000000 0.0000000000000000 
lattice_vector -0.0000000269221396 6.3710923900000003 0.0000000000000000 
lattice_vector 0.0000000000000000 0.0000000000000000 44.8809637576506404 
atom 2.3009989225104839 1.5927877825000374 15.6174607838240362 Pt
atom 1.1841364062852715 0.0000002912865755 15.0000379499972105 O
atom 3.4178711821934185 0.0000039537135113 16.2348735976475851 O
atom 1.1168874305777099 1.5927548512135119 17.2743688026476292 O
atom 4.6020026723141489 0.0000022350000670 22.4404655588177064 Pt
atom 6.9029627125069926 1.5927668275000333 15.6174495738253221 Pt
atom 5.7860710893636833 6.3710904862865387 15.0000388100082844 O
atom 8.0198472822013631 0.0000051687135205 16.2348964076447224 O
atom 5.7188621205777181 1.5927729562135198 17.2743681126452380 O
atom 0.0000010702736137 0.0000008200000252 17.8918205988289039 Pt
atom 2.3009938445656841 1.5927705025000367 20.1661500038260044 Pt
atom 1.1841151583392484 0.0000021812865572 19.5487236000046281 O
atom 3.4178730473292696 6.3710907637135161 20.7835711376472076 O
atom 3.4851065564980157 1.5927681637865638 18.5092405550020018 O
atom 1.1168814026326355 1.5927705012135105 21.8230573126499223 O
atom 4.6019802502634697 0.0000028350000378 17.8917897088250015 Pt
atom 6.9029697045657645 1.5927490575000460 20.1661494038232192 Pt
atom 5.7860716614137608 6.3710919762865457 19.5487128800083525 O
atom 8.0198718842551369 0.0000003587135521 20.7835814376366912 O
atom 8.0870822664976139 1.5927924287865727 18.5092386649992662 O
atom 5.7188670626362832 1.5927934962135297 21.8230674526438335 O
atom 0.0000056888553951 3.1855475000000339 22.4404732088275978 Pt
atom 2.3010024390509063 4.7783091825000392 15.6174651338228507 Pt
atom 1.1841281128114152 3.1855504312865670 15.0000000000000000 O
atom 3.4178823387412551 3.1855465237135223 16.2349000276438247 O
atom 1.1168839071163410 4.7783376112135079 17.2743680326488125 O
atom 6.9029649390504897 4.7783296275000353 15.6174631938245625 Pt
atom 5.7860977528256443 3.1855509862865690 15.0000414799993109 O
atom 8.0198207787411313 3.1855448787134915 16.2348988776536451 O
atom 5.7188528171188615 4.7783144262135071 17.2743746726483671 O
atom 0.0000318067986378 3.1855451100000578 17.8917792988185447 Pt
atom 2.3009969911000003 4.7783227025000405 20.1661363238249365 Pt
atom 1.1841312248705702 3.1855450612865739 19.5487009999992054 O
atom 3.4178581507982715 3.1855478537135014 20.7835946976522337 O
atom 3.4851156130338046 4.7783191937865732 18.5092312449989507 O
atom 1.1168870591680653 4.7783170112135158 21.8230469226480110 O
atom 4.6019889668104872 3.1855383950000458 17.8918136888220545 Pt
atom 6.9029681111057251 4.7783425675000419 20.1661526138237548 Pt
atom 5.7861227848769925 3.1855464762865995 19.5487192999911343 O
atom 8.0198167907908005 3.1855459787134919 20.7835717376552438 O
atom 8.0870858930381839 4.7782985687865747 18.5092434149980463 O
atom 5.7188659091762171 4.7783000162135272 21.8230703026442185 O
atom 0.0000255154044155 6.3710861900000548 22.4405031388209224 Pt
atom 2.3010051566176877 1.5927877825000543 24.7148298438224501 Pt
atom 1.1841426403924749 0.0000002912865919 24.0974070099956279 O
atom 3.4178774163006223 0.0000039537135277 25.3322426576459989 O
atom 3.4851177685511900 1.5927545437865811 23.0579237749984856 O
atom 1.1168936646849135 1.5927548512135283 26.3717378626460501 O
atom 6.9029689466141964 1.5927668275000499 24.7148186338237323 Pt
atom 5.7860773234708880 6.3710904862865547 24.0974078700067054 O
atom 8.0198535163085651 0.0000051687135369 25.3322654676431398 O
atom 8.0870829985476540 1.5927722887865778 23.0579125549992838 O
atom 5.7188683546849228 1.5927729562135362 26.3717371726436554 O
atom 0.0000073043808177 0.0000008200000416 26.9891896588273212 Pt
atom 2.3010000786728870 1.5927705025000536 29.2635190638244254 Pt
atom 1.1841213924464515 0.0000021812865736 28.6460926600030419 O
atom 3.4178792814364733 6.3710907637135330 29.8809401976456357 O
atom 3.4851127906052191 1.5927681637865805 27.6066096150004299 O
atom 4.6019864843706726 0.0000028350000542 26.9891587688234225 Pt
atom 6.9029759386729683 1.5927490575000625 29.2635184638216330 Pt
atom 5.7860778955209646 6.3710919762865617 28.6460819400067734 O
atom 8.0198781183623407 0.0000003587135684 29.8809504976351192 O
atom 8.0870885006048177 1.5927924287865889 27.6066077249976942 O
atom 2.3010086731581092 4.7783091825000561 24.7148341938212681 Pt
atom 1.1841343469186185 3.1855504312865826 24.0973690599984209 O
atom 3.4178885728484589 3.1855465237135387 25.3322690876422456 O
atom 3.4851189950904646 4.7783404237865810 23.0579249249980691 O
atom 1.1168901412235444 4.7783376112135247 26.3717370926472299 O
atom 4.6019744488685435 3.1855461550000350 22.4405114688272036 Pt
atom 6.9029711731576935 4.7783296275000504 24.7148322538229834 Pt
atom 5.7861039869328481 3.1855509862865845 24.0974105399977319 O
atom 8.0198270128483351 3.1855448787135074 25.3322679376520554 O
atom 8.0870772550892251 4.7783152687865709 23.0579203950012115 O
atom 5.7188590512260644 4.7783144262135240 26.3717437326467845 O
atom 0.0000380409058414 3.1855451100000747 26.9891483588169692 Pt
atom 2.3010032252072037 4.7783227025000556 29.2635053838233645 Pt
atom 1.1841374589777733 3.1855450612865899 28.6460700599976192 O
atom 3.4178643849054744 3.1855478537135178 29.8809637576506404 O
atom 3.4851218471410079 4.7783191937865901 27.6066003049973645 O
atom 4.6019952009176910 3.1855383950000618 26.9891827488204754 Pt
atom 6.9029743452129289 4.7783425675000588 29.2635216738221757 Pt
atom 5.7861290189841963 3.1855464762866159 28.6460883599895553 O
atom 8.0198230248980025 3.1855459787135079 29.8809407976536576 O
atom 8.0870921271453895 4.7782985687865915 27.6066124749964601 O
