#===============================================================================
# Created using the Atomic Simulation Environment (ASE)

# Mon Mar 23 14:01:20 2026

#=======================================================
lattice_vector 6.3710923900000003 0.0000000000000000 0.0000000000000000 
lattice_vector -0.0000000000000100 9.0973690600005526 0.0000000000000000 
lattice_vector 0.0000000000000000 0.0000000000000000 43.7386801124953308 
atom 1.5927722157204562 0.6174359250900011 15.0000057300027407 O
atom 0.0000007422144389 4.5487137942616540 16.1168625151396405 Pt
atom 1.5927923557204435 5.1661310950911075 15.0000081149990940 O
atom 3.1855474222144280 9.0973664042624609 16.1168640301507651 Pt
atom 4.7783151957204719 0.6174437650880045 15.0000000000000000 O
atom 4.7782984957204295 5.1661358450923762 15.0000117549973098 O
atom 6.3710861122143747 0.0000272742688220 16.1168838701403097 Pt
atom 1.5927876949911914 2.2743555560502666 18.4178619326453905 Pt
atom 0.0000002084972230 1.6569319568769605 17.3009998327880048 O
atom 0.0000038614851308 2.8917691352269634 19.5347337625061854 O
atom 1.5927544512740481 0.6174502986574331 19.6019756799979561 O
atom 1.5927547687083312 3.9312627634434905 17.2337493052919370 O
atom 0.0000021377679365 9.0973619078393071 20.7188610001526108 Pt
atom 1.5927667205448026 2.2743474996155526 23.0198257226484024 Pt
atom 6.3710903840509232 1.6569359704321129 21.9029345427868769 O
atom 0.0000050570387036 2.8917950987965391 24.1367098624974226 O
atom 1.5927721768276553 0.6174422322232203 24.2039409100011049 O
atom 1.5927728542619086 3.9312652270125747 21.8357239952914135 O
atom 0.0000007033216380 4.5487201013948741 25.3207976951380012 Pt
atom 1.5927704149912121 6.8230447760476851 18.4178537376437035 Pt
atom 0.0000020984972945 6.2056176068687448 17.3009754677876231 O
atom 6.3710906714851268 7.4404666752268120 19.5347325375016325 O
atom 1.5927680712740688 5.1661361386548865 19.6019675849975386 O
atom 1.5927704187083549 8.4799512734405784 17.2337401602906013 O
atom 0.0000027377680021 4.5486860578323034 20.7188416951495888 Pt
atom 1.5927489505447858 6.8230473296171770 23.0198295976430209 Pt
atom 6.3710918740509266 6.2056100404315018 21.9029319977905281 O
atom 0.0000002470386312 7.4404801288042997 24.1367313474972285 O
atom 1.5927923168276428 5.1661374022243267 24.2039432949974547 O
atom 1.5927933942618977 8.4799645670134858 21.8357258202863243 O
atom 3.1855473833216377 0.0000036513951252 25.3207992101491222 Pt
atom 4.7783090949911795 2.2743599060514974 18.4178654626437961 Pt
atom 3.1855503484972481 1.6568940068740752 17.3009915528012392 O
atom 3.1855464314850939 2.8917955652308560 19.5347449324969631 O
atom 4.7783403312740429 0.6174514486578651 19.6019769199976786 O
atom 4.7783375287083416 3.9312619934422677 17.2337457952923181 O
atom 3.1855460577680339 0.0000387578289261 20.7188327901366058 Pt
atom 4.7783295205447942 2.2743611196163331 23.0198279626437134 Pt
atom 3.1855508840508411 1.6569386404413995 21.9029611927859627 O
atom 3.1855447670387855 2.8917975687873079 24.1366833724965453 O
atom 4.7783151568276718 0.6174500722212236 24.2039351799983500 O
atom 4.7783143242619364 3.9312717870093379 21.8357147052891101 O
atom 3.1855450322143417 4.5486724942723695 16.1168932651540260 Pt
atom 4.7783226149912021 6.8230310960487870 18.4178568976484840 Pt
atom 3.1855449784972429 6.2055950068743480 17.3009915477954870 O
atom 3.1855477614851755 7.4404902352216151 19.5347176274934355 O
atom 4.7783191012740378 5.1661268286580473 19.6019766550008008 O
atom 4.7783169287083362 8.4799408834425556 17.2337458302942217 O
atom 3.1855382977679736 4.5487100378353453 20.7188504251412020 Pt
atom 4.7783424605447884 6.8230505396166272 23.0198280176420518 Pt
atom 3.1855463740507672 6.2056164604493098 21.9029831077882982 O
atom 3.1855458670388033 7.4404704287851056 24.1366762675006150 O
atom 4.7782984568276303 5.1661421522255955 24.2039469349956740 O
atom 4.7782999142619005 8.4799674170130892 21.8357246802851925 O
atom 6.3710860733215755 0.0000335814020413 25.3208190501386703 Pt
atom 1.5927876560983907 2.2743618631834850 27.6217971126437583 Pt
atom 0.0000001696044221 1.6569382640101797 26.5049350127863654 O
atom 0.0000038225923299 2.8917754423601822 28.7386689425045425 O
atom 1.5927547298155302 3.9312690705767102 26.4376844852903012 O
atom 1.5927703760984111 6.8230510831809061 27.6217889176420606 Pt
atom 0.0000020596044936 6.2056239140019658 26.5049106477859731 O
atom 6.3710906325923267 7.4404729823600313 28.7386677174999896 O
atom 1.5927703798155544 8.4799575805737994 26.4376753402889584 O
atom 4.7783090560983785 2.2743662131847162 27.6218006426421603 Pt
atom 3.1855503096044475 1.6569003140072947 26.5049267327995999 O
atom 3.1855463925922933 2.8918018723640753 28.7386801124953273 O
atom 4.7783374898155406 3.9312683005754865 26.4376809752906787 O
atom 3.1855449933215403 4.5486788014055906 25.3208284451523831 Pt
atom 4.7783225760984003 6.8230374031820062 27.6217920776468411 Pt
atom 3.1855449396044424 6.2056013140075681 26.5049267277938547 O
atom 3.1855477225923750 7.4404965423548362 28.7386528074917926 O
atom 4.7783168898155353 8.4799471905757748 26.4376810102925752 O
