#===============================================================================
# Created using the Atomic Simulation Environment (ASE)

# Mon Mar 23 14:01:22 2026

#=======================================================
lattice_vector 11.2383934762033828 0.0000000000000000 0.0000000000000000 
lattice_vector 3.7416502063603971 10.5972441125269068 0.0000000000000000 
lattice_vector 0.0000000000000000 0.0000000000000000 32.2936934653167995 
atom 4.6938693072154898 3.3205644084303660 17.2936883611722578 Pt
atom 3.5336765773049486 4.9605849641207866 17.2936850388440284 O
atom 5.8540598375468686 1.6805401399781716 17.2936825310444462 O
atom 4.9152878103384587 3.4772059521440162 15.2730418554093710 O
atom 6.3432726379166029 4.4873975185582555 17.0206527723722232 O
atom 6.5646959061743058 4.6440311039360047 15.0000050523685147 Pt
atom 1.8842750299837050 1.3329836758287985 16.1468491502633995 Pt
atom 5.4045015140509589 6.2840512459535036 15.0000012664420659 O
atom 7.7248824897187989 3.0040045284791401 15.0000017398194601 O
atom 8.4355193568907350 9.9426476907475330 15.0000026760879734 Pt
atom 3.7550948123654546 6.6316037826256382 16.1468421942204294 Pt
atom 3.5336831619409392 0.9854311115794033 15.0000093307549704 O
atom 9.5957142147200951 8.3026268387956783 15.0000059516115201 O
atom 6.5646948004021377 8.6191823535187311 17.2936852115874622 Pt
atom 5.4045081686124501 10.2592092066620868 17.2936934653167960 O
atom 7.7248906406806706 6.9791616249126864 17.2936880732517899 O
atom 6.7861054952745459 8.7758250688658084 15.2730350345443853 O
atom 8.2140954374819639 9.7860194566294219 17.0206506061452636 O
atom 12.1838892993083370 4.6440225316251240 15.0000000000000000 Pt
atom 7.5034650888802830 1.3329819000554102 16.1468397022108050 Pt
atom 11.0236989693579641 6.2840479985401361 15.0000009318184766 O
atom 2.1056908366436575 3.0040014433638129 15.0000031248170806 O
atom 10.3130656227853859 3.3205576350127566 17.2936840729056165 Pt
atom 9.1528751958461871 4.9605831719001534 17.2936833827817367 O
atom 11.4732592403820846 1.6805353426899023 17.2936875837041875 O
atom 10.5344881627137177 3.4771859672853460 15.2730355125314290 O
atom 11.9624795236157286 4.4873818177297231 17.0206517706238536 O
atom 12.1838986846439017 8.6191874045396322 17.2936928450807663 Pt
atom 11.0237044676919744 10.2592105547737305 17.2936914890818620 O
atom 13.3440885981755208 6.9791616776862684 17.2936924838124426 O
atom 12.4053185729266726 8.7758145712213320 15.2730418027569996 O
atom 13.8333081740907726 9.7860088043383016 17.0206582226348822 O
atom 14.0547238826944838 9.9426514113458548 15.0000123552044009 Pt
atom 9.3742961115218701 6.6316066064635049 16.1468460241772895 Pt
atom 9.1528799701618464 0.9854316765454247 15.0000076713132913 O
atom 3.9765217101650823 8.3026272742205283 15.0000076981045005 O
