#===============================================================================
# Created using the Atomic Simulation Environment (ASE)

# Mon Mar 23 14:01:20 2026

#=======================================================
lattice_vector 11.1064369649213504 0.0000000000000000 0.0000000000000000 
lattice_vector 0.0000051885324174 9.2039351799990605 0.0000000000000000 
lattice_vector 0.0000000000000000 0.0000000000000000 34.5102605752716727 
atom 10.9641558921594680 4.6019451099538689 15.9504634653439474 Pt
atom 1.2148925107829673 5.7860739429376231 15.0000000000000000 O
atom 3.9914902477322136 5.7188388954401539 15.0000039923222666 O
atom 2.6342904120539874 2.3009765124658359 15.9504569210203648 Pt
atom 1.2148826183721952 1.1840751329387398 15.0000075344111501 O
atom 3.9915031209430207 1.1168631854325695 15.0000227837923781 O
atom 8.1875192666118934 6.9029406474609054 15.9504684803375518 Pt
atom 6.7681011222789875 5.7860615479386697 15.0000092995971812 O
atom 9.5447238131644081 5.7188295604317352 15.0000252505827305 O
atom 6.7680985263579192 1.1841231079395267 15.0000072924848951 O
atom 9.5447104995542880 1.1168713004397464 15.0000020473404909 O
atom 5.4109395165379510 9.2039128449542549 15.9504597535095449 Pt
atom 5.4109049011676573 4.6019556849611849 15.9504739806696030 Pt
atom 10.9641228657073100 9.2039222399608143 15.9504781135488436 Pt
atom 10.0148925934368940 6.9029431607786931 18.5597920050778704 Pt
atom 9.6069430502696438 8.0198059069773944 16.9009491540431931 O
atom 8.5954803910552648 5.7860717012605187 17.6093028178639841 O
atom 0.2656205656391268 5.7188297837707038 17.6092977948989926 O
atom 8.6576881013184863 8.0870554178082550 19.5102331334912087 O
atom 10.0148871607516856 2.3009793707845168 18.5597684101745699 Pt
atom 9.6069384924411931 3.4178711969786786 16.9009478494379870 O
atom 8.5954598099100199 1.1840956012634489 17.6093168977982728 O
atom 0.2656373409982533 1.1168645537640516 17.6093058937305749 O
atom 8.6576964579801174 3.4850807278028038 19.5102475676250755 O
atom 7.2382571319565141 0.0000073982860601 18.5597907155268480 Pt
atom 2.6343048165597649 6.9029523724585280 15.9504748309723361 Pt
atom 5.8810802749046038 8.0198292553032431 19.5102570549323175 O
atom 1.2771197959611704 8.0870655794773878 16.9009425253213124 O
atom 7.2382861843429405 4.6019633982810806 18.5597746462986457 Pt
atom 5.8810849728822614 3.4178727253032135 19.5102487799328941 O
atom 1.2771220867800470 3.4850799194717146 16.9009671774073666 O
atom 1.6850650736313455 0.0000058832819149 18.5597728022168482 Pt
atom 0.3278949738101869 8.0198131702977005 19.5102363260953915 O
atom 6.8303541668550967 8.0870599444700542 16.9009569321714572 O
atom 1.6850355572877878 4.6019723032866597 18.5597936479688741 Pt
atom 8.1875299894785005 2.3009781474545474 15.9504841141364544 Pt
atom 0.3278587213221672 3.4178435303031756 19.5102605752716762 O
atom 6.8303328338779501 3.4850910344788271 16.9009417501241863 O
atom 4.4616750069698936 6.9029481957812040 18.5597776126182090 Pt
atom 4.0537413448102466 8.0198141919751684 16.9009356650369327 O
atom 3.0422306373243160 5.7860878362658275 17.6093219160159755 O
atom 5.8188561874812290 5.7188288087637549 17.6093083224160694 O
atom 3.1044840274964516 8.0870588928023093 19.5102425335177507 O
atom 4.4616704647879839 2.3009770757773085 18.5598032287833909 Pt
atom 4.0537245725646374 3.4178226319774700 16.9009473216750763 O
atom 3.0422457742012767 1.1841291962640341 17.6093072094246779 O
atom 5.8188317933550540 1.1168585287723927 17.6092984095116378 O
atom 3.1044525334813193 3.4850800428111786 19.5102420244732038 O
