#===============================================================================
# Created using the Atomic Simulation Environment (ASE)

# Mon Mar 23 14:01:24 2026

#=======================================================
lattice_vector 12.9808606199443606 0.0000000000000000 0.0000000000000000 
lattice_vector -0.0000000000000017 6.4846065199999998 0.0000000000000000 
lattice_vector 0.0000000000000000 0.0000000000000000 35.7178220497554122 
atom 12.9808530326881861 4.8634544153870980 16.2363038592727484 Pt
atom 10.9719442259928393 4.8634549953870883 16.2362997392013781 O
atom 2.0089029801361975 4.8634575253870871 16.2362987233165690 O
atom 12.9808491035349380 0.0000006026908780 15.0000033587551087 O
atom 12.9808482573565787 6.4846059880833256 17.4726075700541230 O
atom 12.9808535771601878 1.6211525353871035 16.2363057118925873 Pt
atom 10.9719441482110494 1.6211523153870899 16.2363001351811640 O
atom 2.0089031286285688 1.6211506453870892 16.2362991334385285 O
atom 0.0000056804279011 3.2423027026908695 15.0000000000000000 O
atom 0.0000050675937362 3.2423041280833371 17.4726127743621511 O
atom 9.7356411410001904 4.8634543024645112 19.4815165853474497 Pt
atom 9.7356410915030835 0.0000002253870872 16.2362984110153938 Pt
atom 9.7356479669416967 6.4846060397682805 18.2452110290176357 O
atom 9.7356406672387319 1.6211519424645104 19.4815159206670145 Pt
atom 9.7356425905693538 3.2423041553870875 16.2362993090411898 Pt
atom 9.7356312721508615 3.2423032197682753 18.2452087945581667 O
atom 3.2452123866634390 4.8634539524645026 19.4815124487729747 Pt
atom 3.2452098552213231 0.0000012753870815 16.2362959361415484 Pt
atom 1.2363009566011534 4.8634549124645066 19.4815147280176433 O
atom 5.2541229469834860 4.8634546124645128 19.4815175305097767 O
atom 3.2452055442306378 6.4846061897682752 18.2452086672795097 O
atom 3.2452120613941808 1.6211511924645048 19.4815135589305726 Pt
atom 3.2452060863419989 3.2423040353870847 16.2362974352074687 Pt
atom 1.2363005181949520 1.6211532724645077 19.4815146643779826 O
atom 5.2541227984910481 1.6211502824645141 19.4815176153625771 O
atom 3.2452212490722654 3.2423022897682747 18.2452085400022099 O
atom 6.4904263077464206 4.8634559753871169 16.2363117647270023 Pt
atom 12.9808555287751641 0.0000009424645163 19.4815187031321599 Pt
atom 4.4815145241313346 4.8634553653871091 16.2363092356455283 O
atom 8.4993377095244327 4.8634542653871105 16.2363095420508650 O
atom 6.4904349155974135 0.0000003026908773 15.0000029839904876 O
atom 6.4904346492456737 6.4846056380833428 17.4726149310377501 O
atom 6.4904282381477012 1.6211501953871208 16.2363137021998227 Pt
atom 4.4815157474260205 1.6211527353871111 16.2363096174833359 O
atom 8.4993391449511577 1.6211529753871119 16.2363098956044318 O
atom 6.4904176692631115 3.2423024826908753 15.0000022203130570 O
atom 6.4904174665509791 3.2423035280833394 17.4726141885735338 O
atom 6.4904266895843783 6.4846057624645281 19.4815245367632883 Pt
atom 6.4904266259449637 3.2423024424645250 19.4815229387019571 Pt
atom 7.7267305311808663 4.8634545624645327 19.4815262609291580 O
atom 11.7445514184775099 4.8634548624645229 19.4815217802213141 O
atom 9.7356500128296677 0.0000000251607347 20.7178185707899303 O
atom 7.7267302412671102 1.6211504224645321 19.4815260770813552 O
atom 11.7445514114064871 1.6211534124645226 19.4815214408100559 O
atom 9.7356310765098453 3.2423028951607389 20.7178204021941852 O
atom 3.2452024635941110 6.4846054351607352 20.7178189455544270 O
atom 3.2452206786644195 3.2423028951607424 20.7178220497554122 O
atom 12.9808557833333698 3.2423045724645210 19.4815206476758362 Pt
