#===============================================================================
# Created using the Atomic Simulation Environment (ASE)

# Mon Mar 23 14:01:22 2026

#=======================================================
lattice_vector 9.1788542800000368 0.0000000000000000 0.0000000000000000 
lattice_vector 0.0000016600002026 9.1788565199998882 0.0000000000000000 
lattice_vector 0.0000000000000000 0.0000000000000000 30.0000032050000129 
atom 2.2947133510076885 2.2947178560073263 15.0000008649999970 Pt
atom 0.8741962294576098 3.7152276944579183 15.0000010849999939 O
atom 3.7152224025569405 0.8741988975574626 15.0000027549999899 O
atom 2.2947124160072407 6.8841400560074293 15.0000014699999937 Pt
atom 0.8742057144582306 8.3046617244570733 15.0000029900000058 O
atom 3.7152304275572345 5.4636292475567592 15.0000000000000000 O
atom 6.8841382610068989 2.2947089210075271 15.0000022199999847 Pt
atom 5.4636243694573841 3.7152249794578287 15.0000001399999903 O
atom 8.3046552325567937 0.8741970825569477 15.0000031299999890 O
atom 6.8841504860079992 6.8841482510064385 15.0000032050000129 Pt
atom 5.4636322544582141 8.3046613094571331 15.0000006650000088 O
atom 8.3046620175573853 5.4636307325563553 15.0000004250000032 O
