#===============================================================================
# Created using the Atomic Simulation Environment (ASE)

# Mon Mar 23 14:01:18 2026

#=======================================================
lattice_vector 9.0973690600005526 0.0000000000000000 0.0000000000000000 
lattice_vector 0.0000063071332193 9.2039351799983606 0.0000000000000000 
lattice_vector 0.0000000000000000 0.0000000000000000 41.1494411574999930 
atom 0.0000146600023695 0.0000067861506193 15.0000000000000000 Pt
atom 1.6569233561656611 5.7860574587971678 15.0000042962864981 O
atom 7.4404540609603611 3.4178554535119230 15.0000045737134613 O
atom 6.2055974261650491 5.7860549138008119 15.0000057862864935 O
atom 0.0000146600023625 0.0000067592284797 21.3710923900000047 Pt
atom 2.2743429417838121 2.3009848419250734 16.5927939824999982 Pt
atom 1.6569193426105084 1.1841227487982855 15.0000064912865341 O
atom 2.8917565209605112 3.4178566785164493 15.0000101537134682 O
atom 0.6174376843909789 3.4850985892777793 16.5927607437865277 O
atom 3.9312501491770369 1.1168722145717598 16.5927610512134649 O
atom 9.0973492935728544 4.6019839161628848 15.0000084350000122 Pt
atom 2.2743348853490981 6.9029486319281821 16.5927730274999874 Pt
atom 1.6569233561656542 5.7860574318750286 21.3710966862865028 O
atom 2.8917824845300872 8.0198327785076788 15.0000113687134728 O
atom 0.6174296179567662 8.0870638192808499 16.5927784887865215 O
atom 3.9312526127461207 5.7188469045711621 16.5927791562134743 O
atom 4.5487074871284223 9.2039206111482788 15.0000070199999769 Pt
atom 6.8230321617812333 2.3009766469234574 16.5927767024999859 Pt
atom 6.2056049926022929 1.1840983837978933 15.0000083812865057 O
atom 7.4404540609603531 3.4178554265897829 21.3710969637134625 O
atom 5.1661235243884338 3.4850904942773089 16.5927743637865177 O
atom 8.4799386591741257 1.1168630695703559 16.5927767012134595 O
atom 4.5486734435658533 4.6019646111598593 15.0000090349999908 Pt
atom 6.8230347153507243 6.9029525069228699 16.5927552574999950 Pt
atom 6.2055974261650437 5.7860548868786710 21.3710981762864911 O
atom 7.4404675145378478 8.0198542635075114 15.0000065587135012 O
atom 5.1661247879578731 8.0870662042771215 16.5927986287865252 O
atom 8.4799519527470313 5.7188487295659760 16.5927996962134756 O
atom 9.0973600971292221 9.2039221126983310 18.1855536999999785 Pt
atom 2.2743472917850398 2.3009883584625150 19.7783153824999971 Pt
atom 1.6568813926076194 1.1841144553504355 18.1855566312865236 O
atom 2.8917829509644011 3.4178678350461746 18.1855527237134780 O
atom 0.6174388343914073 3.4850998158162660 19.7783466237865291 O
atom 3.9312493791758096 1.1168686911109182 19.7783438112134640 O
atom 0.0000261435624700 4.6019556926858192 18.1855523549999774 Pt
atom 2.2743485053498746 6.9029508584623480 19.7783358274999941 Pt
atom 1.6569260261749432 5.7860840953351600 18.1855571862865304 O
atom 2.8917849545208529 8.0198062750457577 18.1855510787134449 O
atom 0.6174374579547661 8.0870580758170512 19.7783214687865190 O
atom 3.9312591727428803 5.7188376011078104 19.7783206262134641 O
atom 4.5486598800059150 0.0000161677032416 18.1855513100000117 Pt
atom 6.8230184817823316 2.3009797934671483 19.7783289024999860 Pt
atom 6.2055823926078943 1.1841144503447025 18.1855512612865269 O
atom 7.4404776209551624 3.4178405300426395 18.1855540537134495 O
atom 5.1661142143915919 3.4850995508194775 19.7783253937865240 O
atom 8.4799282691760993 1.1168687261129060 19.7783232112134648 O
atom 4.5486974235688908 4.6019733276904446 18.1855445949999961 Pt
atom 6.8230379253501718 6.9029509134606286 19.7783487674999918 Pt
atom 6.2056038461828544 5.7861060103375035 18.1855526762865516 O
atom 7.4404578145186520 8.0197991700498221 18.1855521787134400 O
atom 5.1661295379591374 8.0870698308144373 19.7783047687865228 O
atom 8.4799548027466329 5.7188475761039559 19.7783062162134726 O
atom 2.2743429417838050 2.3009848150029342 22.9638863724999958 Pt
atom 1.6569193426105013 1.1841227218761461 21.3710988812865317 O
atom 2.8917565209605041 3.4178566515943096 21.3711025437134658 O
atom 0.6174376843909719 3.4850985623556401 22.9638531337865253 O
atom 3.9312501491770302 1.1168721876496202 22.9638534412134661 O
atom 9.0973492935728473 4.6019838892407448 21.3711008250000134 Pt
atom 2.2743348853490910 6.9029486050060429 22.9638654174999921 Pt
atom 2.8917824845300801 8.0198327515855397 21.3711037587134776 O
atom 0.6174296179567593 8.0870637923587108 22.9638708787865191 O
atom 3.9312526127461136 5.7188468776490220 22.9638715462134755 O
atom 4.5487074871284161 9.2039205842261378 21.3710994099999816 Pt
atom 6.8230321617812253 2.3009766200013178 22.9638690924999835 Pt
atom 6.2056049926022867 1.1840983568757539 21.3711007712865033 O
atom 5.1661235243884258 3.4850904673551693 22.9638667537865118 O
atom 8.4799386591741204 1.1168630426482162 22.9638690912134535 O
atom 4.5486734435658462 4.6019645842377201 21.3711014249999884 Pt
atom 6.8230347153507171 6.9029524800007298 22.9638476474999891 Pt
atom 7.4404675145378407 8.0198542365853722 21.3710989487135024 O
atom 5.1661247879578660 8.0870661773549823 22.9638910187865193 O
atom 8.4799519527470242 5.7188487026438359 22.9638920862134768 O
atom 9.0973600971292150 9.2039220857761901 24.5566460899999797 Pt
atom 2.2743472917850327 2.3009883315403759 26.1494077724999983 Pt
atom 1.6568813926076122 1.1841144284282958 24.5566490212865247 O
atom 2.8917829509643940 3.4178678081240350 24.5566451137134791 O
atom 0.6174388343914005 3.4850997888941264 26.1494390137865196 O
atom 3.9312493791758030 1.1168686641887786 26.1494362012134616 O
atom 0.0000261435624631 4.6019556657636800 24.5566447449999821 Pt
atom 2.2743485053498675 6.9029508315402088 26.1494282174999881 Pt
atom 1.6569260261749366 5.7860840684130208 24.5566495762865280 O
atom 2.8917849545208463 8.0198062481236168 24.5566434687134496 O
atom 0.6174374579547590 8.0870580488949120 26.1494138587865166 O
atom 3.9312591727428732 5.7188375741856703 26.1494130162134653 O
atom 4.5486598800059079 0.0000161407811020 24.5566437000000128 Pt
atom 6.8230184817823245 2.3009797665450087 26.1494212924999871 Pt
atom 6.2055823926078864 1.1841144234225629 24.5566436512865245 O
atom 7.4404776209551544 3.4178405031204999 24.5566464437134471 O
atom 5.1661142143915848 3.4850995238973379 26.1494177837865251 O
atom 8.4799282691760922 1.1168686991907664 26.1494156012134624 O
atom 4.5486974235688828 4.6019733007683064 24.5566369850000008 Pt
atom 6.8230379253501638 6.9029508865384903 26.1494411574999930 Pt
atom 6.2056038461828482 5.7861059834153643 24.5566450662865456 O
atom 7.4404578145186457 8.0197991431276829 24.5566445687134376 O
atom 5.1661295379591312 8.0870698038922981 26.1493971587865275 O
atom 8.4799548027466258 5.7188475491818167 26.1493986062134738 O
