#===============================================================================
# Created using the Atomic Simulation Environment (ASE)

# Mon Mar 23 14:01:20 2026

#=======================================================
lattice_vector 6.3710923900000003 0.0000000000000000 0.0000000000000000 
lattice_vector -0.0000000000000100 9.0973690600005526 0.0000000000000000 
lattice_vector 0.0000000000000000 0.0000000000000000 48.3406477074961458 
atom 1.5927544901668491 0.6174439915242137 15.0000080950004104 O
atom 0.0000021766607374 9.0973556007060896 16.1168934151550687 Pt
atom 1.5927667594376036 2.2743411924823329 18.4178581376508674 Pt
atom 6.3710904229437251 1.6569296632988939 17.3009669577893419 O
atom 0.0000050959315045 2.8917887916633189 19.5347422774998769 O
atom 1.5927722157204562 0.6174359250900011 19.6019733250035593 O
atom 1.5927728931547094 3.9312589198793546 17.2337564102938714 O
atom 0.0000007422144389 4.5487137942616540 20.7188301101404591 Pt
atom 1.5927681101668698 5.1661298315216682 15.0000000000000000 O
atom 0.0000027766608029 4.5486797506990850 16.1168741101520467 Pt
atom 1.5927489894375868 6.8230410224839568 18.4178620126454788 Pt
atom 6.3710919129437276 6.2056037332982816 17.3009644127929860 O
atom 0.0000002859314321 7.4404738216710795 19.5347637624996899 O
atom 1.5927923557204435 5.1661310950911075 19.6019757099999126 O
atom 1.5927934331546989 8.4799582598802683 17.2337582352887750 O
atom 3.1855474222144280 9.0973664042624609 20.7188316251515836 Pt
atom 4.7783403701668439 0.6174451415246459 15.0000093350001364 O
atom 3.1855460966608340 0.0000324506957068 16.1168652051390708 Pt
atom 4.7783295594375952 2.2743548124831130 18.4178603776461713 Pt
atom 3.1855509229436416 1.6569323333081802 17.3009936077884277 O
atom 3.1855448059315865 2.8917912616540886 19.5347157874989996 O
atom 4.7783151957204719 0.6174437650880045 19.6019675950008185 O
atom 4.7783143631547356 3.9312654798761177 17.2337471202915715 O
atom 4.7783191401668397 5.1661205215248289 15.0000090700032587 O
atom 3.1855383366607737 4.5487037307021270 16.1168828401436599 Pt
atom 4.7783424994375894 6.8230442324834071 18.4178604326445097 Pt
atom 3.1855464129435682 6.2056101533160914 17.3010155227907525 O
atom 3.1855459059316042 7.4404641216518872 19.5347086825030694 O
atom 4.7782984957204295 5.1661358450923762 19.6019793499981283 O
atom 4.7782999531546997 8.4799611098798700 17.2337570952876575 O
atom 6.3710861122143747 0.0000272742688220 20.7188514651411282 Pt
atom 1.5927876949911914 2.2743555560502666 23.0198295276462090 Pt
atom 0.0000002084972230 1.6569319568769605 21.9029674277888233 O
atom 0.0000038614851308 2.8917691352269634 24.1367013575070040 O
atom 1.5927544512740481 0.6174502986574331 24.2039432749987746 O
atom 1.5927547687083312 3.9312627634434905 21.8357169002927556 O
atom 0.0000021377679365 9.0973619078393071 25.3208285951534293 Pt
atom 1.5927667205448026 2.2743474996155526 27.6217933176492210 Pt
atom 6.3710903840509232 1.6569359704321129 26.5049021377876954 O
atom 0.0000050570387036 2.8917950987965391 28.7386774574982411 O
atom 1.5927721768276553 0.6174422322232203 28.8059085050019235 O
atom 1.5927728542619086 3.9312652270125747 26.4376915902922320 O
atom 0.0000007033216380 4.5487201013948741 29.9227652901388197 Pt
atom 1.5927704149912121 6.8230447760476851 23.0198213326445220 Pt
atom 0.0000020984972945 6.2056176068687448 21.9029430627884416 O
atom 6.3710906714851268 7.4404666752268120 24.1367001325024511 O
atom 1.5927680712740688 5.1661361386548865 24.2039351799983571 O
atom 1.5927704187083549 8.4799512734405784 21.8357077552914198 O
atom 0.0000027377680021 4.5486860578323034 25.3208092901504074 Pt
atom 1.5927489505447858 6.8230473296171770 27.6217971926438395 Pt
atom 6.3710918740509266 6.2056100404315018 26.5048995927913467 O
atom 0.0000002470386312 7.4404801288042997 28.7386989424980470 O
atom 1.5927923168276428 5.1661374022243267 28.8059108899982732 O
atom 1.5927933942618977 8.4799645670134858 26.4376934152871428 O
atom 3.1855473833216377 0.0000036513951252 29.9227668051499407 Pt
atom 4.7783090949911795 2.2743599060514974 23.0198330576446146 Pt
atom 3.1855503484972481 1.6568940068740752 21.9029591478020578 O
atom 3.1855464314850939 2.8917955652308560 24.1367125274977816 O
atom 4.7783403312740429 0.6174514486578651 24.2039445149984971 O
atom 4.7783375287083416 3.9312619934422677 21.8357133902931366 O
atom 3.1855460577680339 0.0000387578289261 25.3208003851374244 Pt
atom 4.7783295205447942 2.2743611196163331 27.6217955576445320 Pt
atom 3.1855508840508411 1.6569386404413995 26.5049287877867812 O
atom 3.1855447670387855 2.8917975687873079 28.7386509674973638 O
atom 4.7783151568276718 0.6174500722212236 28.8059027749991685 O
atom 4.7783143242619364 3.9312717870093379 26.4376823002899286 O
atom 3.1855450322143417 4.5486724942723695 20.7188608601548445 Pt
atom 4.7783226149912021 6.8230310960487870 23.0198244926493025 Pt
atom 3.1855449784972429 6.2055950068743480 21.9029591427963055 O
atom 3.1855477614851755 7.4404902352216151 24.1366852224942541 O
atom 4.7783191012740378 5.1661268286580473 24.2039442500016193 O
atom 4.7783169287083362 8.4799408834425556 21.8357134252950402 O
atom 3.1855382977679736 4.5487100378353453 25.3208180201420205 Pt
atom 4.7783424605447884 6.8230505396166272 27.6217956126428703 Pt
atom 3.1855463740507672 6.2056164604493098 26.5049507027891167 O
atom 3.1855458670388033 7.4404704287851056 28.7386438625014335 O
atom 4.7782984568276303 5.1661421522255955 28.8059145299964925 O
atom 4.7782999142619005 8.4799674170130892 26.4376922752860111 O
atom 6.3710860733215755 0.0000335814020413 29.9227866451394888 Pt
atom 1.5927876560983907 2.2743618631834850 32.2237647076445768 Pt
atom 0.0000001696044221 1.6569382640101797 31.1069026077871840 O
atom 0.0000038225923299 2.8917754423601822 33.3406365375053610 O
atom 1.5927547298155302 3.9312690705767102 31.0396520802911198 O
atom 1.5927703760984111 6.8230510831809061 32.2237565126428791 Pt
atom 0.0000020596044936 6.2056239140019658 31.1068782427867916 O
atom 6.3710906325923267 7.4404729823600313 33.3406353125008081 O
atom 1.5927703798155544 8.4799575805737994 31.0396429352897769 O
atom 4.7783090560983785 2.2743662131847162 32.2237682376429788 Pt
atom 3.1855503096044475 1.6569003140072947 31.1068943278004184 O
atom 3.1855463925922933 2.8918018723640753 33.3406477074961458 O
atom 4.7783374898155406 3.9312683005754865 31.0396485702914973 O
atom 3.1855449933215403 4.5486788014055906 29.9227960401532016 Pt
atom 4.7783225760984003 6.8230374031820062 32.2237596726476596 Pt
atom 3.1855449396044424 6.2056013140075681 31.1068943227946733 O
atom 3.1855477225923750 7.4404965423548362 33.3406204024926112 O
atom 4.7783168898155353 8.4799471905757748 31.0396486052933938 O
