#===============================================================================
# Created using the Atomic Simulation Environment (ASE)

# Mon Mar 23 14:01:23 2026

#=======================================================
lattice_vector 11.2383934762033828 0.0000000000000000 0.0000000000000000 
lattice_vector 0.0000013697273223 9.1788565199999361 0.0000000000000000 
lattice_vector 0.0000000000000000 0.0000000000000000 44.8799033192922394 
atom 10.3063433730800451 2.2947184612878333 15.8196473686700898 Pt
atom 9.1461489809566974 3.7152282159688594 15.0000022606547496 O
atom 0.7173649266777622 3.1689107359684239 15.0000099087432339 O
atom 7.4967422792712011 4.5894255412879783 15.8196460343635970 Pt
atom 10.3063422673078922 6.8841406612879066 15.8196468443851721 Pt
atom 9.1461556355181983 8.3046622459687125 15.0000088105218410 O
atom 0.7173494281843231 7.7583464559690922 15.0000000000000000 O
atom 4.6871432900106988 2.2947085112880790 15.8196472767664993 Pt
atom 3.5269529600603318 3.7152252359688740 15.0000035937963787 O
atom 6.3365452048246889 3.1689159659691808 15.0000006861442863 O
atom 1.8775432682554465 9.1788564312880254 15.8196432713669424 Pt
atom 3.5269584583943359 8.3046624259686244 15.0000064250429475 O
atom 6.3365621647931301 7.7583410359685079 15.0000119208143090 O
atom 1.8775501022242311 4.5894299012877342 15.8196479404149954 Pt
atom 8.4355167741212416 2.2947178069319554 18.4677688189055367 Pt
atom 7.4967479094967739 0.0000035312878298 15.8196517140554995 Pt
atom 7.2753240442106941 3.7152281516128678 17.6481239056945363 O
atom 9.5957073044526187 0.8741996722508966 19.2874076602182178 O
atom 8.6569352772442105 1.4205241166069975 16.6392901435404674 O
atom 10.0849201048223538 3.1689196516129980 17.6481231183748939 O
atom 6.5646945364469698 2.2947190025757362 21.1158899709824688 Pt
atom 5.6259224968894506 0.0000027169318237 18.4677723862355982 Pt
atom 5.4045001443236256 3.7152287572567628 20.2962448629671250 O
atom 0.2281364804211637 0.8741995866072403 16.6392895435805386 O
atom 6.7861181814096287 1.4205098522507400 19.2874180381082887 O
atom 8.2141095662480677 3.1689112772563273 20.2962525110556093 O
atom 8.4355179871634096 6.8841410669319112 18.4677693450968903 Pt
atom 3.7550934426381279 4.5894260825758817 21.1158886366759724 Pt
atom 7.2753319985740088 8.3046624416125816 17.6481295862427388 O
atom 9.5957128449927698 5.4636304422508477 19.2874143658319817 O
atom 8.6569392220562804 6.0099361966069083 16.6392937873001365 O
atom 10.0849285895817040 7.7583320416126309 17.6481279615006059 O
atom 6.5646934306748133 6.8841412025758100 21.1158894466975475 Pt
atom 5.6259196319234492 4.5894253869318202 18.4677677663265492 Pt
atom 5.4045067988851230 8.3046627872566159 20.2962514128342200 O
atom 0.2281446313830302 5.4636299366067487 16.6392914450088192 O
atom 6.7861041255472170 6.0099466922512423 19.2874070058811462 O
atom 8.2140940677546315 7.7583469972569956 20.2962426023123790 O
atom 0.9454944533776259 2.2947090525759823 21.1158898790788747 Pt
atom 0.0067204493099650 9.1788529769318856 18.4677650902455674 Pt
atom 11.0236975996306388 3.7152257772567774 20.2962461961087577 O
atom 5.8473383035494093 0.8741976066070009 16.6392922850680911 O
atom 1.1669091079837060 1.4205151022512019 19.2874090603011403 O
atom 2.5948963681916184 3.1689165072570842 20.2962432884566617 O
atom 2.8163196134877495 2.2947097969319699 18.4677684897898793 Pt
atom 9.3742865380984259 0.0000004525759907 21.1158858736793213 Pt
atom 1.6561291865485464 3.7152257716126997 17.6481233669957938 O
atom 3.9765132310844518 0.8741980422510450 19.2874144341716978 O
atom 3.0377421534160849 1.4205036366069579 16.6392946375670512 O
atom 4.4657335143180923 3.1689055516125970 17.6481300975944144 O
atom 4.6871526753462680 6.8841488512875841 15.8196509317972449 Pt
atom 0.0067242003839250 4.5894289769317673 18.4677686465229307 Pt
atom 11.0237030979646402 8.3046629672565295 20.2962490273553229 O
atom 5.8473425888778836 5.4636321866068513 16.6392952388630420 O
atom 1.1669237269959625 6.0099409822505923 19.2874181146674957 O
atom 2.5949133281600560 7.7583415772564113 20.2962545231266880 O
atom 2.8163290367637788 6.8841491269316624 18.4677758692482250 Pt
atom 9.3742947417945377 4.5894304425756376 21.1158905427273744 Pt
atom 1.6561353305915347 8.3046621016124877 17.6481278665528727 O
atom 3.9765203404377583 5.4636316922505959 19.2874156609509484 O
atom 3.0377371209543593 6.0099523666071315 16.6392903474351357 O
atom 4.4657280578435063 7.7583529316127606 17.6481249691826712 O
atom 4.6938679374881636 2.2947183482198588 23.7640114212179157 Pt
atom 3.7550990728637035 0.0000040725757334 21.1158943163678785 Pt
atom 3.5336752075776254 3.7152286929007716 22.9443665080069117 O
atom 5.8540584678195442 0.8742002135388004 24.5836502625305968 O
atom 4.9152864406111343 1.4205246578949009 21.9355327458528429 O
atom 6.3432712681892784 3.1689201929009023 22.9443657206872693 O
atom 2.8230456998138962 2.2947195438636405 26.4121325732948407 Pt
atom 1.8842736602563805 0.0000032582197273 23.7640149885479808 Pt
atom 1.6628513076905478 3.7152292985446667 25.5924874652795005 O
atom 7.7248811199914726 0.8742001278951440 21.9355321458929176 O
atom 3.0444693447765521 1.4205103935386432 24.5836606404206641 O
atom 4.4724607296149985 3.1689118185442311 25.5924951133679919 O
atom 4.6938691505303369 6.8841416082198128 23.7640119474092621 Pt
atom 0.0134446060050544 4.5894266238637851 26.4121312389883478 Pt
atom 3.5336831619409370 8.3046629829004885 22.9443721885551142 O
atom 5.8540640083596989 5.4636309835387502 24.5836569681443571 O
atom 4.9152903854232095 6.0099367378948108 21.9355363896125155 O
atom 6.3432797529486304 7.7583325829005334 22.9443705638129849 O
atom 2.8230445940417472 6.8841417438637134 26.4121320490099301 Pt
atom 1.8842707952903779 4.5894259282197236 23.7640103686389246 Pt
atom 1.6628579622520514 8.3046633285445211 25.5924940151465954 O
atom 7.7248892709533372 5.4636304778946529 21.9355340473211946 O
atom 3.0444552889141443 6.0099472335391448 24.5836496081935216 O
atom 4.4724452311215561 7.7583475385448990 25.5924852046247544 O
atom 8.4422390929479274 2.2947095938638862 26.4121324813912466 Pt
atom 7.5034650888802741 9.1788535182197890 23.7640076925579464 Pt
atom 7.2820487629975625 3.7152263185446812 25.5924887984211331 O
atom 2.1056894669163331 0.8741981478949045 21.9355348873804701 O
atom 8.6636537475540116 1.4205156435391053 24.5836516626135086 O
atom 10.0916410077619201 3.1689170485449880 25.5924858907690371 O
atom 10.3130642530580623 2.2947103382198737 23.7640110921022618 Pt
atom 5.6326377014653524 0.0000009938638964 26.4121284759916968 Pt
atom 9.1528738261188565 3.7152263129006036 22.9443659693081692 O
atom 0.2348643944513808 0.8741985835389486 24.5836570364840732 O
atom 10.5344867929863923 1.4205041778948613 21.9355372398794266 O
atom 0.7240846776850161 3.1689060929005013 22.9443726999067898 O
atom 0.9455038387131947 6.8841493925754866 21.1158935341096239 Pt
atom 7.5034688399542322 4.5894295182196707 23.7640112488353097 Pt
atom 7.2820542613315666 8.3046635085444329 25.5924916296676948 O
atom 2.1056937522448078 5.4636327278947547 21.9355378411754209 O
atom 8.6636683665662719 6.0099415235384956 24.5836607169798711 O
atom 10.0916579677303577 7.7583421185443147 25.5924971254390599 O
atom 10.3130736763340867 6.8841496682195658 23.7640184715606040 Pt
atom 5.6326459051614695 4.5894309838635410 26.4121331450397498 Pt
atom 9.1528799701618446 8.3046626429003929 22.9443704688652481 O
atom 0.2348715038046872 5.4636322335384984 24.5836582632633274 O
atom 10.5344817605246668 6.0099529078950349 21.9355329497475147 O
atom 0.7240792212104331 7.7583534729006631 22.9443675714950466 O
atom 0.9522191008550924 2.2947188895077621 29.0602540235302911 Pt
atom 0.0134502362306228 0.0000046138636370 26.4121369186802539 Pt
atom 11.0304198471479324 3.7152292341886750 28.2406091103192907 O
atom 2.1124096311864733 0.8742007548267039 29.8798928648429687 O
atom 1.1736376039780614 1.4205251991828045 27.2317753481652254 O
atom 2.6016224315561973 3.1689207341888057 28.2406083229996483 O
atom 9.3810182998266818 0.0000037995076309 29.0602575908603562 Pt
atom 3.9832322833584000 0.8742006691830474 27.2317747482052930 O
atom 10.5412139843468644 1.4205109348265470 29.8799032427330324 O
atom 0.9522203138972659 6.8841421495077180 29.0602545497216447 Pt
atom 11.0304278015112391 8.3046635241883902 28.2406147908674896 O
atom 2.1124151717266177 5.4636315248266545 29.8798995704567396 O
atom 1.1736415487901337 6.0099372791827159 27.2317789919248874 O
atom 2.6016309163155587 7.7583331241884377 28.2406131661253568 O
atom 9.3810154348606805 4.5894264695076270 29.0602529709513000 Pt
atom 3.9832404343202636 5.4636310191825554 27.2317766496335736 O
atom 10.5411999284844562 6.0099477748270491 29.8798922105058971 O
atom 3.7618162522471987 9.1788540595076924 29.0602502948703219 Pt
atom 9.6024341064866459 0.8741986891828081 27.2317774896928491 O
atom 4.9220049109209425 1.4205161848270089 29.8798942649258841 O
atom 6.5714154164249887 2.2947108795077771 29.0602536944146337 Pt
atom 5.4112249894857802 3.7152268541885070 28.2406085716205482 O
atom 7.7316090340216883 0.8741991248268524 29.8798996387964486 O
atom 6.7928379563533161 1.4205047191827649 27.2317798421918091 O
atom 8.2208293172553226 3.1689066341884047 28.2406153022191724 O
atom 8.4422484782835063 6.8841499338633909 26.4121361364219993 Pt
atom 3.7618200033211586 4.5894300595075741 29.0602538511476851 Pt
atom 9.6024383918151202 5.4636332691826590 27.2317804434877964 O
atom 4.9220195299331939 6.0099420648263990 29.8799033192922430 O
atom 6.5714248397010122 6.8841502095074691 29.0602610738729723 Pt
atom 5.4112311335287684 8.3046631841882963 28.2406130711776271 O
atom 7.7316161433749899 5.4636327748264026 29.8799008655757028 O
atom 6.7928329238915879 6.0099534491829383 27.2317755520598865 O
atom 8.2208238607807402 7.7583540141885674 28.2406101738074220 O
