#===============================================================================
# Created using the Atomic Simulation Environment (ASE)

# Mon Mar 23 14:01:22 2026

#=======================================================
lattice_vector 11.2383934762033828 0.0000000000000000 0.0000000000000000 
lattice_vector 3.7416502063603971 10.5972441125269068 0.0000000000000000 
lattice_vector 0.0000000000000000 0.0000000000000000 39.1747455021532360 
atom 12.1771669804816369 8.6144276876553842 15.0000058301278081 Pt
atom 11.0169742505710957 10.2544482433458075 15.0000025077995822 O
atom 13.3373575108130176 6.9744034192031892 15.0000000000000000 O
atom 10.5277683877700259 7.4475875267743046 15.2730414130151075 O
atom 8.6569392220562822 2.1489655198496882 15.2730380360287477 O
atom 10.3063422673078957 3.3158015202168438 15.0000026805430124 Pt
atom 5.6259196319234492 0.0047565460948755 16.1468434658870095 Pt
atom 9.1461556355182037 4.9558283733601991 15.0000109342723462 O
atom 11.4665381075864179 1.6757807916107987 15.0000055422073402 O
atom 4.9085593143441102 7.4475965609761996 15.2730362606639751 O
atom 6.5579698198481493 8.6144209142377743 15.0000015418611703 Pt
atom 1.8775432682554494 5.3033828446466060 16.1468422263723497 Pt
atom 5.3977793929089408 10.2544464511251743 15.0000008517372834 O
atom 7.7181634374448507 6.9743986219149203 15.0000050526597377 O
atom 4.6871526753462733 3.3158065712377462 15.0000103140363166 Pt
atom 0.0067242003839275 0.0047592156907233 16.1468460224674004 Pt
atom 3.5269584583943399 4.9558297214718428 15.0000089580374123 O
atom 5.8473425888778872 1.6757808443843816 15.0000099527679929 O
atom 3.0377371209543584 2.1489812447363699 15.2730431379418512 O
atom 8.4355181438485651 5.9674960480428769 19.5873731140682530 Pt
atom 7.4967492792241028 5.3033817606788833 16.1468513482363178 Pt
atom 7.2753254139380239 7.6075166037332966 19.5873697917400307 O
atom 9.5957086741799476 4.3274717795906783 19.5873672839404414 O
atom 8.6569366469715341 6.1241375917565266 17.5667266083053590 O
atom 10.0849214745496774 7.1343291581707629 19.3143375252682148 O
atom 10.3063447428073722 7.2909627435485156 17.2936898052645063 Pt
atom 5.6259238666167803 3.9799153154413074 18.4405339031593947 Pt
atom 9.1461503506840245 8.9309828855660136 17.2936860193380575 O
atom 11.4665313263518680 5.6509361680916488 17.2936864927154552 O
atom 6.7861195511369452 4.8006558871617973 19.8604086969555489 O
atom 11.9557597726084648 8.4577834461210681 17.0206565712532196 O
atom 8.4355179871634132 1.9923352178331355 17.2936874289839722 Pt
atom 7.4967436489985255 9.2785354222381482 18.4405269471164246 Pt
atom 7.2753319985740141 3.6323627511919119 17.2936940836509656 O
atom 9.5957128449927716 0.3523143658812810 17.2936907045075188 O
atom 8.6569405917836093 10.0992779927640850 19.8604053199691890 O
atom 10.0849285895817076 3.1591567553580142 17.0206501467587508 O
atom 6.5646934306748204 0.6688698806043322 19.5873699644834574 Pt
atom 5.6259210016507728 7.9550690190092705 20.7342107498274508 Pt
atom 5.4045067988851283 2.3088967337476887 19.5873782182127911 O
atom 11.4665394773137450 9.6260932645251955 19.5873728261477851 O
atom 6.7861041255472188 0.8255125959514117 17.5667197874403804 O
atom 8.2140940677546315 1.8357069837150251 19.3143353590412588 O
atom 4.6871446597380206 7.2909541712376358 17.2936847528959916 Pt
atom 11.2451139255133477 3.9799135396679226 18.4405244551067966 Pt
atom 3.5269543297876575 8.9309796381526461 17.2936856847144682 O
atom 5.8473396732767329 5.6509330829763229 17.2936878777130723 O
atom 12.4053039539144159 4.8006649213636878 19.8604035446044200 O
atom 6.3365465745520204 8.4577925853410534 17.0206511968790863 O
atom 2.8163209832150784 5.9674892746252644 19.5873688258016116 Pt
atom 9.3742879078257513 2.6564512050340987 20.7342095103127875 Pt
atom 12.8945240324792518 7.6075148115126634 19.5873681356777283 O
atom 3.9765146008117771 4.3274669823024103 19.5873723366001826 O
atom 3.0377435231434093 6.1241176068978564 17.5667202654274206 O
atom 4.4657348840454159 7.1343134573422313 19.3143365235198488 O
atom 0.9455038387131879 0.6688749316252358 19.5873775979767615 Pt
atom 11.2451190463146364 7.9550716886051189 20.7342133064078453 Pt
atom 11.0237030979646438 2.3088980818593341 19.5873762419778572 O
atom 5.8473439586052098 9.6260933172987801 19.5873772367084342 O
atom 1.1669237269959685 0.8255020983069350 17.5667265556529912 O
atom 2.5949133281600543 1.8356963314239045 19.3143429755308702 O
atom 2.8163290367637850 1.9923389384314585 17.2936971081003961 Pt
atom 13.1159449481549402 9.2785382460760157 18.4405307770732776 Pt
atom 1.6561353305915396 3.6323633161579361 17.2936924242092793 O
atom 3.9765203404377596 0.3523148013061300 17.2936924510004921 O
atom 14.2761319668850621 10.0992937176507667 19.8604104218822926 O
atom 4.4657280578435117 3.1591763448231744 17.0206579952571317 O
atom 4.6938693072154898 3.3205644084303660 24.1747403980086943 Pt
atom 3.7551004425910373 2.6564501210663729 20.7342186321767628 Pt
atom 3.5336765773049486 4.9605849641207866 24.1747370756804649 O
atom 5.8540598375468686 1.6805401399781716 24.1747345678808827 O
atom 4.9152878103384587 3.4772059521440162 22.1540938922458075 O
atom 6.3432726379166029 4.4873975185582555 23.9017048092086597 O
atom 6.5646959061743058 4.6440311039360047 21.8810570892049512 Pt
atom 1.8842750299837050 1.3329836758287985 23.0279011870998360 Pt
atom 5.4045015140509589 6.2840512459535036 21.8810533032785024 O
atom 7.7248824897187989 3.0040045284791401 21.8810537766558966 O
atom 8.2141109359753930 5.8108518065085573 21.6080238551936645 O
atom 8.4355193568907350 9.9426476907475330 21.8810547129244100 Pt
atom 3.7550948123654546 6.6316037826256382 23.0278942310568659 Pt
atom 3.5336831619409392 0.9854311115794033 21.8810613675914070 O
atom 9.5957142147200951 8.3026268387956783 21.8810579884479566 O
atom 6.3432797529486340 0.5122251157455041 21.6080174306991921 O
atom 6.5646948004021377 8.6191823535187311 24.1747372484238987 Pt
atom 5.4045081686124501 10.2592092066620868 24.1747455021532325 O
atom 7.7248906406806706 6.9791616249126864 24.1747401100882264 O
atom 6.7861054952745459 8.7758250688658084 22.1540870713808218 O
atom 8.2140954374819639 9.7860194566294219 23.9017026429817001 O
atom 12.1838892993083370 4.6440225316251240 21.8810520368364365 Pt
atom 7.5034650888802830 1.3329819000554102 23.0278917390472415 Pt
atom 11.0236989693579641 6.2840479985401361 21.8810529686549131 O
atom 2.1056908366436575 3.0040014433638129 21.8810551616535172 O
atom 2.5948977379189446 5.8108609457285434 21.6080184808195312 O
atom 10.3130656227853859 3.3205576350127566 24.1747361097420530 Pt
atom 9.1528751958461871 4.9605831719001534 24.1747354196181732 O
atom 11.4732592403820846 1.6805353426899023 24.1747396205406240 O
atom 10.5344881627137177 3.4771859672853460 22.1540875493678655 O
atom 11.9624795236157286 4.4873818177297231 23.9017038074602901 O
atom 12.1838986846439017 8.6191874045396322 24.1747448819172028 Pt
atom 11.0237044676919744 10.2592105547737305 24.1747435259182986 O
atom 13.3440885981755208 6.9791616776862684 24.1747445206488791 O
atom 12.4053185729266726 8.7758145712213320 22.1540938395934361 O
atom 13.8333081740907726 9.7860088043383016 23.9017102594713187 O
atom 14.0547238826944838 9.9426514113458548 21.8810643920408374 Pt
atom 9.3742961115218701 6.6316066064635049 23.0278980610137260 Pt
atom 9.1528799701618464 0.9854316765454247 21.8810597081497278 O
atom 3.9765217101650823 8.3026272742205283 21.8810597349409370 O
atom 0.7240792212104361 0.5122447052106659 21.6080252791975767 O
