#===============================================================================
# Created using the Atomic Simulation Environment (ASE)

# Mon Mar 23 14:01:23 2026

#=======================================================
lattice_vector 9.1788565200000374 0.0000000000000000 0.0000000000000000 
lattice_vector -0.0000000170647224 6.4846065199999998 0.0000000000000000 
lattice_vector 0.0000000000000000 0.0000000000000000 47.8114097599996200 
atom 2.2947190657333709 1.6211521348064655 15.8742078934503219 Pt
atom 0.8742011041833334 1.6211490210682786 17.2947185019009559 O
atom 1.4205253913851756 6.4846059452021789 15.0000086199994591 O
atom 3.1689211565488540 0.0000005644107653 16.7484032819004227 O
atom 2.2947199822011632 4.8634540148064636 15.8742095884502383 Pt
atom 0.8742012806510041 4.8634559010682779 17.2947188969009424 O
atom 1.4205108649184204 3.2423038452021493 15.0000184050007768 O
atom 3.1689125030179408 3.2423024244107310 16.7484192869011999 O
atom 6.8841423257334577 1.6211522598064587 15.8742086284507735 Pt
atom 4.5894283029345440 6.4846063066903357 22.7583470234507885 Pt
atom 5.4636318741840597 1.6211516960682695 17.2947263369007338 O
atom 6.0099374884503467 0.0000005202021555 15.0000133850009227 O
atom 7.7583335465497019 0.0000000194107339 16.7484124469018525 O
atom 6.8841421822010220 4.8634546198064585 15.8742078234507851 Pt
atom 4.5894278864670595 3.2423023766903341 22.7583487184508257 Pt
atom 5.4636316306516761 4.8634531460682693 17.2947260919007526 O
atom 6.0099477049167742 3.2423033402021870 15.0000000000000000 O
atom 7.7583482230162462 3.2423036694107688 16.7484003519005284 O
atom 2.2947108707331698 1.6211525977290411 20.4636339434510823 Pt
atom 9.1788546379344478 6.4846052687677540 18.1689174784509433 Pt
atom 3.7152274222829726 1.6211516414672298 19.0431207050005717 O
atom 0.8742001391837835 1.6211519339908511 21.8841517719010668 O
atom 1.4205169534493016 0.0000003581247622 19.5894302900002479 O
atom 3.1689185715485020 0.0000011173333493 21.3378276619006684 O
atom 2.2947118772008595 4.8634553577290403 20.4636344984509861 Pt
atom 0.0000018514666248 3.2423025087677617 18.1689158734506115 Pt
atom 3.7152276787505816 4.8634532814672307 19.0431203500005459 O
atom 0.8742002956514170 4.8634562639908507 21.8841517269010524 O
atom 1.4205057499179354 3.2423042581247321 19.5894413050012588 O
atom 3.1689078780175040 3.2423036573333142 21.3378427369016350 O
atom 6.8841512107340250 1.6211505627290397 20.4636431584499832 Pt
atom 4.5894306379349397 6.4846056137677524 18.1689231534505602 Pt
atom 8.3046646122834940 1.6211511764672306 19.0431262699997639 O
atom 5.4636347191842223 1.6211522689908504 21.8841564169004954 O
atom 6.0099428163861006 6.4846062331247349 19.5894468950004601 O
atom 7.7583436415503098 0.0000009023333153 21.3378474369009616 O
atom 6.8841512072019064 4.8634563427290347 20.4636458934499892 Pt
atom 4.5894318414674435 3.2423019837677498 18.1689247084504508 Pt
atom 8.3046640087512387 4.8634538064672288 19.0431274049998152 O
atom 5.4636339456519769 4.8634535589908472 21.8841576819005574 O
atom 6.0099544799173064 3.2423040531247662 19.5894341599994064 O
atom 7.7583552580168043 3.2423030123333474 21.3378347618999058 O
atom 2.2947207257331685 1.6211521106516320 25.0530621734502077 Pt
atom 0.0000063100000091 0.0000007816903301 22.7583554584502252 Pt
atom 3.7152308972827299 1.6211515343898188 23.6325462650002756 O
atom 0.8742027641831310 1.6211489969134456 26.4735727819008346 O
atom 1.4205270513849730 6.4846059210473461 24.1788628999993449 O
atom 3.1689228165486516 0.0000005402559322 25.9272575619003049 O
atom 2.2947216422009613 4.8634539906516308 25.0530638684501241 Pt
atom 0.0000052164675415 3.2423041016903298 22.7583542834503234 Pt
atom 3.7152312237503899 4.8634542143898178 23.6325464900002444 O
atom 0.8742029406508016 4.8634558769134459 26.4735731769008282 O
atom 1.4205125249182180 3.2423038210473170 24.1788726850006626 O
atom 3.1689141630177384 3.2423024002558982 25.9272735669010821 O
atom 6.8841439857332549 1.6211522356516253 25.0530629084506629 Pt
atom 4.5894299629343411 6.4846062825355029 31.9372013034506814 Pt
atom 8.3046651872835824 1.6211519793898104 23.6325554799997342 O
atom 5.4636335341838569 1.6211516719134360 26.4735806169006125 O
atom 6.0099391484501421 0.0000004960473224 24.1788676650008085 O
atom 7.7583351894847761 6.4846065152559005 25.9272667269017383 O
atom 6.8841438422008183 4.8634545956516257 25.0530621034506673 Pt
atom 4.5894295464668566 3.2423023525355008 31.9372029984507115 Pt
atom 8.3046652537511889 4.8634561193898111 23.6325551449997278 O
atom 5.4636332906514742 4.8634531219134365 26.4735803719006313 O
atom 6.0099493649165723 3.2423033160473547 24.1788542799998858 O
atom 7.7583498830160424 3.2423036452559355 25.9272546319004142 O
atom 2.2947125307329674 1.6211525735742076 29.6424882234509717 Pt
atom 9.1788562979342476 6.4846052446129212 27.3477717584508291 Pt
atom 3.7152290822827707 1.6211516173123963 28.2219749850004540 O
atom 0.8742017991835810 1.6211519098360179 31.0630060519009454 O
atom 1.4205186134490990 0.0000003339699292 28.7682845700001373 O
atom 3.1689202315482996 0.0000010931785162 30.5166819419005613 O
atom 2.2947135372006571 4.8634553335742075 29.6424887784508719 Pt
atom 0.0000035114664226 3.2423024846129285 27.3477701534504902 Pt
atom 3.7152293387503792 4.8634532573123970 28.2219746300004353 O
atom 0.8742019556512145 4.8634562398360170 31.0630060069009382 O
atom 1.4205074099177328 3.2423042339699002 28.7682955850011446 O
atom 3.1689095380173016 3.2423036331784809 30.5166970169015208 O
atom 6.8841528707338231 1.6211505385742067 29.6424974384498690 Pt
atom 4.5894322979347377 6.4846055896129187 27.3477774334504424 Pt
atom 8.3046662722832920 1.6211511523123974 28.2219805499996461 O
atom 5.4636363791840195 1.6211522448360174 31.0630106969003741 O
atom 6.0099444763858969 6.4846062089699004 28.7683011750003494 O
atom 7.7583453015501060 0.0000008781784823 30.5167017169008439 O
atom 6.8841528672017027 4.8634563185742010 29.6425001734498785 Pt
atom 4.5894335014672407 3.2423019596129166 27.3477789884503331 Pt
atom 8.3046656687510367 4.8634537823123951 28.2219816849996938 O
atom 5.4636356056517750 4.8634535348360144 31.0630119619004468 O
atom 6.0099561399171044 3.2423040289699343 28.7682884399992922 O
atom 7.7583569180166005 3.2423029881785146 30.5166890418997987 O
atom 0.0000079699998065 0.0000007575354970 31.9372097384501110 Pt
atom 3.7152325572825271 1.6211515102349856 32.8114005450001542 O
atom 0.0000068764673390 3.2423040775354970 31.9372085634502092 Pt
atom 3.7152328837501871 4.8634541902349850 32.8114007700001338 O
atom 8.3046668472833787 1.6211519552349776 32.8114097599996200 O
atom 8.3046669137509852 4.8634560952349775 32.8114094249996100 O
