#===============================================================================
# Created using the Atomic Simulation Environment (ASE)

# Mon Mar 23 14:01:21 2026

#=======================================================
lattice_vector 6.3710923900000003 0.0000000000000000 0.0000000000000000 
lattice_vector 0.0000000388927909 12.9411912842237733 0.0000000000000000 
lattice_vector 0.0000000000000000 0.0000000000000000 38.9187015605878344 
atom 1.5927667983303948 3.0845864739724491 16.2242597736717329 Pt
atom 6.3710904618365163 3.4449070403995607 15.0000000000000000 O
atom 1.5927722546132468 1.0776624494189910 15.8782542799264519 O
atom 1.5927704927768043 9.5551964192034031 16.2242679923583495 Pt
atom 0.0000021762828862 9.9154968093144298 15.0000061707683514 O
atom 1.5927681490596606 7.5482709786401072 15.8782591598384144 O
atom 0.0000028155535938 6.3198829630431677 16.2242580953476860 Pt
atom 3.1855475000000197 12.7904850465503053 16.2242502803011561 Pt
atom 3.1855509618364333 3.4448899635465651 15.0000206332860415 O
atom 4.7783152346132631 1.0776720360078085 15.8782558277684913 O
atom 4.7783226927767926 9.5551845550412633 16.2242604843854679 Pt
atom 3.1855450562828351 9.9154694857327321 15.0000014012523479 O
atom 4.7783191790596300 7.5482579832259438 15.8782589144593338 O
atom 6.3710861899999562 12.7904919762177816 16.2242855139527933 Pt
atom 1.5927877727767732 12.7528089276704524 19.4593510720663794 Pt
atom 0.0000002473900138 0.1719090428874496 18.2351031566493340 O
atom 0.0000039392707126 12.3925035643015811 20.6835987011088029 O
atom 1.5927545290596301 10.7458859342923034 19.1133445731455680 O
atom 1.5927548076011220 1.8185412110734833 19.8053597451854344 O
atom 0.0000022155535283 9.5174847650635481 19.4593461473990708 Pt
atom 1.5927667983303844 9.4798297416018755 22.6944210824565289 Pt
atom 6.3710904618365047 9.8401503080289885 21.4701613087847960 O
atom 0.0000051348242954 2.7242962708760690 17.4485402518030313 O
atom 1.5927722546132368 7.4729057170484214 22.3484155887112479 O
atom 1.5927729320475001 5.0915096847101493 16.5702835911967803 O
atom 0.0000007811072298 3.0469389126685713 19.4593525715733584 Pt
atom 1.5927704538840028 3.0092484026090580 22.6944293011431526 Pt
atom 0.0000021373900854 3.3695487927200856 21.4701674795531474 O
atom 6.3710907492707198 9.1948919474586521 17.4485264384385914 O
atom 1.5927681101668598 1.0023229620457648 22.3484204686232175 O
atom 1.5927704964939469 11.5621201633676378 16.5702754926882818 O
atom 0.0000028155535839 12.7151262306725954 22.6944194041324856 Pt
atom 1.5927490283303776 6.2822161073956098 19.4593540336471520 Pt
atom 6.3710919518365206 6.6425231311047233 18.2350714260360220 O
atom 0.0000003248242229 5.9219029757872628 20.6836363652725055 O
atom 1.5927923946132343 4.2752898666730914 19.1133441782170621 O
atom 1.5927934720474897 8.2891404316591011 19.8053760615745240 O
atom 3.1855474611072192 6.2445370299559588 22.6944115890859557 Pt
atom 4.7783091727767610 12.7528094750437564 19.4593566473495017 Pt
atom 3.1855503873900397 0.1718882537286056 18.2350703454961334 O
atom 3.1855465092706754 12.3925141997569117 20.6836253507033554 O
atom 4.7783404090596244 10.7458858608132868 19.1133462627316533 O
atom 4.7783375676011319 1.8185431661352667 19.8053567301012521 O
atom 3.1855461355536150 9.5175371020531223 19.4593589681526780 Pt
atom 4.7783295983303864 3.0845944554104712 16.2242710350503003 Pt
atom 3.1855509618364222 9.8401332311759937 21.4701819420708375 O
atom 3.1855448448243777 2.7243168472393449 17.4485233866236484 O
atom 4.7783152346132534 7.4729153036372393 22.3484171365532873 O
atom 4.7783144020475277 5.0915209034029285 16.5702817260875008 O
atom 3.1855450711071320 3.0468880099263949 19.4593448150703701 Pt
atom 4.7783226538839925 3.0092365384469177 22.6944217931702639 Pt
atom 3.1855450173900346 3.3695214691383857 21.4701627100371475 O
atom 3.1855478392707672 9.1949191137805535 17.4485327132018639 O
atom 4.7783191401668299 1.0023099666315982 22.3484202232441298 O
atom 4.7783170064939275 11.5621088268589940 16.5702720890766955 O
atom 3.1855383755535644 6.3198936115612634 16.2242812872075035 Pt
atom 4.7783425383303806 6.2822194876683373 19.4593552059337291 Pt
atom 3.1855464518363590 6.6424912941689609 18.2351119211964914 O
atom 3.1855459448243950 5.9219353304690010 20.6835907465157298 O
atom 4.7782985346132207 4.2752906170040896 19.1133501153125209 O
atom 4.7782999920474909 8.2891432459267982 19.8053772871346361 O
atom 6.3710861511071561 6.2445439596234404 22.6944468227375928 Pt
atom 0.0000051348242854 9.1195395385054994 23.9187015605878308 O
atom 1.5927729320474902 11.4867529523395770 23.0404448999815763 O
atom 6.3710907103779197 2.6489439308643101 23.9186877472233874 O
atom 1.5927704576011459 5.0161721467732949 23.0404368014730778 O
atom 4.7783295983303766 9.4798377230399016 22.6944323438350963 Pt
atom 3.1855448448243679 9.1195601148687739 23.9186846954084480 O
atom 4.7783144020475179 11.4867641710323589 23.0404430348722968 O
atom 3.1855478003779658 2.6489710971862088 23.9186940219866599 O
atom 4.7783169676011275 5.0161608102646529 23.0404333978614915 O
atom 3.1855383755535556 12.7151368791906929 22.6944425959922995 Pt
