#===============================================================================
# Created using the Atomic Simulation Environment (ASE)

# Mon Mar 23 14:01:18 2026

#=======================================================
lattice_vector 9.0973690600005526 0.0000000000000000 0.0000000000000000 
lattice_vector 0.0000063071332193 9.2039351799983606 0.0000000000000000 
lattice_vector 0.0000000000000000 0.0000000000000000 33.1855935100000039 
atom 2.2743429417838050 2.3009848150029342 15.0000387250000067 Pt
atom 0.6174376843909719 3.4850985623556401 15.0000054862865362 O
atom 3.9312501491770302 1.1168721876496202 15.0000057937134770 O
atom 2.2743348853490910 6.9029486050060429 15.0000177700000030 Pt
atom 0.6174296179567593 8.0870637923587108 15.0000232312865300 O
atom 3.9312526127461136 5.7188468776490220 15.0000238987134864 O
atom 6.8230321617812253 2.3009766200013178 15.0000214449999945 Pt
atom 5.1661235243884258 3.4850904673551693 15.0000191062865227 O
atom 8.4799386591741204 1.1168630426482162 15.0000214437134645 O
atom 6.8230347153507171 6.9029524800007298 15.0000000000000000 Pt
atom 5.1661247879578660 8.0870661773549823 15.0000433712865302 O
atom 8.4799519527470242 5.7188487026438359 15.0000444387134877 O
atom 9.0973600971292150 9.2039220857761901 16.5927984424999906 Pt
atom 2.2743472917850327 2.3009883315403759 18.1855601250000092 Pt
atom 1.6568813926076122 1.1841144284282958 16.5928013737865356 O
atom 2.8917829509643940 3.4178678081240350 16.5927974662134901 O
atom 0.6174388343914005 3.4850997888941264 18.1855913662865305 O
atom 3.9312493791758030 1.1168686641887786 18.1855885537134725 O
atom 0.0000261435624631 4.6019556657636800 16.5927970974999930 Pt
atom 2.2743485053498675 6.9029508315402088 18.1855805699999991 Pt
atom 1.6569260261749366 5.7860840684130208 16.5928019287865389 O
atom 2.8917849545208463 8.0198062481236168 16.5927958212134605 O
atom 0.6174374579547590 8.0870580488949120 18.1855662112865275 O
atom 3.9312591727428732 5.7188375741856703 18.1855653687134762 O
atom 4.5486598800059079 0.0000161407811020 16.5927960525000238 Pt
atom 6.8230184817823245 2.3009797665450087 18.1855736449999981 Pt
atom 6.2055823926078864 1.1841144234225629 16.5927960037865354 O
atom 7.4404776209551544 3.4178405031204999 16.5927987962134580 O
atom 5.1661142143915848 3.4850995238973379 18.1855701362865361 O
atom 8.4799282691760922 1.1168686991907664 18.1855679537134733 O
atom 4.5486974235688828 4.6019733007683064 16.5927893375000117 Pt
atom 6.8230379253501638 6.9029508865384903 18.1855935100000039 Pt
atom 6.2056038461828482 5.7861059834153643 16.5927974187865566 O
atom 7.4404578145186457 8.0197991431276829 16.5927969212134485 O
atom 5.1661295379591312 8.0870698038922981 18.1855495112865384 O
atom 8.4799548027466258 5.7188475491818167 18.1855509587134847 O
