#===============================================================================
# Created using the Atomic Simulation Environment (ASE)

# Mon Mar 23 14:01:19 2026

#=======================================================
lattice_vector 9.2039351800005225 0.0000000000000000 0.0000000000000000 
lattice_vector -0.0000000269221396 6.3710923900000003 0.0000000000000000 
lattice_vector 0.0000000000000000 0.0000000000000000 31.2348936976530211 
atom 2.3010000786728870 1.5927705025000536 15.6174490038268061 Pt
atom 1.1841213924464515 0.0000021812865736 15.0000226000054226 O
atom 3.4178792814364733 6.3710907637135330 16.2348701376480165 O
atom 6.9029759386729683 1.5927490575000625 15.6174484038240138 Pt
atom 5.7860778955209646 6.3710919762865617 15.0000118800091542 O
atom 8.0198781183623407 0.0000003587135684 16.2348804376375000 O
atom 2.3010032252072037 4.7783227025000556 15.6174353238257453 Pt
atom 1.1841374589777733 3.1855450612865899 15.0000000000000000 O
atom 3.4178643849054744 3.1855478537135178 16.2348936976530211 O
atom 6.9029743452129289 4.7783425675000588 15.6174516138245565 Pt
atom 5.7861290189841963 3.1855464762866159 15.0000182999919360 O
atom 8.0198230248980025 3.1855459787135079 16.2348707376560384 O
