#===============================================================================
# Created using the Atomic Simulation Environment (ASE)

# Mon Mar 23 14:01:22 2026

#=======================================================
lattice_vector 9.1788542800000368 0.0000000000000000 0.0000000000000000 
lattice_vector 0.0000016600002026 9.1788565199998882 0.0000000000000000 
lattice_vector 0.0000000000000000 0.0000000000000000 42.9692162450000126 
atom 1.4205122543217206 1.4205234574204186 16.6211527930951917 O
atom 2.2947133851371366 2.2947178901367655 15.0000008650000005 Pt
atom 0.8741962635870579 3.7152277285873567 15.0000010849999939 O
atom 3.7152224366863886 0.8741989316869013 15.0000027549999899 O
atom 9.1788512308703964 4.5894249658708519 16.6211531749999892 Pt
atom 2.2947124501366893 6.8841400901368681 15.0000014699999937 Pt
atom 0.8742057485876789 8.3046617585865121 15.0000029900000058 O
atom 3.7152304616866827 5.4636292816861971 15.0000000000000000 O
atom 4.5894225158703810 9.1788521308710163 16.6211521249999876 Pt
atom 6.8841382951363475 2.2947089551369655 15.0000022199999918 Pt
atom 5.4636244035868318 3.7152250135872666 15.0000001399999903 O
atom 8.3046552666862414 0.8741971166863864 15.0000031299999961 O
atom 4.5894273608706637 4.5894281308705569 16.6211524699999984 Pt
atom 6.0099513593207865 6.0099400524193554 16.6211530930951952 O
atom 6.8841505201374478 6.8841482851358764 15.0000032050000129 Pt
atom 5.4636322885876627 8.3046613435865719 15.0000006650000088 O
atom 8.3046620516868330 5.4636307666857942 15.0000004250000067 O
atom 2.2947116816046891 2.2947169566045571 18.2423055049999974 Pt
atom 0.0000045558708212 0.0000029558701454 16.6211541700000041 Pt
atom 0.8741960300546648 3.7152273850550177 18.2423049249999920 O
atom 3.7152220331540144 0.8741987381545813 18.2423023949999887 O
atom 1.4205122372569963 1.4205234403556990 23.1057593130951915 O
atom 3.1689072324207843 3.1689188893214082 16.6211539369048111 O
atom 2.2947133680724123 2.2947178730720461 21.4846073850000003 Pt
atom 0.0000033723383609 0.0000018623378919 19.8634574900000018 Pt
atom 0.8741962465223339 3.7152277115226373 21.4846076049999937 O
atom 3.7152224196216648 0.8741989146221819 21.4846092749999897 O
atom 1.4205220307880424 1.4205089138871727 19.8634572130951881 O
atom 3.1689232288876412 3.1689102357876031 19.8634557969048160 O
atom 2.2947132466043385 6.8841402166044343 18.2423056299999935 Pt
atom 9.1788512138056717 4.5894249488061334 23.1057596949999855 Pt
atom 0.8742060750553112 8.3046616750541276 18.2423053700000111 O
atom 3.7152306981543397 5.4636295081538142 18.2423050700000005 O
atom 1.4205178493203570 6.0099355374199295 16.6211538880951792 O
atom 3.1689172274194504 7.7583312793205232 16.6211533919047980 O
atom 2.2947124330719655 6.8841400730721496 21.4846079899999900 Pt
atom 9.1788529173379949 4.5894245323383407 19.8634557649999905 Pt
atom 0.8742057315229548 8.3046617415217945 21.4846095100000056 O
atom 3.7152304446219584 5.4636292646214777 21.4846065199999998 O
atom 1.4205044557889202 6.0099457538887799 19.8634567080951783 O
atom 3.1689051238884156 7.7583459557892578 19.8634570419048018 O
atom 6.8841377316038930 2.2947079316046555 18.2423059799999905 Pt
atom 4.5894224988056571 9.1788521138062986 23.1057586449999839 Pt
atom 5.4636247500544446 3.7152247400548735 18.2423050199999892 O
atom 8.3046553031538668 0.8741969431540239 18.2423053199999927 O
atom 6.0099339243208982 1.4205141724209123 16.6211537380951775 O
atom 7.7583316124204931 3.1689154743216577 16.6211545019048010 O
atom 6.8841382780716236 2.2947089380722465 21.4846087399999846 Pt
atom 4.5894209023383556 9.1788558473388004 19.8634558849999863 Pt
atom 5.4636243865221088 3.7152249965225481 21.4846066599999901 O
atom 8.3046552496215185 0.8741970996216671 21.4846096499999923 O
atom 6.0099449307875252 1.4205029688875559 19.8634576380951735 O
atom 7.7583466788871664 3.1689047807879351 19.8634570419048053 O
atom 6.8841477766050883 6.8841482716037685 18.2423039450000104 Pt
atom 4.5894273438059390 4.5894281138058375 23.1057589899999947 Pt
atom 5.4636311450553539 8.3046619300543103 18.2423045550000040 O
atom 8.3046607781545401 5.4636315231535475 18.2423056550000098 O
atom 6.0099513422560626 6.0099400353546359 23.1057596130951914 O
atom 7.7583522174203070 7.7583405443198128 16.6211542869048188 O
atom 6.8841505030727230 6.8841482680711579 21.4846097250000128 Pt
atom 4.5894289073384105 4.5894293173380580 19.8634553599999961 Pt
atom 5.4636322715229380 8.3046613265218525 21.4846071850000051 O
atom 8.3046620346221083 5.4636307496210748 21.4846069450000030 O
atom 6.0099386157894763 6.0099516988881447 19.8634574330951885 O
atom 7.7583395338889973 7.7583521607886015 19.8634563969048159 O
atom 2.2947116645399652 2.2947169395398386 24.7269120249999972 Pt
atom 0.0000045388060970 0.0000029388054260 23.1057606900000039 Pt
atom 0.8741960129899407 3.7152273679902983 24.7269114449999883 O
atom 3.7152220160892901 0.8741987210898620 24.7269089149999886 O
atom 3.1689072153560600 3.1689188722566888 23.1057604569048038 O
atom 2.2947133510076885 2.2947178560073263 27.9692139049999966 Pt
atom 0.0000033552736368 0.0000018452731725 26.3480640100000016 Pt
atom 0.8741962294576098 3.7152276944579183 27.9692141249999935 O
atom 3.7152224025569405 0.8741988975574626 27.9692157949999896 O
atom 1.4205220137233183 1.4205088968224537 26.3480637330951879 O
atom 3.1689232118229169 3.1689102187228833 26.3480623169048158 O
atom 2.2947132295396142 6.8841401995397158 24.7269121499999933 Pt
atom 0.8742060579905870 8.3046616579894081 24.7269118900000073 O
atom 3.7152306810896158 5.4636294910890948 24.7269115900000003 O
atom 1.4205178322556331 6.0099355203552101 23.1057604080951791 O
atom 3.1689172103547261 7.7583312622558038 23.1057599119048014 O
atom 2.2947124160072407 6.8841400560074293 27.9692145099999934 Pt
atom 9.1788529002732719 4.5894245152736222 26.3480622849999904 Pt
atom 0.8742057144582306 8.3046617244570733 27.9692160300000054 O
atom 3.7152304275572345 5.4636292475567592 27.9692130399999996 O
atom 1.4205044387241961 6.0099457368240605 26.3480632280951781 O
atom 3.1689051068236913 7.7583459387245393 26.3480635619048016 O
atom 6.8841377145391691 2.2947079145399361 24.7269124999999867 Pt
atom 5.4636247329897207 3.7152247229901545 24.7269115399999890 O
atom 8.3046552860891438 0.8741969260893044 24.7269118399999925 O
atom 6.0099339072561744 1.4205141553561931 23.1057602580951773 O
atom 7.7583315953557692 3.1689154572569382 23.1057610219048009 O
atom 6.8841382610068989 2.2947089210075271 27.9692152599999844 Pt
atom 4.5894208852736318 9.1788558302740793 26.3480624049999861 Pt
atom 5.4636243694573841 3.7152249794578287 27.9692131799999899 O
atom 8.3046552325567937 0.8741970825569477 27.9692161699999886 O
atom 6.0099449137228005 1.4205029518228369 26.3480641580951733 O
atom 7.7583466618224417 3.1689047637232157 26.3480635619048051 O
atom 6.8841477595403644 6.8841482545390491 24.7269104650000067 Pt
atom 5.4636311279906300 8.3046619129895891 24.7269110750000038 O
atom 8.3046607610898135 5.4636315060888299 24.7269121750000060 O
atom 7.7583522003555840 7.7583405272550934 23.1057608069048150 O
atom 6.8841504860079992 6.8841482510064385 27.9692162450000126 Pt
atom 4.5894288902736875 4.5894293002733386 26.3480618799999959 Pt
atom 5.4636322544582141 8.3046613094571331 27.9692137050000085 O
atom 8.3046620175573853 5.4636307325563553 27.9692134650000028 O
atom 6.0099385987247524 6.0099516818234244 26.3480639530951883 O
atom 7.7583395168242744 7.7583521437238820 26.3480629169048157 O
