#===============================================================================
# Created using the Atomic Simulation Environment (ASE)

# Mon Mar 23 14:01:18 2026

#=======================================================
lattice_vector 9.0973690600005526 0.0000000000000000 0.0000000000000000 
lattice_vector 0.0000063071332193 9.2039351799983606 0.0000000000000000 
lattice_vector 0.0000000000000000 0.0000000000000000 45.9277782899999991 
atom 0.0000146600023695 0.0000067861506193 19.7783371325000061 Pt
atom 2.2743429417838192 2.3009848688472134 15.0000387249999996 Pt
atom 0.6174376843909859 3.4850986161999189 15.0000054862865291 O
atom 3.9312501491770440 1.1168722414938992 15.0000057937134699 O
atom 2.2743348853491052 6.9029486588503213 15.0000177699999959 Pt
atom 1.6569233561656611 5.7860574587971678 19.7783414287865043 O
atom 0.6174296179567732 8.0870638462029891 15.0000232312865265 O
atom 3.9312526127461278 5.7188469314933013 15.0000238987134793 O
atom 6.8230321617812395 2.3009766738455966 15.0000214449999909 Pt
atom 7.4404540609603611 3.4178554535119230 19.7783417062134674 O
atom 5.1661235243884400 3.4850905211994485 15.0000191062865191 O
atom 8.4799386591741310 1.1168630964924955 15.0000214437134609 O
atom 6.8230347153507296 6.9029525338450091 15.0000000000000000 Pt
atom 6.2055974261650491 5.7860549138008119 19.7783429187864996 O
atom 5.1661247879578802 8.0870662311992607 15.0000433712865302 O
atom 8.4799519527470384 5.7188487564881161 15.0000444387134806 O
atom 9.0973600971292292 9.2039221396204702 16.5927984424999870 Pt
atom 2.2743472917850469 2.3009883853846551 18.1855601250000021 Pt
atom 1.6568813926076265 1.1841144822725749 16.5928013737865285 O
atom 2.8917829509644077 3.4178678619683143 16.5927974662134829 O
atom 0.6174388343914143 3.4850998427384061 18.1855913662865305 O
atom 3.9312493791758167 1.1168687180330577 18.1855885537134654 O
atom 0.0000261435624770 4.6019557196079592 16.5927970974999894 Pt
atom 2.2743485053498818 6.9029508853844872 18.1855805699999991 Pt
atom 1.6569260261749501 5.7860841222572992 16.5928019287865318 O
atom 2.8917849545208600 8.0198063019678969 16.5927958212134534 O
atom 0.6174374579547731 8.0870581027391903 18.1855662112865204 O
atom 3.9312591727428874 5.7188376280299495 18.1855653687134691 O
atom 4.5486598800059213 0.0000161946253812 16.5927960525000202 Pt
atom 6.8230184817823369 2.3009798203892879 18.1855736449999945 Pt
atom 6.2055823926079006 1.1841144772668422 16.5927960037865319 O
atom 7.4404776209551686 3.4178405569647796 16.5927987962134509 O
atom 5.1661142143915990 3.4850995777416172 18.1855701362865290 O
atom 8.4799282691761064 1.1168687530350454 18.1855679537134662 O
atom 4.5486974235688979 4.6019733546125847 16.5927893375000046 Pt
atom 6.8230379253501781 6.9029509403827687 18.1855935099999968 Pt
atom 6.2056038461828624 5.7861060372596436 16.5927974187865566 O
atom 7.4404578145186591 8.0197991969719613 16.5927969212134450 O
atom 5.1661295379591454 8.0870698577365783 18.1855495112865349 O
atom 8.4799548027466400 5.7188476030260942 18.1855509587134776 O
atom 0.0000146600023625 0.0000067592284797 26.1494295225000108 Pt
atom 2.2743429417838121 2.3009848419250734 21.3711311150000043 Pt
atom 1.6569193426105084 1.1841227487982855 19.7783436237865402 O
atom 2.8917565209605112 3.4178566785164493 19.7783472862134744 O
atom 0.6174376843909789 3.4850985892777793 21.3710978762865338 O
atom 3.9312501491770369 1.1168722145717598 21.3710981837134710 O
atom 9.0973492935728544 4.6019839161628848 19.7783455675000184 Pt
atom 2.2743348853490981 6.9029486319281821 21.3711101599999935 Pt
atom 1.6569233561656542 5.7860574318750286 26.1494338187865090 O
atom 2.8917824845300872 8.0198327785076788 19.7783485012134790 O
atom 0.6174296179567662 8.0870638192808499 21.3711156212865276 O
atom 3.9312526127461207 5.7188469045711621 21.3711162887134805 O
atom 4.5487074871284223 9.2039206111482788 19.7783441524999830 Pt
atom 6.8230321617812333 2.3009766469234574 21.3711138349999921 Pt
atom 6.2056049926022929 1.1840983837978933 19.7783455137865118 O
atom 7.4404540609603531 3.4178554265897829 26.1494340962134686 O
atom 5.1661235243884338 3.4850904942773089 21.3711114962865238 O
atom 8.4799386591741257 1.1168630695703559 21.3711138337134656 O
atom 4.5486734435658533 4.6019646111598593 19.7783461674999970 Pt
atom 6.8230347153507243 6.9029525069228699 21.3710923900000012 Pt
atom 6.2055974261650437 5.7860548868786710 26.1494353087864972 O
atom 7.4404675145378478 8.0198542635075114 19.7783436912135073 O
atom 5.1661247879578731 8.0870662042771215 21.3711357612865314 O
atom 8.4799519527470313 5.7188487295659760 21.3711368287134817 O
atom 9.0973600971292221 9.2039221126983310 22.9638908324999846 Pt
atom 2.2743472917850398 2.3009883584625150 24.5566525150000032 Pt
atom 1.6568813926076194 1.1841144553504355 22.9638937637865297 O
atom 2.8917829509644011 3.4178678350461746 22.9638898562134841 O
atom 0.6174388343914073 3.4850998158162660 24.5566837562865352 O
atom 3.9312493791758096 1.1168686911109182 24.5566809437134701 O
atom 0.0000261435624700 4.6019556926858192 22.9638894874999835 Pt
atom 2.2743485053498746 6.9029508584623480 24.5566729600000002 Pt
atom 1.6569260261749432 5.7860840953351600 22.9638943187865365 O
atom 2.8917849545208529 8.0198062750457577 22.9638882112134510 O
atom 0.6174374579547661 8.0870580758170512 24.5566586012865251 O
atom 3.9312591727428803 5.7188376011078104 24.5566577587134702 O
atom 4.5486598800059150 0.0000161677032416 22.9638884425000178 Pt
atom 6.8230184817823316 2.3009797934671483 24.5566660349999921 Pt
atom 6.2055823926078943 1.1841144503447025 22.9638883937865330 O
atom 7.4404776209551624 3.4178405300426395 22.9638911862134556 O
atom 5.1661142143915919 3.4850995508194775 24.5566625262865301 O
atom 8.4799282691760993 1.1168687261129060 24.5566603437134710 O
atom 4.5486974235688908 4.6019733276904446 22.9638817275000022 Pt
atom 6.8230379253501718 6.9029509134606286 24.5566858999999980 Pt
atom 6.2056038461828544 5.7861060103375035 22.9638898087865577 O
atom 7.4404578145186520 8.0197991700498221 22.9638893112134461 O
atom 5.1661295379591374 8.0870698308144373 24.5566419012865289 O
atom 8.4799548027466329 5.7188475761039559 24.5566433487134788 O
atom 2.2743429417838050 2.3009848150029342 27.7422235050000019 Pt
atom 1.6569193426105013 1.1841227218761461 26.1494360137865378 O
atom 2.8917565209605041 3.4178566515943096 26.1494396762134720 O
atom 0.6174376843909719 3.4850985623556401 27.7421902662865314 O
atom 3.9312501491770302 1.1168721876496202 27.7421905737134722 O
atom 9.0973492935728473 4.6019838892407448 26.1494379575000195 Pt
atom 2.2743348853490910 6.9029486050060429 27.7422025499999982 Pt
atom 2.8917824845300801 8.0198327515855397 26.1494408912134837 O
atom 0.6174296179567593 8.0870637923587108 27.7422080112865252 O
atom 3.9312526127461136 5.7188468776490220 27.7422086787134816 O
atom 4.5487074871284161 9.2039205842261378 26.1494365424999877 Pt
atom 6.8230321617812253 2.3009766200013178 27.7422062249999897 Pt
atom 6.2056049926022867 1.1840983568757539 26.1494379037865095 O
atom 5.1661235243884258 3.4850904673551693 27.7422038862865179 O
atom 8.4799386591741204 1.1168630426482162 27.7422062237134597 O
atom 4.5486734435658462 4.6019645842377201 26.1494385574999946 Pt
atom 6.8230347153507171 6.9029524800007298 27.7421847799999952 Pt
atom 7.4404675145378407 8.0198542365853722 26.1494360812135085 O
atom 5.1661247879578660 8.0870661773549823 27.7422281512865254 O
atom 8.4799519527470242 5.7188487026438359 27.7422292187134829 O
atom 9.0973600971292150 9.2039220857761901 29.3349832224999858 Pt
atom 2.2743472917850327 2.3009883315403759 30.9277449050000044 Pt
atom 1.6568813926076122 1.1841144284282958 29.3349861537865308 O
atom 2.8917829509643940 3.4178678081240350 29.3349822462134853 O
atom 0.6174388343914005 3.4850997888941264 30.9277761462865257 O
atom 3.9312493791758030 1.1168686641887786 30.9277733337134677 O
atom 0.0000261435624631 4.6019556657636800 29.3349818774999882 Pt
atom 2.2743485053498675 6.9029508315402088 30.9277653499999943 Pt
atom 1.6569260261749366 5.7860840684130208 29.3349867087865341 O
atom 2.8917849545208463 8.0198062481236168 29.3349806012134557 O
atom 0.6174374579547590 8.0870580488949120 30.9277509912865227 O
atom 3.9312591727428732 5.7188375741856703 30.9277501487134714 O
atom 4.5486598800059079 0.0000161407811020 29.3349808325000190 Pt
atom 6.8230184817823245 2.3009797665450087 30.9277584249999933 Pt
atom 6.2055823926078864 1.1841144234225629 29.3349807837865306 O
atom 7.4404776209551544 3.4178405031204999 29.3349835762134532 O
atom 5.1661142143915848 3.4850995238973379 30.9277549162865313 O
atom 8.4799282691760922 1.1168686991907664 30.9277527337134686 O
atom 4.5486974235688828 4.6019733007683064 29.3349741175000069 Pt
atom 6.8230379253501638 6.9029508865384903 30.9277782899999991 Pt
atom 6.2056038461828482 5.7861059834153643 29.3349821987865518 O
atom 7.4404578145186457 8.0197991431276829 29.3349817012134437 O
atom 5.1661295379591312 8.0870698038922981 30.9277342912865336 O
atom 8.4799548027466258 5.7188475491818167 30.9277357387134799 O
