#===============================================================================
# Created using the Atomic Simulation Environment (ASE)

# Mon Mar 23 14:01:20 2026

#=======================================================
lattice_vector 6.3710923900000003 0.0000000000000000 0.0000000000000000 
lattice_vector -0.0000000000000100 9.0973690600005526 0.0000000000000000 
lattice_vector 0.0000000000000000 0.0000000000000000 55.2436184747015204 
atom 1.5927667983304046 2.2743348853491141 16.1168937248578814 Pt
atom 6.3710904618365261 1.6569233561656747 15.0000025449963506 O
atom 0.0000051348243053 2.8917824845301001 17.2337778647068944 O
atom 1.5927722546132570 0.6174296179567816 17.3010089122105768 O
atom 0.0000007811072397 4.5487074871284356 18.4178656973474730 Pt
atom 1.5927490283303876 6.8230347153507385 16.1168975998524928 Pt
atom 6.3710919518365285 6.2055974261650624 15.0000000000000000 O
atom 0.0000003248242329 7.4404675145378620 17.2337993497067075 O
atom 1.5927923946132443 5.1661247879578873 17.3010112972069265 O
atom 3.1855474611072294 9.0973600971292381 18.4178672123585976 Pt
atom 4.7783295983303962 2.2743485053498942 16.1168959648531853 Pt
atom 3.1855509618364426 1.6569260261749610 15.0000291949954416 O
atom 3.1855448448243870 2.8917849545208689 17.2337513747060136 O
atom 4.7783152346132729 0.6174374579547851 17.3010031822078290 O
atom 4.7783425383303912 6.8230379253501896 16.1168960198515236 Pt
atom 3.1855464518363688 6.2056038461828713 15.0000511099977665 O
atom 3.1855459448244048 7.4404578145186679 17.2337442697100833 O
atom 4.7782985346132314 5.1661295379591561 17.3010149372051458 O
atom 6.3710861511071766 0.0000209671356027 18.4178870523481457 Pt
atom 1.5927877338839926 2.2743492489170469 20.7188651148532230 Pt
atom 0.0000002473900238 1.6569256497437412 19.6020030149958409 O
atom 0.0000039003779316 2.8917628280937442 21.8357369447140179 O
atom 1.5927544901668491 0.6174439915242137 21.9029788622057850 O
atom 1.5927548076011320 3.9312564563102712 19.5347524874997696 O
atom 0.0000021766607374 9.0973556007060896 23.0198641823604433 Pt
atom 1.5927667594376036 2.2743411924823329 25.3208289048562420 Pt
atom 6.3710904229437251 1.6569296632988939 24.2039377249947165 O
atom 0.0000050959315045 2.8917887916633189 26.4377130447052515 O
atom 1.5927722157204562 0.6174359250900011 26.5049440922089339 O
atom 1.5927728931547094 3.9312589198793546 24.1367271774992460 O
atom 0.0000007422144389 4.5487137942616540 27.6218008773458337 Pt
atom 1.5927704538840131 6.8230384689144659 20.7188569198515324 Pt
atom 0.0000021373900953 6.2056112997355273 19.6019786499954556 O
atom 6.3710907103779277 7.4404603680935928 21.8357357197094686 O
atom 1.5927681101668698 5.1661298315216682 21.9029707672053746 O
atom 1.5927704576011563 8.4799449663073609 19.5347433424984303 O
atom 0.0000027766608029 4.5486797506990850 23.0198448773574214 Pt
atom 1.5927489894375868 6.8230410224839568 25.3208327798508535 Pt
atom 6.3710919129437276 6.2056037332982816 24.2039351799983606 O
atom 0.0000002859314321 7.4404738216710795 26.4377345297050645 O
atom 1.5927923557204435 5.1661310950911075 26.5049464772052872 O
atom 1.5927934331546989 8.4799582598802683 24.1367290024941497 O
atom 3.1855474222144280 9.0973664042624609 27.6218023923569582 Pt
atom 4.7783091338839805 2.2743535989182773 20.7188686448516286 Pt
atom 3.1855503873900490 1.6568876997408559 19.6019947350090789 O
atom 3.1855464703778948 2.8917892580976363 21.8357481147047991 O
atom 4.7783403701668439 0.6174451415246459 21.9029801022055111 O
atom 4.7783375676011417 3.9312556863090475 19.5347489775001506 O
atom 3.1855460966608340 0.0000324506957068 23.0198359723444455 Pt
atom 4.7783295594375952 2.2743548124831130 25.3208311448515460 Pt
atom 3.1855509229436416 1.6569323333081802 24.2039643749938023 O
atom 3.1855448059315865 2.8917912616540886 26.4376865547043742 O
atom 4.7783151957204719 0.6174437650880045 26.5049383622061931 O
atom 4.7783143631547356 3.9312654798761177 24.1367178874969461 O
atom 3.1855450711071422 4.5486661871391512 18.4178964473618585 Pt
atom 4.7783226538840022 6.8230247889155677 20.7188600798563201 Pt
atom 3.1855450173900435 6.2055886997411296 19.6019947300033195 O
atom 3.1855478003779760 7.4404839280883968 21.8357208097012716 O
atom 4.7783191401668397 5.1661205215248289 21.9029798372086333 O
atom 4.7783169676011372 8.4799345763093363 19.5347490125020542 O
atom 3.1855383366607737 4.5487037307021270 23.0198536073490345 Pt
atom 4.7783424994375894 6.8230442324834071 25.3208311998498843 Pt
atom 3.1855464129435682 6.2056101533160914 24.2039862899961271 O
atom 3.1855459059316042 7.4404641216518872 26.4376794497084440 O
atom 4.7782984957204295 5.1661358450923762 26.5049501172035029 O
atom 4.7782999531546997 8.4799611098798700 24.1367278624930321 O
atom 6.3710861122143747 0.0000272742688220 27.6218222323465028 Pt
atom 1.5927876949911914 2.2743555560502666 29.9228002948515837 Pt
atom 0.0000002084972230 1.6569319568769605 28.8059381949941979 O
atom 0.0000038614851308 2.8917691352269634 31.0396721247123786 O
atom 1.5927544512740481 0.6174502986574331 31.1069140422041492 O
atom 1.5927547687083312 3.9312627634434905 28.7386876674981302 O
atom 0.0000021377679365 9.0973619078393071 32.2237993623588039 Pt
atom 1.5927667205448026 2.2743474996155526 34.5247640848545956 Pt
atom 6.3710903840509232 1.6569359704321129 33.4078729049930701 O
atom 0.0000050570387036 2.8917950987965391 35.6416482247036157 O
atom 1.5927721768276553 0.6174422322232203 35.7088792722072981 O
atom 1.5927728542619086 3.9312652270125747 33.3406623574976066 O
atom 0.0000007033216380 4.5487201013948741 36.8257360573441943 Pt
atom 1.5927704149912121 6.8230447760476851 29.9227920998498966 Pt
atom 0.0000020984972945 6.2056176068687448 28.8059138299938162 O
atom 6.3710906714851268 7.4404666752268120 31.0396708997078257 O
atom 1.5927680712740688 5.1661361386548865 31.1069059472037317 O
atom 1.5927704187083549 8.4799512734405784 28.7386785224967944 O
atom 0.0000027377680021 4.5486860578323034 32.2237800573557820 Pt
atom 1.5927489505447858 6.8230473296171770 34.5247679598492141 Pt
atom 6.3710918740509266 6.2056100404315018 33.4078703599967213 O
atom 0.0000002470386312 7.4404801288042997 35.6416697097034216 O
atom 1.5927923168276428 5.1661374022243267 35.7088816572036478 O
atom 1.5927933942618977 8.4799645670134858 33.3406641824925174 O
atom 3.1855473833216377 0.0000036513951252 36.8257375723553153 Pt
atom 4.7783090949911795 2.2743599060514974 29.9228038248499892 Pt
atom 3.1855503484972481 1.6568940068740752 28.8059299150074324 O
atom 3.1855464314850939 2.8917955652308560 31.0396832947031562 O
atom 4.7783403312740429 0.6174514486578651 31.1069152822038717 O
atom 4.7783375287083416 3.9312619934422677 28.7386841574985112 O
atom 3.1855460577680339 0.0000387578289261 32.2237711523427990 Pt
atom 4.7783295205447942 2.2743611196163331 34.5247663248499066 Pt
atom 3.1855508840508411 1.6569386404413995 33.4078995549921558 O
atom 3.1855447670387855 2.8917975687873079 35.6416217347027384 O
atom 4.7783151568276718 0.6174500722212236 35.7088735422045431 O
atom 4.7783143242619364 3.9312717870093379 33.3406530674953032 O
atom 3.1855450322143417 4.5486724942723695 27.6218316273602191 Pt
atom 4.7783226149912021 6.8230310960487870 29.9227952598546771 Pt
atom 3.1855449784972429 6.2055950068743480 28.8059299100016801 O
atom 3.1855477614851755 7.4404902352216151 31.0396559896996287 O
atom 4.7783191012740378 5.1661268286580473 31.1069150172069939 O
atom 4.7783169287083362 8.4799408834425556 28.7386841925004148 O
atom 3.1855382977679736 4.5487100378353453 32.2237887873473952 Pt
atom 4.7783424605447884 6.8230505396166272 34.5247663798482449 Pt
atom 3.1855463740507672 6.2056164604493098 33.4079214699944913 O
atom 3.1855458670388033 7.4404704287851056 35.6416146297068082 O
atom 4.7782984568276303 5.1661421522255955 35.7088852972018671 O
atom 4.7782999142619005 8.4799674170130892 33.3406630424913857 O
atom 6.3710860733215755 0.0000335814020413 36.8257574123448634 Pt
atom 1.5927876560983907 2.2743618631834850 39.1267354748499514 Pt
atom 0.0000001696044221 1.6569382640101797 38.0098733749925586 O
atom 0.0000038225923299 2.8917754423601822 40.2436073047107357 O
atom 1.5927547298155302 3.9312690705767102 37.9426228474964944 O
atom 1.5927703760984111 6.8230510831809061 39.1267272798482537 Pt
atom 0.0000020596044936 6.2056239140019658 38.0098490099921662 O
atom 6.3710906325923267 7.4404729823600313 40.2436060797061828 O
atom 1.5927703798155544 8.4799575805737994 37.9426137024951515 O
atom 4.7783090560983785 2.2743662131847162 39.1267390048483534 Pt
atom 3.1855503096044475 1.6569003140072947 38.0098650950057930 O
atom 3.1855463925922933 2.8918018723640753 40.2436184747015204 O
atom 4.7783374898155406 3.9312683005754865 37.9426193374968719 O
atom 3.1855449933215403 4.5486788014055906 36.8257668073585762 Pt
atom 4.7783225760984003 6.8230374031820062 39.1267304398530342 Pt
atom 3.1855449396044424 6.2056013140075681 38.0098650900000479 O
atom 3.1855477225923750 7.4404965423548362 40.2435911696979858 O
atom 4.7783168898155353 8.4799471905757748 37.9426193724987684 O
