#===============================================================================
# Created using the Atomic Simulation Environment (ASE)

# Mon Mar 23 14:01:20 2026

#=======================================================
lattice_vector 6.3710923900000003 0.0000000000000000 0.0000000000000000 
lattice_vector -0.0000000000000100 9.0973690600005526 0.0000000000000000 
lattice_vector 0.0000000000000000 0.0000000000000000 46.0396832947031598 
atom 1.5927667594376036 2.2743411924823329 16.1168937248578814 Pt
atom 6.3710904229437251 1.6569296632988939 15.0000025449963559 O
atom 0.0000050959315045 2.8917887916633189 17.2337778647068909 O
atom 1.5927722157204562 0.6174359250900011 17.3010089122105732 O
atom 0.0000007422144389 4.5487137942616540 18.4178656973474730 Pt
atom 1.5927489894375868 6.8230410224839568 16.1168975998524928 Pt
atom 6.3710919129437276 6.2056037332982816 15.0000000000000000 O
atom 0.0000002859314321 7.4404738216710795 17.2337993497067039 O
atom 1.5927923557204435 5.1661310950911075 17.3010112972069265 O
atom 3.1855474222144280 9.0973664042624609 18.4178672123585976 Pt
atom 4.7783295594375952 2.2743548124831130 16.1168959648531853 Pt
atom 3.1855509229436416 1.6569323333081802 15.0000291949954416 O
atom 3.1855448059315865 2.8917912616540886 17.2337513747060136 O
atom 4.7783151957204719 0.6174437650880045 17.3010031822078325 O
atom 4.7783424994375894 6.8230442324834071 16.1168960198515236 Pt
atom 3.1855464129435682 6.2056101533160914 15.0000511099977665 O
atom 3.1855459059316042 7.4404641216518872 17.2337442697100833 O
atom 4.7782984957204295 5.1661358450923762 17.3010149372051423 O
atom 6.3710861122143747 0.0000272742688220 18.4178870523481422 Pt
atom 1.5927876949911914 2.2743555560502666 20.7188651148532230 Pt
atom 0.0000002084972230 1.6569319568769605 19.6020030149958373 O
atom 0.0000038614851308 2.8917691352269634 21.8357369447140179 O
atom 1.5927544512740481 0.6174502986574331 21.9029788622057886 O
atom 1.5927547687083312 3.9312627634434905 19.5347524874997696 O
atom 0.0000021377679365 9.0973619078393071 23.0198641823604433 Pt
atom 1.5927667205448026 2.2743474996155526 25.3208289048562349 Pt
atom 6.3710903840509232 1.6569359704321129 24.2039377249947094 O
atom 0.0000050570387036 2.8917950987965391 26.4377130447052551 O
atom 1.5927721768276553 0.6174422322232203 26.5049440922089374 O
atom 1.5927728542619086 3.9312652270125747 24.1367271774992460 O
atom 0.0000007033216380 4.5487201013948741 27.6218008773458337 Pt
atom 1.5927704149912121 6.8230447760476851 20.7188569198515360 Pt
atom 0.0000020984972945 6.2056176068687448 19.6019786499954556 O
atom 6.3710906714851268 7.4404666752268120 21.8357357197094650 O
atom 1.5927680712740688 5.1661361386548865 21.9029707672053711 O
atom 1.5927704187083549 8.4799512734405784 19.5347433424984338 O
atom 0.0000027377680021 4.5486860578323034 23.0198448773574214 Pt
atom 1.5927489505447858 6.8230473296171770 25.3208327798508535 Pt
atom 6.3710918740509266 6.2056100404315018 24.2039351799983606 O
atom 0.0000002470386312 7.4404801288042997 26.4377345297050610 O
atom 1.5927923168276428 5.1661374022243267 26.5049464772052872 O
atom 1.5927933942618977 8.4799645670134858 24.1367290024941568 O
atom 3.1855473833216377 0.0000036513951252 27.6218023923569547 Pt
atom 4.7783090949911795 2.2743599060514974 20.7188686448516286 Pt
atom 3.1855503484972481 1.6568940068740752 19.6019947350090717 O
atom 3.1855464314850939 2.8917955652308560 21.8357481147047956 O
atom 4.7783403312740429 0.6174514486578651 21.9029801022055111 O
atom 4.7783375287083416 3.9312619934422677 19.5347489775001506 O
atom 3.1855460577680339 0.0000387578289261 23.0198359723444383 Pt
atom 4.7783295205447942 2.2743611196163331 25.3208311448515460 Pt
atom 3.1855508840508411 1.6569386404413995 24.2039643749937952 O
atom 3.1855447670387855 2.8917975687873079 26.4376865547043778 O
atom 4.7783151568276718 0.6174500722212236 26.5049383622061825 O
atom 4.7783143242619364 3.9312717870093379 24.1367178874969426 O
atom 3.1855450322143417 4.5486724942723695 18.4178964473618585 Pt
atom 4.7783226149912021 6.8230310960487870 20.7188600798563165 Pt
atom 3.1855449784972429 6.2055950068743480 19.6019947300033195 O
atom 3.1855477614851755 7.4404902352216151 21.8357208097012681 O
atom 4.7783191012740378 5.1661268286580473 21.9029798372086333 O
atom 4.7783169287083362 8.4799408834425556 19.5347490125020542 O
atom 3.1855382977679736 4.5487100378353453 23.0198536073490345 Pt
atom 4.7783424605447884 6.8230505396166272 25.3208311998498843 Pt
atom 3.1855463740507672 6.2056164604493098 24.2039862899961307 O
atom 3.1855458670388033 7.4404704287851056 26.4376794497084475 O
atom 4.7782984568276303 5.1661421522255955 26.5049501172035065 O
atom 4.7782999142619005 8.4799674170130892 24.1367278624930250 O
atom 6.3710860733215755 0.0000335814020413 27.6218222323465028 Pt
atom 1.5927876560983907 2.2743618631834850 29.9228002948515908 Pt
atom 0.0000001696044221 1.6569382640101797 28.8059381949941979 O
atom 0.0000038225923299 2.8917754423601822 31.0396721247123750 O
atom 1.5927547298155302 3.9312690705767102 28.7386876674981337 O
atom 1.5927703760984111 6.8230510831809061 29.9227920998498931 Pt
atom 0.0000020596044936 6.2056239140019658 28.8059138299938056 O
atom 6.3710906325923267 7.4404729823600313 31.0396708997078221 O
atom 1.5927703798155544 8.4799575805737994 28.7386785224967909 O
atom 4.7783090560983785 2.2743662131847162 29.9228038248499928 Pt
atom 3.1855503096044475 1.6569003140072947 28.8059299150074324 O
atom 3.1855463925922933 2.8918018723640753 31.0396832947031598 O
atom 4.7783374898155406 3.9312683005754865 28.7386841574985112 O
atom 3.1855449933215403 4.5486788014055906 27.6218316273602156 Pt
atom 4.7783225760984003 6.8230374031820062 29.9227952598546736 Pt
atom 3.1855449396044424 6.2056013140075681 28.8059299100016872 O
atom 3.1855477225923750 7.4404965423548362 31.0396559896996251 O
atom 4.7783168898155353 8.4799471905757748 28.7386841925004077 O
