#===============================================================================
# Created using the Atomic Simulation Environment (ASE)

# Mon Mar 23 14:01:23 2026

#=======================================================
lattice_vector 9.1788565200000374 0.0000000000000000 0.0000000000000000 
lattice_vector -0.0000000170647224 6.4846065199999998 0.0000000000000000 
lattice_vector 0.0000000000000000 0.0000000000000000 43.2219794699993756 
atom 4.5894283029345440 6.4846063066903357 18.1689167334505406 Pt
atom 4.5894278864670595 3.2423023766903341 18.1689184284505778 Pt
atom 2.2947108707331698 1.6211525977290411 15.8742036534508344 Pt
atom 0.8742001391837835 1.6211519339908511 17.2947214819008188 O
atom 1.4205169534493016 0.0000003581247622 15.0000000000000000 O
atom 3.1689185715485020 0.0000011173333493 16.7483973719004204 O
atom 2.2947118772008595 4.8634553577290403 15.8742042084507382 Pt
atom 0.8742002956514170 4.8634562639908507 17.2947214369008044 O
atom 1.4205057499179354 3.2423042581247321 15.0000110150010109 O
atom 3.1689078780175040 3.2423036573333142 16.7484124469013871 O
atom 6.8841512107340250 1.6211505627290397 15.8742128684497352 Pt
atom 5.4636347191842223 1.6211522689908504 17.2947261269002475 O
atom 6.0099428163861006 6.4846062331247349 15.0000166050002122 O
atom 7.7583436415503098 0.0000009023333153 16.7484171469007137 O
atom 6.8841512072019064 4.8634563427290347 15.8742156034497413 Pt
atom 5.4636339456519769 4.8634535589908472 17.2947273919003095 O
atom 6.0099544799173064 3.2423040531247662 15.0000038699991585 O
atom 7.7583552580168043 3.2423030123333474 16.7484044718996579 O
atom 2.2947207257331685 1.6211521106516320 20.4636318834499598 Pt
atom 0.0000063100000091 0.0000007816903301 18.1689251684499773 Pt
atom 3.7152308972827299 1.6211515343898188 19.0431159750000276 O
atom 0.8742027641831310 1.6211489969134456 21.8841424919005867 O
atom 1.4205270513849730 6.4846059210473461 19.5894326099990970 O
atom 3.1689228165486516 0.0000005402559322 21.3378272719000570 O
atom 2.2947216422009613 4.8634539906516308 20.4636335784498762 Pt
atom 0.0000052164675415 3.2423041016903298 18.1689239934500755 Pt
atom 3.7152312237503899 4.8634542143898178 19.0431161999999965 O
atom 0.8742029406508016 4.8634558769134459 21.8841428869005803 O
atom 1.4205125249182180 3.2423038210473170 19.5894423950004146 O
atom 3.1689141630177384 3.2423024002558982 21.3378432769008342 O
atom 6.8841439857332549 1.6211522356516253 20.4636326184504149 Pt
atom 4.5894299629343411 6.4846062825355029 27.3477710134504335 Pt
atom 8.3046651872835824 1.6211519793898104 19.0431251899994862 O
atom 5.4636335341838569 1.6211516719134360 21.8841503269003645 O
atom 6.0099391484501421 0.0000004960473224 19.5894373750005606 O
atom 7.7583351894847761 6.4846065152559005 21.3378364369014903 O
atom 6.8841438422008183 4.8634545956516257 20.4636318134504194 Pt
atom 4.5894295464668566 3.2423023525355008 27.3477727084504636 Pt
atom 8.3046652537511889 4.8634561193898111 19.0431248549994798 O
atom 5.4636332906514742 4.8634531219134365 21.8841500819003834 O
atom 6.0099493649165723 3.2423033160473547 19.5894239899996379 O
atom 7.7583498830160424 3.2423036452559355 21.3378243419001663 O
atom 2.2947125307329674 1.6211525735742076 25.0530579334507237 Pt
atom 9.1788562979342476 6.4846052446129212 22.7583414684505811 Pt
atom 3.7152290822827707 1.6211516173123963 23.6325446950002060 O
atom 0.8742017991835810 1.6211519098360179 26.4735757619006975 O
atom 1.4205186134490990 0.0000003339699292 24.1788542799998893 O
atom 3.1689202315482996 0.0000010931785162 25.9272516519003133 O
atom 2.2947135372006571 4.8634553335742075 25.0530584884506240 Pt
atom 0.0000035114664226 3.2423024846129285 22.7583398634502423 Pt
atom 3.7152293387503792 4.8634532573123970 23.6325443400001873 O
atom 0.8742019556512145 4.8634562398360170 26.4735757169006902 O
atom 1.4205074099177328 3.2423042339699002 24.1788652950008967 O
atom 3.1689095380173016 3.2423036331784809 25.9272667269012729 O
atom 6.8841528707338231 1.6211505385742067 25.0530671484496210 Pt
atom 4.5894322979347377 6.4846055896129187 22.7583471434501945 Pt
atom 8.3046662722832920 1.6211511523123974 23.6325502599993982 O
atom 5.4636363791840195 1.6211522448360174 26.4735804069001261 O
atom 6.0099444763858969 6.4846062089699004 24.1788708850001015 O
atom 7.7583453015501060 0.0000008781784823 25.9272714269005959 O
atom 6.8841528672017027 4.8634563185742010 25.0530698834496306 Pt
atom 4.5894335014672407 3.2423019596129166 22.7583486984500851 Pt
atom 8.3046656687510367 4.8634537823123951 23.6325513949994459 O
atom 5.4636356056517750 4.8634535348360144 26.4735816719001988 O
atom 6.0099561399171044 3.2423040289699343 24.1788581499990443 O
atom 7.7583569180166005 3.2423029881785146 25.9272587518995508 O
atom 0.0000079699998065 0.0000007575354970 27.3477794484498631 Pt
atom 3.7152325572825271 1.6211515102349856 28.2219702549999099 O
atom 0.0000068764673390 3.2423040775354970 27.3477782734499613 Pt
atom 3.7152328837501871 4.8634541902349850 28.2219704799998823 O
atom 8.3046668472833787 1.6211519552349776 28.2219794699993756 O
atom 8.3046669137509852 4.8634560952349775 28.2219791349993656 O
