#===============================================================================
# Created using the Atomic Simulation Environment (ASE)

# Mon Mar 23 14:01:20 2026

#=======================================================
lattice_vector 6.3710923900000003 0.0000000000000000 0.0000000000000000 
lattice_vector -0.0000000000000100 9.0973690600005526 0.0000000000000000 
lattice_vector 0.0000000000000000 0.0000000000000000 50.6416398247060613 
atom 1.5927877338839926 2.2743492489170469 16.1168864648577674 Pt
atom 0.0000002473900238 1.6569256497437412 15.0000243650003853 O
atom 0.0000039003779316 2.8917628280937442 17.2337582947185624 O
atom 1.5927544901668491 0.6174439915242137 17.3010002122103295 O
atom 0.0000021766607374 9.0973556007060896 18.4178855323649877 Pt
atom 1.5927667594376036 2.2743411924823329 20.7188502548607865 Pt
atom 6.3710904229437251 1.6569296632988939 19.6019590749992609 O
atom 0.0000050959315045 2.8917887916633189 21.8357343947097959 O
atom 1.5927722157204562 0.6174359250900011 21.9029654422134783 O
atom 1.5927728931547094 3.9312589198793546 19.5347485275037904 O
atom 0.0000007422144389 4.5487137942616540 23.0198222273503781 Pt
atom 1.5927704538840131 6.8230384689144659 16.1168782698560769 Pt
atom 0.0000021373900953 6.2056112997355273 15.0000000000000000 O
atom 6.3710907103779277 7.4404603680935928 17.2337570697140130 O
atom 1.5927681101668698 5.1661298315216682 17.3009921172099190 O
atom 0.0000027766608029 4.5486797506990850 18.4178662273619658 Pt
atom 1.5927489894375868 6.8230410224839568 20.7188541298553979 Pt
atom 6.3710919129437276 6.2056037332982816 19.6019565300029051 O
atom 0.0000002859314321 7.4404738216710795 21.8357558797096090 O
atom 1.5927923557204435 5.1661310950911075 21.9029678272098316 O
atom 1.5927934331546989 8.4799582598802683 19.5347503524986941 O
atom 3.1855474222144280 9.0973664042624609 23.0198237423615026 Pt
atom 4.7783091338839805 2.2743535989182773 16.1168899948561730 Pt
atom 3.1855503873900490 1.6568876997408559 15.0000160850136233 O
atom 3.1855464703778948 2.8917892580976363 17.2337694647093436 O
atom 4.7783403701668439 0.6174451415246459 17.3010014522100555 O
atom 3.1855460966608340 0.0000324506957068 18.4178573223489899 Pt
atom 4.7783295594375952 2.2743548124831130 20.7188524948560904 Pt
atom 3.1855509229436416 1.6569323333081802 19.6019857249983467 O
atom 3.1855448059315865 2.8917912616540886 21.8357079047089186 O
atom 4.7783151957204719 0.6174437650880045 21.9029597122107376 O
atom 4.7783143631547356 3.9312654798761177 19.5347392375014905 O
atom 4.7783226538840022 6.8230247889155677 16.1168814298608645 Pt
atom 3.1855450173900435 6.2055886997411296 15.0000160800078639 O
atom 3.1855478003779760 7.4404839280883968 17.2337421597058160 O
atom 4.7783191401668397 5.1661205215248289 17.3010011872131777 O
atom 3.1855383366607737 4.5487037307021270 18.4178749573535789 Pt
atom 4.7783424994375894 6.8230442324834071 20.7188525498544287 Pt
atom 3.1855464129435682 6.2056101533160914 19.6020076400006715 O
atom 3.1855459059316042 7.4404641216518872 21.8357007997129884 O
atom 4.7782984957204295 5.1661358450923762 21.9029714672080473 O
atom 4.7782999531546997 8.4799611098798700 19.5347492124975766 O
atom 6.3710861122143747 0.0000272742688220 23.0198435823510472 Pt
atom 1.5927876949911914 2.2743555560502666 25.3208216448561281 Pt
atom 0.0000002084972230 1.6569319568769605 24.2039595449987424 O
atom 0.0000038614851308 2.8917691352269634 26.4376934747169230 O
atom 1.5927544512740481 0.6174502986574331 26.5049353922086937 O
atom 1.5927547687083312 3.9312627634434905 24.1367090175026746 O
atom 0.0000021377679365 9.0973619078393071 27.6218207123633483 Pt
atom 1.5927667205448026 2.2743474996155526 29.9227854348591400 Pt
atom 6.3710903840509232 1.6569359704321129 28.8058942549976145 O
atom 0.0000050570387036 2.8917950987965391 31.0396695747081601 O
atom 1.5927721768276553 0.6174422322232203 31.1069006222118425 O
atom 1.5927728542619086 3.9312652270125747 28.7386837075021511 O
atom 0.0000007033216380 4.5487201013948741 32.2237574073487423 Pt
atom 1.5927704149912121 6.8230447760476851 25.3208134498544410 Pt
atom 0.0000020984972945 6.2056176068687448 24.2039351799983606 O
atom 6.3710906714851268 7.4404666752268120 26.4376922497123701 O
atom 1.5927680712740688 5.1661361386548865 26.5049272972082761 O
atom 1.5927704187083549 8.4799512734405784 24.1366998725013389 O
atom 0.0000027377680021 4.5486860578323034 27.6218014073603264 Pt
atom 1.5927489505447858 6.8230473296171770 29.9227893098537585 Pt
atom 6.3710918740509266 6.2056100404315018 28.8058917100012657 O
atom 0.0000002470386312 7.4404801288042997 31.0396910597079660 O
atom 1.5927923168276428 5.1661374022243267 31.1069030072081922 O
atom 1.5927933942618977 8.4799645670134858 28.7386855324970618 O
atom 3.1855473833216377 0.0000036513951252 32.2237589223598633 Pt
atom 4.7783090949911795 2.2743599060514974 25.3208251748545337 Pt
atom 3.1855503484972481 1.6568940068740752 24.2039512650119768 O
atom 3.1855464314850939 2.8917955652308560 26.4377046447077007 O
atom 4.7783403312740429 0.6174514486578651 26.5049366322084161 O
atom 4.7783375287083416 3.9312619934422677 24.1367055075030557 O
atom 3.1855460577680339 0.0000387578289261 27.6217925023473434 Pt
atom 4.7783295205447942 2.2743611196163331 29.9227876748544510 Pt
atom 3.1855508840508411 1.6569386404413995 28.8059209049967002 O
atom 3.1855447670387855 2.8917975687873079 31.0396430847072828 O
atom 4.7783151568276718 0.6174500722212236 31.1068948922090875 O
atom 4.7783143242619364 3.9312717870093379 28.7386744174998476 O
atom 3.1855450322143417 4.5486724942723695 23.0198529773647635 Pt
atom 4.7783226149912021 6.8230310960487870 25.3208166098592216 Pt
atom 3.1855449784972429 6.2055950068743480 24.2039512600062245 O
atom 3.1855477614851755 7.4404902352216151 26.4376773397041731 O
atom 4.7783191012740378 5.1661268286580473 26.5049363672115383 O
atom 4.7783169287083362 8.4799408834425556 24.1367055425049593 O
atom 3.1855382977679736 4.5487100378353453 27.6218101373519396 Pt
atom 4.7783424605447884 6.8230505396166272 29.9227877298527893 Pt
atom 3.1855463740507672 6.2056164604493098 28.8059428199990357 O
atom 3.1855458670388033 7.4404704287851056 31.0396359797113526 O
atom 4.7782984568276303 5.1661421522255955 31.1069066472064115 O
atom 4.7782999142619005 8.4799674170130892 28.7386843924959301 O
atom 6.3710860733215755 0.0000335814020413 32.2237787623494114 Pt
atom 1.5927876560983907 2.2743618631834850 34.5247568248544923 Pt
atom 0.0000001696044221 1.6569382640101797 33.4078947249971066 O
atom 0.0000038225923299 2.8917754423601822 35.6416286547152765 O
atom 1.5927547298155302 3.9312690705767102 33.3406441975010353 O
atom 1.5927703760984111 6.8230510831809061 34.5247486298527946 Pt
atom 0.0000020596044936 6.2056239140019658 33.4078703599967071 O
atom 6.3710906325923267 7.4404729823600313 35.6416274297107236 O
atom 1.5927703798155544 8.4799575805737994 33.3406350524996924 O
atom 4.7783090560983785 2.2743662131847162 34.5247603548529014 Pt
atom 3.1855503096044475 1.6569003140072947 33.4078864450103339 O
atom 3.1855463925922933 2.8918018723640753 35.6416398247060613 O
atom 4.7783374898155406 3.9312683005754865 33.3406406875014198 O
atom 3.1855449933215403 4.5486788014055906 32.2237881573631171 Pt
atom 4.7783225760984003 6.8230374031820062 34.5247517898575751 Pt
atom 3.1855449396044424 6.2056013140075681 33.4078864400045887 O
atom 3.1855477225923750 7.4404965423548362 35.6416125197025337 O
atom 4.7783168898155353 8.4799471905757748 33.3406407225033092 O
