#===============================================================================
# Created using the Atomic Simulation Environment (ASE)

# Mon Mar 23 14:01:22 2026

#=======================================================
lattice_vector 11.2383934762033828 0.0000000000000000 0.0000000000000000 
lattice_vector 3.7416502063603971 10.5972441125269068 0.0000000000000000 
lattice_vector 0.0000000000000000 0.0000000000000000 34.3143419575488196 
atom 6.7861195511369452 4.8006558871617973 15.0000051523511289 O
atom 8.6569405917836093 10.0992779927640850 15.0000017753647690 O
atom 5.6259210016507728 7.9550690190092705 15.8738072052230308 Pt
atom 12.4053039539144159 4.8006649213636878 15.0000000000000000 O
atom 9.3742879078257513 2.6564512050340987 15.8738059657083674 Pt
atom 11.2451190463146364 7.9550716886051189 15.8738097618034253 Pt
atom 14.2761319668850621 10.0992937176507667 15.0000068772778725 O
atom 4.6938693072154898 3.3205644084303660 19.3143368534042743 Pt
atom 3.7551004425910373 2.6564501210663729 15.8738150875723427 Pt
atom 3.5336765773049486 4.9605849641207866 19.3143335310760449 O
atom 5.8540598375468686 1.6805401399781716 19.3143310232764627 O
atom 4.9152878103384587 3.4772059521440162 17.2936903476413875 O
atom 6.3432726379166029 4.4873975185582555 19.0413012646042397 O
atom 6.5646959061743058 4.6440311039360047 17.0206535446005311 Pt
atom 1.8842750299837050 1.3329836758287985 18.1674976424954160 Pt
atom 5.4045015140509589 6.2840512459535036 17.0206497586740824 O
atom 7.7248824897187989 3.0040045284791401 17.0206502320514765 O
atom 8.2141109359753930 5.8108518065085573 16.7476203105892445 O
atom 8.4355193568907350 9.9426476907475330 17.0206511683199899 Pt
atom 3.7550948123654546 6.6316037826256382 18.1674906864524459 Pt
atom 3.5336831619409392 0.9854311115794033 17.0206578229869869 O
atom 9.5957142147200951 8.3026268387956783 17.0206544438435365 O
atom 6.3432797529486340 0.5122251157455041 16.7476138860947721 O
atom 6.5646948004021377 8.6191823535187311 19.3143337038194787 Pt
atom 5.4045081686124501 10.2592092066620868 19.3143419575488124 O
atom 7.7248906406806706 6.9791616249126864 19.3143365654838064 O
atom 6.7861054952745459 8.7758250688658084 17.2936835267764017 O
atom 8.2140954374819639 9.7860194566294219 19.0412990983772801 O
atom 12.1838892993083370 4.6440225316251240 17.0206484922320165 Pt
atom 7.5034650888802830 1.3329819000554102 18.1674881944428215 Pt
atom 11.0236989693579641 6.2840479985401361 17.0206494240504931 O
atom 2.1056908366436575 3.0040014433638129 17.0206516170490971 O
atom 2.5948977379189446 5.8108609457285434 16.7476149362151112 O
atom 10.3130656227853859 3.3205576350127566 19.3143325651376330 Pt
atom 9.1528751958461871 4.9605831719001534 19.3143318750137531 O
atom 11.4732592403820846 1.6805353426899023 19.3143360759362039 O
atom 10.5344881627137177 3.4771859672853460 17.2936840047634455 O
atom 11.9624795236157286 4.4873818177297231 19.0413002628558701 O
atom 12.1838986846439017 8.6191874045396322 19.3143413373127828 Pt
atom 11.0237044676919744 10.2592105547737305 19.3143399813138785 O
atom 13.3440885981755208 6.9791616776862684 19.3143409760444591 O
atom 12.4053185729266726 8.7758145712213320 17.2936902949890161 O
atom 13.8333081740907726 9.7860088043383016 19.0413067148668986 O
atom 14.0547238826944838 9.9426514113458548 17.0206608474364174 Pt
atom 9.3742961115218701 6.6316066064635049 18.1674945164093060 Pt
atom 9.1528799701618464 0.9854316765454247 17.0206561635453077 O
atom 3.9765217101650823 8.3026272742205283 17.0206561903365170 O
atom 0.7240792212104361 0.5122447052106659 16.7476217345931566 O
