#===============================================================================
# Created using the Atomic Simulation Environment (ASE)

# Mon Mar 23 14:01:20 2026

#=======================================================
lattice_vector 6.3710923900000003 0.0000000000000000 0.0000000000000000 
lattice_vector -0.0000000000000100 9.0973690600005526 0.0000000000000000 
lattice_vector 0.0000000000000000 0.0000000000000000 52.9426152924936915 
atom 1.5927722546132570 0.6174296179567816 15.0000057300027478 O
atom 0.0000007811072397 4.5487074871284356 16.1168625151396441 Pt
atom 1.5927923946132443 5.1661247879578873 15.0000081149990976 O
atom 3.1855474611072294 9.0973600971292381 16.1168640301507686 Pt
atom 4.7783152346132729 0.6174374579547851 15.0000000000000000 O
atom 4.7782985346132314 5.1661295379591561 15.0000117549973169 O
atom 6.3710861511071766 0.0000209671356027 16.1168838701403168 Pt
atom 1.5927877338839926 2.2743492489170469 18.4178619326453941 Pt
atom 0.0000002473900238 1.6569256497437412 17.3009998327880119 O
atom 0.0000039003779316 2.8917628280937442 19.5347337625061890 O
atom 1.5927544901668491 0.6174439915242137 19.6019756799979561 O
atom 1.5927548076011320 3.9312564563102712 17.2337493052919406 O
atom 0.0000021766607374 9.0973556007060896 20.7188610001526143 Pt
atom 1.5927667594376036 2.2743411924823329 23.0198257226484131 Pt
atom 6.3710904229437251 1.6569296632988939 21.9029345427868876 O
atom 0.0000050959315045 2.8917887916633189 24.1367098624974226 O
atom 1.5927722157204562 0.6174359250900011 24.2039409100011049 O
atom 1.5927728931547094 3.9312589198793546 21.8357239952914171 O
atom 0.0000007422144389 4.5487137942616540 25.3207976951380047 Pt
atom 1.5927704538840131 6.8230384689144659 18.4178537376437035 Pt
atom 0.0000021373900953 6.2056112997355273 17.3009754677876266 O
atom 6.3710907103779277 7.4404603680935928 19.5347325375016396 O
atom 1.5927681101668698 5.1661298315216682 19.6019675849975457 O
atom 1.5927704576011563 8.4799449663073609 17.2337401602906013 O
atom 0.0000027766608029 4.5486797506990850 20.7188416951495924 Pt
atom 1.5927489894375868 6.8230410224839568 23.0198295976430245 Pt
atom 6.3710919129437276 6.2056037332982816 21.9029319977905317 O
atom 0.0000002859314321 7.4404738216710795 24.1367313474972356 O
atom 1.5927923557204435 5.1661310950911075 24.2039432949974582 O
atom 1.5927934331546989 8.4799582598802683 21.8357258202863207 O
atom 3.1855474222144280 9.0973664042624609 25.3207992101491293 Pt
atom 4.7783091338839805 2.2743535989182773 18.4178654626437996 Pt
atom 3.1855503873900490 1.6568876997408559 17.3009915528012499 O
atom 3.1855464703778948 2.8917892580976363 19.5347449324969702 O
atom 4.7783403701668439 0.6174451415246459 19.6019769199976821 O
atom 4.7783375676011417 3.9312556863090475 17.2337457952923216 O
atom 3.1855460966608340 0.0000324506957068 20.7188327901366165 Pt
atom 4.7783295594375952 2.2743548124831130 23.0198279626437170 Pt
atom 3.1855509229436416 1.6569323333081802 21.9029611927859733 O
atom 3.1855448059315865 2.8917912616540886 24.1366833724965453 O
atom 4.7783151957204719 0.6174437650880045 24.2039351799983642 O
atom 4.7783143631547356 3.9312654798761177 21.8357147052891172 O
atom 3.1855450711071422 4.5486661871391512 16.1168932651540295 Pt
atom 4.7783226538840022 6.8230247889155677 18.4178568976484911 Pt
atom 3.1855450173900435 6.2055886997411296 17.3009915477954905 O
atom 3.1855478003779760 7.4404839280883968 19.5347176274934426 O
atom 4.7783191401668397 5.1661205215248289 19.6019766550008043 O
atom 4.7783169676011372 8.4799345763093363 17.2337458302942252 O
atom 3.1855383366607737 4.5487037307021270 20.7188504251412056 Pt
atom 4.7783424994375894 6.8230442324834071 23.0198280176420553 Pt
atom 3.1855464129435682 6.2056101533160914 21.9029831077882982 O
atom 3.1855459059316042 7.4404641216518872 24.1366762675006150 O
atom 4.7782984957204295 5.1661358450923762 24.2039469349956740 O
atom 4.7782999531546997 8.4799611098798700 21.8357246802852032 O
atom 6.3710861122143747 0.0000272742688220 25.3208190501386738 Pt
atom 1.5927876949911914 2.2743555560502666 27.6217971126437547 Pt
atom 0.0000002084972230 1.6569319568769605 26.5049350127863690 O
atom 0.0000038614851308 2.8917691352269634 28.7386689425045496 O
atom 1.5927544512740481 0.6174502986574331 28.8059108599963203 O
atom 1.5927547687083312 3.9312627634434905 26.4376844852903012 O
atom 0.0000021377679365 9.0973619078393071 29.9227961801509750 Pt
atom 1.5927667205448026 2.2743474996155526 32.2237609026467666 Pt
atom 6.3710903840509232 1.6569359704321129 31.1068697227852411 O
atom 0.0000050570387036 2.8917950987965391 33.3406450424957868 O
atom 1.5927721768276553 0.6174422322232203 33.4078760899994691 O
atom 1.5927728542619086 3.9312652270125747 31.0396591752897777 O
atom 0.0000007033216380 4.5487201013948741 34.5247328751363654 Pt
atom 1.5927704149912121 6.8230447760476851 27.6217889176420677 Pt
atom 0.0000020984972945 6.2056176068687448 26.5049106477859873 O
atom 6.3710906714851268 7.4404666752268120 28.7386677174999967 O
atom 1.5927680712740688 5.1661361386548865 28.8059027649959027 O
atom 1.5927704187083549 8.4799512734405784 26.4376753402889655 O
atom 0.0000027377680021 4.5486860578323034 29.9227768751479530 Pt
atom 1.5927489505447858 6.8230473296171770 32.2237647776413851 Pt
atom 6.3710918740509266 6.2056100404315018 31.1068671777888923 O
atom 0.0000002470386312 7.4404801288042997 33.3406665274955927 O
atom 1.5927923168276428 5.1661374022243267 33.4078784749958189 O
atom 1.5927933942618977 8.4799645670134858 31.0396610002846884 O
atom 3.1855473833216377 0.0000036513951252 34.5247343901474864 Pt
atom 4.7783090949911795 2.2743599060514974 27.6218006426421603 Pt
atom 3.1855503484972481 1.6568940068740752 26.5049267327996034 O
atom 3.1855464314850939 2.8917955652308560 28.7386801124953273 O
atom 4.7783403312740429 0.6174514486578651 28.8059120999960427 O
atom 4.7783375287083416 3.9312619934422677 26.4376809752906823 O
atom 3.1855460577680339 0.0000387578289261 29.9227679701349700 Pt
atom 4.7783295205447942 2.2743611196163331 32.2237631426420776 Pt
atom 3.1855508840508411 1.6569386404413995 31.1068963727843268 O
atom 3.1855447670387855 2.8917975687873079 33.3406185524949095 O
atom 4.7783151568276718 0.6174500722212236 33.4078703599967142 O
atom 4.7783143242619364 3.9312717870093379 31.0396498852874743 O
atom 3.1855450322143417 4.5486724942723695 25.3208284451523902 Pt
atom 4.7783226149912021 6.8230310960487870 27.6217920776468482 Pt
atom 3.1855449784972429 6.2055950068743480 26.5049267277938512 O
atom 3.1855477614851755 7.4404902352216151 28.7386528074917997 O
atom 4.7783191012740378 5.1661268286580473 28.8059118349991650 O
atom 4.7783169287083362 8.4799408834425556 26.4376810102925859 O
atom 3.1855382977679736 4.5487100378353453 29.9227856051395662 Pt
atom 4.7783424605447884 6.8230505396166272 32.2237631976404160 Pt
atom 3.1855463740507672 6.2056164604493098 31.1069182877866623 O
atom 3.1855458670388033 7.4404704287851056 33.3406114474989792 O
atom 4.7782984568276303 5.1661421522255955 33.4078821149940381 O
atom 4.7782999142619005 8.4799674170130892 31.0396598602835567 O
atom 6.3710860733215755 0.0000335814020413 34.5247542301370345 Pt
atom 1.5927876560983907 2.2743618631834850 36.8257322926421224 Pt
atom 0.0000001696044221 1.6569382640101797 35.7088701927847296 O
atom 0.0000038225923299 2.8917754423601822 37.9426041225029067 O
atom 1.5927547298155302 3.9312690705767102 35.6416196652886654 O
atom 1.5927703760984111 6.8230510831809061 36.8257240976404248 Pt
atom 0.0000020596044936 6.2056239140019658 35.7088458277843372 O
atom 6.3710906325923267 7.4404729823600313 37.9426028974983538 O
atom 1.5927703798155544 8.4799575805737994 35.6416105202873226 O
atom 4.7783090560983785 2.2743662131847162 36.8257358226405245 Pt
atom 3.1855503096044475 1.6569003140072947 35.7088619127979641 O
atom 3.1855463925922933 2.8918018723640753 37.9426152924936915 O
atom 4.7783374898155406 3.9312683005754865 35.6416161552890429 O
atom 3.1855449933215403 4.5486788014055906 34.5247636251507473 Pt
atom 4.7783225760984003 6.8230374031820062 36.8257272576452053 Pt
atom 3.1855449396044424 6.2056013140075681 35.7088619077922189 O
atom 3.1855477225923750 7.4404965423548362 37.9425879874901568 O
atom 4.7783168898155353 8.4799471905757748 35.6416161902909394 O
