#===============================================================================
# Created using the Atomic Simulation Environment (ASE)

# Mon Mar 23 14:01:22 2026

#=======================================================
lattice_vector 11.2383934762033828 0.0000000000000000 0.0000000000000000 
lattice_vector 3.7416502063603971 10.5972441125269068 0.0000000000000000 
lattice_vector 0.0000000000000000 0.0000000000000000 41.4684280331976822 
atom 12.1771669804816369 8.6144276876553842 17.2936883611722578 Pt
atom 11.0169742505710957 10.2544482433458075 17.2936850388440320 O
atom 13.3373575108130176 6.9744034192031892 17.2936825310444497 O
atom 12.3985854836046112 8.7710692313690348 15.2730418554093710 O
atom 13.8265703111827545 9.7812607977832737 17.0206527723722232 O
atom 14.0479935794404547 9.9378943831610247 15.0000050523685111 Pt
atom 9.3675727032498486 6.6268469550538178 16.1468491502633995 Pt
atom 9.1461489809567009 0.9806704126516161 15.0000012664420623 O
atom 3.9697866867815650 8.2978678077041597 15.0000017398194636 O
atom 10.5277683877700259 7.4475875267743046 17.5667239440595573 O
atom 12.1771668237964867 4.6392668574456453 15.0000026760879770 Pt
atom 7.4967422792712055 1.3282229493237512 16.1468421942204294 Pt
atom 11.0169808352070859 6.2792943908044228 15.0000093307549704 O
atom 2.0989682054224645 2.9992460054937915 15.0000059516115236 O
atom 8.6569392220562822 2.1489655198496882 17.5667205670731974 O
atom 10.3063422673078957 3.3158015202168438 17.2936852115874622 Pt
atom 5.6259196319234492 0.0047565460948755 18.4405259969314592 Pt
atom 9.1461556355182037 4.9558283733601991 17.2936934653167960 O
atom 11.4665381075864179 1.6757807916107987 17.2936880732517899 O
atom 10.5277529621802994 3.4724442355639216 15.2730350345443888 O
atom 11.9557429043877139 4.4826386233275350 17.0206506061452636 O
atom 8.4287934963710995 9.9378858108501440 15.0000000000000000 Pt
atom 3.7483692859430384 6.6268451792804299 16.1468397022108014 Pt
atom 3.5269529600603331 0.9806671652382485 15.0000009318184766 O
atom 9.5889885099098056 8.2978647225888320 15.0000031248170806 O
atom 4.9085593143441102 7.4475965609761996 17.5667187917084249 O
atom 6.5579698198481493 8.6144209142377743 17.2936840729056200 Pt
atom 1.8775432682554494 5.3033828446466060 18.4405247574167994 Pt
atom 5.3977793929089408 10.2544464511251743 17.2936833827817331 O
atom 7.7181634374448507 6.9743986219149203 17.2936875837041875 O
atom 6.7793923597764847 8.7710492465103673 15.2730355125314254 O
atom 8.2073837206784912 9.7812450969547413 17.0206517706238536 O
atom 4.6871526753462733 3.3158065712377462 17.2936928450807663 Pt
atom 0.0067242003839275 0.0047592156907233 18.4405285535118502 Pt
atom 3.5269584583943399 4.9558297214718428 17.2936914890818620 O
atom 5.8473425888778872 1.6757808443843816 17.2936924838124426 O
atom 4.9085725636290389 3.4724337379194448 15.2730418027569996 O
atom 6.3365621647931318 4.4826279710364147 17.0206582226348750 O
atom 6.5579778733968510 4.6392705780439689 15.0000123552044009 Pt
atom 1.8775501022242314 1.3282257731616187 16.1468460241772860 Pt
atom 5.3977841672246170 6.2792949557704452 15.0000076713132877 O
atom 7.7181691770708332 2.9992464409186406 15.0000076981044970 O
atom 3.0377371209543584 2.1489812447363699 17.5667256689863009 O
atom 8.4355181438485651 5.9674960480428769 21.8810556451127027 Pt
atom 7.4967492792241028 5.3033817606788833 18.4405338792807676 Pt
atom 7.2753254139380239 7.6075166037332966 21.8810523227844804 O
atom 9.5957086741799476 4.3274717795906783 21.8810498149848911 O
atom 8.6569366469715341 6.1241375917565266 19.8604091393498088 O
atom 10.0849214745496774 7.1343291581707629 21.6080200563126645 O
atom 10.3063447428073722 7.2909627435485156 19.5873723363089560 Pt
atom 5.6259238666167803 3.9799153154413074 20.7342164342038444 Pt
atom 9.1461503506840245 8.9309828855660136 19.5873685503825072 O
atom 11.4665313263518680 5.6509361680916488 19.5873690237599050 O
atom 6.7861195511369452 4.8006558871617973 22.1540912279999986 O
atom 11.9557597726084648 8.4577834461210681 19.3143391022976694 O
atom 8.4355179871634132 1.9923352178331355 19.5873699600284219 Pt
atom 7.4967436489985255 9.2785354222381482 20.7342094781608743 Pt
atom 7.2753319985740141 3.6323627511919119 19.5873766146954154 O
atom 9.5957128449927716 0.3523143658812810 19.5873732355519685 O
atom 8.6569405917836093 10.0992779927640850 22.1540878510136388 O
atom 10.0849285895817076 3.1591567553580142 19.3143326778032005 O
atom 6.5646934306748204 0.6688698806043322 21.8810524955279071 Pt
atom 5.6259210016507728 7.9550690190092705 23.0278932808719006 Pt
atom 5.4045067988851283 2.3088967337476887 21.8810607492572409 O
atom 11.4665394773137450 9.6260932645251955 21.8810553571922348 O
atom 6.7861041255472188 0.8255125959514117 19.8604023184848302 O
atom 8.2140940677546315 1.8357069837150251 21.6080178900857085 O
atom 4.6871446597380206 7.2909541712376358 19.5873672839404414 Pt
atom 11.2451139255133477 3.9799135396679226 20.7342069861512464 Pt
atom 3.5269543297876575 8.9309796381526461 19.5873682157589180 O
atom 5.8473396732767329 5.6509330829763229 19.5873704087575220 O
atom 12.4053039539144159 4.8006649213636878 22.1540860756488698 O
atom 6.3365465745520204 8.4577925853410534 19.3143337279235361 O
atom 2.8163209832150784 5.9674892746252644 21.8810513568460614 Pt
atom 9.3742879078257513 2.6564512050340987 23.0278920413572372 Pt
atom 12.8945240324792518 7.6075148115126634 21.8810506667221780 O
atom 3.9765146008117771 4.3274669823024103 21.8810548676446324 O
atom 3.0377435231434093 6.1241176068978564 19.8604027964718703 O
atom 4.4657348840454159 7.1343134573422313 21.6080190545642985 O
atom 0.9455038387131879 0.6688749316252358 21.8810601290212112 Pt
atom 11.2451190463146364 7.9550716886051189 23.0278958374522951 Pt
atom 11.0237030979646438 2.3088980818593341 21.8810587730223070 O
atom 5.8473439586052098 9.6260933172987801 21.8810597677528840 O
atom 1.1669237269959685 0.8255020983069350 19.8604090866974410 O
atom 2.5949133281600543 1.8356963314239045 21.6080255065753200 O
atom 2.8163290367637850 1.9923389384314585 19.5873796391448458 Pt
atom 13.1159449481549402 9.2785382460760157 20.7342133081177273 Pt
atom 1.6561353305915396 3.6323633161579361 19.5873749552537291 O
atom 3.9765203404377596 0.3523148013061300 19.5873749820449419 O
atom 14.2761319668850621 10.0992937176507667 22.1540929529267423 O
atom 4.4657280578435117 3.1591763448231744 19.3143405263015815 O
atom 4.6938693072154898 3.3205644084303660 26.4684229290531441 Pt
atom 3.7551004425910373 2.6564501210663729 23.0279011632212125 Pt
atom 3.5336765773049486 4.9605849641207866 26.4684196067249147 O
atom 5.8540598375468686 1.6805401399781716 26.4684170989253325 O
atom 4.9152878103384587 3.4772059521440162 24.4477764232902572 O
atom 6.3432726379166029 4.4873975185582555 26.1953873402531094 O
atom 6.5646959061743058 4.6440311039360047 24.1747396202494009 Pt
atom 1.8842750299837050 1.3329836758287985 25.3215837181442858 Pt
atom 5.4045015140509589 6.2840512459535036 24.1747358343229521 O
atom 7.7248824897187989 3.0040045284791401 24.1747363077003463 O
atom 8.2141109359753930 5.8108518065085573 23.9017063862381143 O
atom 8.4355193568907350 9.9426476907475330 24.1747372439688597 Pt
atom 3.7550948123654546 6.6316037826256382 25.3215767621013157 Pt
atom 3.5336831619409392 0.9854311115794033 24.1747438986358567 O
atom 9.5957142147200951 8.3026268387956783 24.1747405194924063 O
atom 6.3432797529486340 0.5122251157455041 23.9016999617436419 O
atom 6.5646948004021377 8.6191823535187311 26.4684197794683485 Pt
atom 5.4045081686124501 10.2592092066620868 26.4684280331976822 O
atom 7.7248906406806706 6.9791616249126864 26.4684226411326762 O
atom 6.7861054952745459 8.7758250688658084 24.4477696024252715 O
atom 8.2140954374819639 9.7860194566294219 26.1953851740261499 O
atom 12.1838892993083370 4.6440225316251240 24.1747345678808863 Pt
atom 7.5034650888802830 1.3329819000554102 25.3215742700916913 Pt
atom 11.0236989693579641 6.2840479985401361 24.1747354996993629 O
atom 2.1056908366436575 3.0040014433638129 24.1747376926979669 O
atom 2.5948977379189446 5.8108609457285434 23.9017010118639810 O
atom 10.3130656227853859 3.3205576350127566 26.4684186407865027 Pt
atom 9.1528751958461871 4.9605831719001534 26.4684179506626229 O
atom 11.4732592403820846 1.6805353426899023 26.4684221515850737 O
atom 10.5344881627137177 3.4771859672853460 24.4477700804123153 O
atom 11.9624795236157286 4.4873818177297231 26.1953863385047399 O
atom 12.1838986846439017 8.6191874045396322 26.4684274129616526 Pt
atom 11.0237044676919744 10.2592105547737305 26.4684260569627483 O
atom 13.3440885981755208 6.9791616776862684 26.4684270516933289 O
atom 12.4053185729266726 8.7758145712213320 24.4477763706378859 O
atom 13.8333081740907726 9.7860088043383016 26.1953927905157684 O
atom 14.0547238826944838 9.9426514113458548 24.1747469230852872 Pt
atom 9.3742961115218701 6.6316066064635049 25.3215805920581758 Pt
atom 9.1528799701618464 0.9854316765454247 24.1747422391941775 O
atom 3.9765217101650823 8.3026272742205283 24.1747422659853868 O
atom 0.7240792212104361 0.5122447052106659 23.9017078102420264 O
