#===============================================================================
# Created using the Atomic Simulation Environment (ASE)

# Mon Mar 23 14:01:22 2026

#=======================================================
lattice_vector 9.1788542800000368 0.0000000000000000 0.0000000000000000 
lattice_vector 0.0000016600002026 9.1788565199998882 0.0000000000000000 
lattice_vector 0.0000000000000000 0.0000000000000000 47.8326706400000248 
atom 1.4205122713864446 1.4205234744851378 15.0000006680952076 O
atom 9.1788512479351194 4.5894249829355713 15.0000010500000016 Pt
atom 4.5894225329351048 9.1788521479357374 15.0000000000000000 Pt
atom 4.5894273779353876 4.5894281479352763 15.0000003450000090 Pt
atom 6.0099513763855104 6.0099400694840739 15.0000009680952058 O
atom 2.2947116986694134 2.2947169736692770 16.6211533800000097 Pt
atom 0.0000045729355453 0.0000029729348647 15.0000020450000182 Pt
atom 0.8741960471193889 3.7152274021197367 16.6211528000000044 O
atom 3.7152220502187387 0.8741987552193006 16.6211502700000011 O
atom 1.4205122543217206 1.4205234574204186 21.4846071880952039 O
atom 3.1689072494855082 3.1689189063861276 15.0000018119048200 O
atom 2.2947133851371366 2.2947178901367655 19.8634552600000127 Pt
atom 0.0000033894030851 0.0000018794026112 18.2423053650000142 Pt
atom 0.8741962635870579 3.7152277285873567 19.8634554800000060 O
atom 3.7152224366863886 0.8741989316869013 19.8634571500000021 O
atom 1.4205220478527667 1.4205089309518923 18.2423050880952005 O
atom 3.1689232459523651 3.1689102528523221 18.2423036719048284 O
atom 2.2947132636690624 6.8841402336691537 16.6211535050000059 Pt
atom 9.1788512308703964 4.5894249658708519 21.4846075700000014 Pt
atom 0.8742060921200353 8.3046616921188470 16.6211532450000234 O
atom 3.7152307152190640 5.4636295252185336 16.6211529450000128 O
atom 1.4205178663850815 6.0099355544846480 15.0000017630951934 O
atom 3.1689172444841742 7.7583312963852427 15.0000012669048139 O
atom 2.2947124501366893 6.8841400901368681 19.8634558650000059 Pt
atom 9.1788529344027197 4.5894245494030601 18.2423036400000029 Pt
atom 0.8742057485876789 8.3046617585865121 19.8634573850000180 O
atom 3.7152304616866827 5.4636292816861971 19.8634543950000122 O
atom 1.4205044728536445 6.0099457709534985 18.2423045830951907 O
atom 3.1689051409531395 7.7583459728539763 18.2423049169048141 O
atom 6.8841377486686186 2.2947079486693749 16.6211538550000029 Pt
atom 4.5894225158703810 9.1788521308710163 21.4846065199999998 Pt
atom 5.4636247671191693 3.7152247571195929 16.6211528950000016 O
atom 8.3046553202185915 0.8741969602187432 16.6211531950000051 O
atom 6.0099339413856221 1.4205141894856317 15.0000016130951899 O
atom 7.7583316294852178 3.1689154913863766 15.0000023769048134 O
atom 6.8841382951363475 2.2947089551369655 19.8634566150000040 Pt
atom 4.5894209194030795 9.1788558644035181 18.2423037599999986 Pt
atom 5.4636244035868318 3.7152250135872666 19.8634545350000025 O
atom 8.3046552666862414 0.8741971166863864 19.8634575250000083 O
atom 6.0099449478522491 1.4205029859522755 18.2423055130951894 O
atom 7.7583466959518903 3.1689047978526541 18.2423049169048177 O
atom 6.8841477936698130 6.8841482886684870 16.6211518200000228 Pt
atom 4.5894273608706637 4.5894281308705569 21.4846068650000106 Pt
atom 5.4636311621200777 8.3046619471190279 16.6211524300000164 O
atom 8.3046607952192630 5.4636315402182669 16.6211535300000222 O
atom 6.0099513593207865 6.0099400524193554 21.4846074880952074 O
atom 7.7583522344850326 7.7583405613845322 15.0000021619048312 O
atom 6.8841505201374478 6.8841482851358764 19.8634576000000251 Pt
atom 4.5894289244031352 4.5894293344027774 18.2423032350000121 Pt
atom 5.4636322885876627 8.3046613435865719 19.8634550600000210 O
atom 8.3046620516868330 5.4636307666857942 19.8634548200000189 O
atom 6.0099386328542002 6.0099517159528633 18.2423053080952045 O
atom 7.7583395509537230 7.7583521778533209 18.2423042719048283 O
atom 2.2947116816046891 2.2947169566045571 23.1057599000000096 Pt
atom 0.0000045558708212 0.0000029558701454 21.4846085650000163 Pt
atom 0.8741960300546648 3.7152273850550177 23.1057593200000042 O
atom 3.7152220331540144 0.8741987381545813 23.1057567900000009 O
atom 1.4205122372569963 1.4205234403556990 27.9692137080952037 O
atom 3.1689072324207843 3.1689188893214082 21.4846083319048233 O
atom 2.2947133680724123 2.2947178730720461 26.3480617800000125 Pt
atom 0.0000033723383609 0.0000018623378919 24.7269118850000140 Pt
atom 0.8741962465223339 3.7152277115226373 26.3480620000000059 O
atom 3.7152224196216648 0.8741989146221819 26.3480636700000019 O
atom 1.4205220307880424 1.4205089138871727 24.7269116080952003 O
atom 3.1689232288876412 3.1689102357876031 24.7269101919048282 O
atom 2.2947132466043385 6.8841402166044343 23.1057600250000057 Pt
atom 9.1788512138056717 4.5894249488061334 27.9692140899999977 Pt
atom 0.8742060750553112 8.3046616750541276 23.1057597650000233 O
atom 3.7152306981543397 5.4636295081538142 23.1057594650000127 O
atom 1.4205178493203570 6.0099355374199295 21.4846082830951914 O
atom 3.1689172274194504 7.7583312793205232 21.4846077869048102 O
atom 2.2947124330719655 6.8841400730721496 26.3480623850000022 Pt
atom 9.1788529173379949 4.5894245323383407 24.7269101600000027 Pt
atom 0.8742057315229548 8.3046617415217945 26.3480639050000178 O
atom 3.7152304446219584 5.4636292646214777 26.3480609150000120 O
atom 1.4205044557889202 6.0099457538887799 24.7269111030951905 O
atom 3.1689051238884156 7.7583459557892578 24.7269114369048140 O
atom 6.8841377316038930 2.2947079316046555 23.1057603750000027 Pt
atom 4.5894224988056571 9.1788521138062986 27.9692130399999961 Pt
atom 5.4636247500544446 3.7152247400548735 23.1057594150000014 O
atom 8.3046553031538668 0.8741969431540239 23.1057597150000049 O
atom 6.0099339243208982 1.4205141724209123 21.4846081330951897 O
atom 7.7583316124204931 3.1689154743216577 21.4846088969048132 O
atom 6.8841382780716236 2.2947089380722465 26.3480631349999967 Pt
atom 4.5894209023383556 9.1788558473388004 24.7269102799999985 Pt
atom 5.4636243865221088 3.7152249965225481 26.3480610550000023 O
atom 8.3046552496215185 0.8741970996216671 26.3480640450000045 O
atom 6.0099449307875252 1.4205029688875559 24.7269120330951857 O
atom 7.7583466788871664 3.1689047807879351 24.7269114369048175 O
atom 6.8841477766050883 6.8841482716037685 23.1057583400000226 Pt
atom 4.5894273438059390 4.5894281138058375 27.9692133850000069 Pt
atom 5.4636311450553539 8.3046619300543103 23.1057589500000162 O
atom 8.3046607781545401 5.4636315231535475 23.1057600500000220 O
atom 6.0099513422560626 6.0099400353546359 27.9692140080952036 O
atom 7.7583522174203070 7.7583405443198128 21.4846086819048310 O
atom 6.8841505030727230 6.8841482680711579 26.3480641200000250 Pt
atom 4.5894289073384105 4.5894293173380580 24.7269097550000083 Pt
atom 5.4636322715229380 8.3046613265218525 26.3480615800000173 O
atom 8.3046620346221083 5.4636307496210748 26.3480613400000152 O
atom 6.0099386157894763 6.0099516988881447 24.7269118280952007 O
atom 7.7583395338889973 7.7583521607886015 24.7269107919048281 O
atom 2.2947116645399652 2.2947169395398386 29.5903664200000094 Pt
atom 0.0000045388060970 0.0000029388054260 27.9692150850000161 Pt
atom 0.8741960129899407 3.7152273679902983 29.5903658400000005 O
atom 3.7152220160892901 0.8741987210898620 29.5903633100000008 O
atom 3.1689072153560600 3.1689188722566888 27.9692148519048160 O
atom 2.2947133510076885 2.2947178560073263 32.8326683000000088 Pt
atom 0.0000033552736368 0.0000018452731725 31.2115184050000138 Pt
atom 0.8741962294576098 3.7152276944579183 32.8326685200000057 O
atom 3.7152224025569405 0.8741988975574626 32.8326701900000018 O
atom 1.4205220137233183 1.4205088968224537 31.2115181280952001 O
atom 3.1689232118229169 3.1689102187228833 31.2115167119048280 O
atom 2.2947132295396142 6.8841401995397158 29.5903665450000055 Pt
atom 0.8742060579905870 8.3046616579894081 29.5903662850000195 O
atom 3.7152306810896158 5.4636294910890948 29.5903659850000125 O
atom 1.4205178322556331 6.0099355203552101 27.9692148030951913 O
atom 3.1689172103547261 7.7583312622558038 27.9692143069048136 O
atom 2.2947124160072407 6.8841400560074293 32.8326689050000056 Pt
atom 9.1788529002732719 4.5894245152736222 31.2115166800000026 Pt
atom 0.8742057144582306 8.3046617244570733 32.8326704250000176 O
atom 3.7152304275572345 5.4636292475567592 32.8326674350000118 O
atom 1.4205044387241961 6.0099457368240605 31.2115176230951903 O
atom 3.1689051068236913 7.7583459387245393 31.2115179569048138 O
atom 6.8841377145391691 2.2947079145399361 29.5903668949999989 Pt
atom 5.4636247329897207 3.7152247229901545 29.5903659350000012 O
atom 8.3046552860891438 0.8741969260893044 29.5903662350000047 O
atom 6.0099339072561744 1.4205141553561931 27.9692146530951895 O
atom 7.7583315953557692 3.1689154572569382 27.9692154169048131 O
atom 6.8841382610068989 2.2947089210075271 32.8326696549999966 Pt
atom 4.5894208852736318 9.1788558302740793 31.2115167999999983 Pt
atom 5.4636243694573841 3.7152249794578287 32.8326675750000021 O
atom 8.3046552325567937 0.8741970825569477 32.8326705650000008 O
atom 6.0099449137228005 1.4205029518228369 31.2115185530951855 O
atom 7.7583466618224417 3.1689047637232157 31.2115179569048173 O
atom 6.8841477595403644 6.8841482545390491 29.5903648600000189 Pt
atom 5.4636311279906300 8.3046619129895891 29.5903654700000160 O
atom 8.3046607610898135 5.4636315060888299 29.5903665700000182 O
atom 7.7583522003555840 7.7583405272550934 27.9692152019048272 O
atom 6.8841504860079992 6.8841482510064385 32.8326706400000248 Pt
atom 4.5894288902736875 4.5894293002733386 31.2115162750000081 Pt
atom 5.4636322544582141 8.3046613094571331 32.8326681000000207 O
atom 8.3046620175573853 5.4636307325563553 32.8326678600000150 O
atom 6.0099385987247524 6.0099516818234244 31.2115183480952005 O
atom 7.7583395168242744 7.7583521437238820 31.2115173119048279 O
