#===============================================================================
# Created using the Atomic Simulation Environment (ASE)

# Mon Mar 23 14:01:23 2026

#=======================================================
lattice_vector 9.1788565200000374 0.0000000000000000 0.0000000000000000 
lattice_vector -0.0000000170647224 6.4846065199999998 0.0000000000000000 
lattice_vector 0.0000000000000000 0.0000000000000000 38.6325554799997377 
atom 2.2947207257331685 1.6211521106516320 15.8742078934503219 Pt
atom 0.8742027641831310 1.6211489969134456 17.2947185019009488 O
atom 1.4205270513849730 6.4846059210473461 15.0000086199994591 O
atom 3.1689228165486516 0.0000005402559322 16.7484032819004192 O
atom 2.2947216422009613 4.8634539906516308 15.8742095884502383 Pt
atom 0.8742029406508016 4.8634558769134459 17.2947188969009424 O
atom 1.4205125249182180 3.2423038210473170 15.0000184050007768 O
atom 3.1689141630177384 3.2423024002558982 16.7484192869011963 O
atom 6.8841439857332549 1.6211522356516253 15.8742086284507771 Pt
atom 4.5894299629343411 6.4846062825355029 22.7583470234507956 Pt
atom 5.4636335341838569 1.6211516719134360 17.2947263369007267 O
atom 6.0099391484501421 0.0000004960473224 15.0000133850009227 O
atom 7.7583351894847761 6.4846065152559005 16.7484124469018525 O
atom 6.8841438422008183 4.8634545956516257 15.8742078234507815 Pt
atom 4.5894295464668566 3.2423023525355008 22.7583487184508257 Pt
atom 5.4636332906514742 4.8634531219134365 17.2947260919007455 O
atom 6.0099493649165723 3.2423033160473547 15.0000000000000000 O
atom 7.7583498830160424 3.2423036452559355 16.7484003519005284 O
atom 2.2947125307329674 1.6211525735742076 20.4636339434510859 Pt
atom 9.1788562979342476 6.4846052446129212 18.1689174784509433 Pt
atom 3.7152290822827707 1.6211516173123963 19.0431207050005682 O
atom 0.8742017991835810 1.6211519098360179 21.8841517719010596 O
atom 1.4205186134490990 0.0000003339699292 19.5894302900002515 O
atom 3.1689202315482996 0.0000010931785162 21.3378276619006755 O
atom 2.2947135372006571 4.8634553335742075 20.4636344984509861 Pt
atom 0.0000035114664226 3.2423024846129285 18.1689158734506044 Pt
atom 3.7152293387503792 4.8634532573123970 19.0431203500005495 O
atom 0.8742019556512145 4.8634562398360170 21.8841517269010524 O
atom 1.4205074099177328 3.2423042339699002 19.5894413050012588 O
atom 3.1689095380173016 3.2423036331784809 21.3378427369016350 O
atom 6.8841528707338231 1.6211505385742067 20.4636431584499832 Pt
atom 4.5894322979347377 6.4846055896129187 18.1689231534505566 Pt
atom 8.3046662722832920 1.6211511523123974 19.0431262699997603 O
atom 5.4636363791840195 1.6211522448360174 21.8841564169004883 O
atom 6.0099444763858969 6.4846062089699004 19.5894468950004637 O
atom 7.7583453015501060 0.0000008781784823 21.3378474369009581 O
atom 6.8841528672017027 4.8634563185742010 20.4636458934499927 Pt
atom 4.5894335014672407 3.2423019596129166 18.1689247084504473 Pt
atom 8.3046656687510367 4.8634537823123951 19.0431274049998080 O
atom 5.4636356056517750 4.8634535348360144 21.8841576819005610 O
atom 6.0099561399171044 3.2423040289699343 19.5894341599994064 O
atom 7.7583569180166005 3.2423029881785146 21.3378347618999129 O
atom 0.0000079699998065 0.0000007575354970 22.7583554584502252 Pt
atom 3.7152325572825271 1.6211515102349856 23.6325462650002720 O
atom 0.0000068764673390 3.2423040775354970 22.7583542834503234 Pt
atom 3.7152328837501871 4.8634541902349850 23.6325464900002444 O
atom 8.3046668472833787 1.6211519552349776 23.6325554799997377 O
atom 8.3046669137509852 4.8634560952349775 23.6325551449997278 O
