#===============================================================================
# Created using the Atomic Simulation Environment (ASE)

# Mon Mar 23 14:01:22 2026

#=======================================================
lattice_vector 9.1788542800000368 0.0000000000000000 0.0000000000000000 
lattice_vector 0.0000016600002026 9.1788565199998882 0.0000000000000000 
lattice_vector 0.0000000000000000 0.0000000000000000 41.3480641200000250 
atom 1.4205122543217206 1.4205234574204186 15.0000006680952040 O
atom 9.1788512308703964 4.5894249658708519 15.0000010500000016 Pt
atom 4.5894225158703810 9.1788521308710163 15.0000000000000000 Pt
atom 4.5894273608706637 4.5894281308705569 15.0000003450000108 Pt
atom 6.0099513593207865 6.0099400524193554 15.0000009680952076 O
atom 2.2947116816046891 2.2947169566045571 16.6211533800000097 Pt
atom 0.0000045558708212 0.0000029558701454 15.0000020450000164 Pt
atom 0.8741960300546648 3.7152273850550177 16.6211528000000044 O
atom 3.7152220331540144 0.8741987381545813 16.6211502700000011 O
atom 1.4205122372569963 1.4205234403556990 21.4846071880952039 O
atom 3.1689072324207843 3.1689188893214082 15.0000018119048235 O
atom 2.2947133680724123 2.2947178730720461 19.8634552600000127 Pt
atom 0.0000033723383609 0.0000018623378919 18.2423053650000142 Pt
atom 0.8741962465223339 3.7152277115226373 19.8634554800000060 O
atom 3.7152224196216648 0.8741989146221819 19.8634571500000021 O
atom 1.4205220307880424 1.4205089138871727 18.2423050880952005 O
atom 3.1689232288876412 3.1689102357876031 18.2423036719048284 O
atom 2.2947132466043385 6.8841402166044343 16.6211535050000059 Pt
atom 9.1788512138056717 4.5894249488061334 21.4846075699999979 Pt
atom 0.8742060750553112 8.3046616750541276 16.6211532450000234 O
atom 3.7152306981543397 5.4636295081538142 16.6211529450000128 O
atom 1.4205178493203570 6.0099355374199295 15.0000017630951916 O
atom 3.1689172274194504 7.7583312793205232 15.0000012669048104 O
atom 2.2947124330719655 6.8841400730721496 19.8634558650000024 Pt
atom 9.1788529173379949 4.5894245323383407 18.2423036400000029 Pt
atom 0.8742057315229548 8.3046617415217945 19.8634573850000180 O
atom 3.7152304446219584 5.4636292646214777 19.8634543950000122 O
atom 1.4205044557889202 6.0099457538887799 18.2423045830951907 O
atom 3.1689051238884156 7.7583459557892578 18.2423049169048141 O
atom 6.8841377316038930 2.2947079316046555 16.6211538550000029 Pt
atom 4.5894224988056571 9.1788521138062986 21.4846065199999963 Pt
atom 5.4636247500544446 3.7152247400548735 16.6211528950000016 O
atom 8.3046553031538668 0.8741969431540239 16.6211531950000051 O
atom 6.0099339243208982 1.4205141724209123 15.0000016130951899 O
atom 7.7583316124204931 3.1689154743216577 15.0000023769048134 O
atom 6.8841382780716236 2.2947089380722465 19.8634566149999969 Pt
atom 4.5894209023383556 9.1788558473388004 18.2423037599999986 Pt
atom 5.4636243865221088 3.7152249965225481 19.8634545350000025 O
atom 8.3046552496215185 0.8741970996216671 19.8634575250000047 O
atom 6.0099449307875252 1.4205029688875559 18.2423055130951859 O
atom 7.7583466788871664 3.1689047807879351 18.2423049169048177 O
atom 6.8841477766050883 6.8841482716037685 16.6211518200000228 Pt
atom 4.5894273438059390 4.5894281138058375 21.4846068650000070 Pt
atom 5.4636311450553539 8.3046619300543103 16.6211524300000164 O
atom 8.3046607781545401 5.4636315231535475 16.6211535300000222 O
atom 6.0099513422560626 6.0099400353546359 21.4846074880952038 O
atom 7.7583522174203070 7.7583405443198128 15.0000021619048312 O
atom 6.8841505030727230 6.8841482680711579 19.8634576000000251 Pt
atom 4.5894289073384105 4.5894293173380580 18.2423032350000085 Pt
atom 5.4636322715229380 8.3046613265218525 19.8634550600000175 O
atom 8.3046620346221083 5.4636307496210748 19.8634548200000154 O
atom 6.0099386157894763 6.0099516988881447 18.2423053080952009 O
atom 7.7583395338889973 7.7583521607886015 18.2423042719048283 O
atom 2.2947116645399652 2.2947169395398386 23.1057599000000096 Pt
atom 0.0000045388060970 0.0000029388054260 21.4846085650000163 Pt
atom 0.8741960129899407 3.7152273679902983 23.1057593200000007 O
atom 3.7152220160892901 0.8741987210898620 23.1057567900000009 O
atom 3.1689072153560600 3.1689188722566888 21.4846083319048162 O
atom 2.2947133510076885 2.2947178560073263 26.3480617800000090 Pt
atom 0.0000033552736368 0.0000018452731725 24.7269118850000140 Pt
atom 0.8741962294576098 3.7152276944579183 26.3480620000000059 O
atom 3.7152224025569405 0.8741988975574626 26.3480636700000019 O
atom 1.4205220137233183 1.4205088968224537 24.7269116080952003 O
atom 3.1689232118229169 3.1689102187228833 24.7269101919048282 O
atom 2.2947132295396142 6.8841401995397158 23.1057600250000057 Pt
atom 0.8742060579905870 8.3046616579894081 23.1057597650000197 O
atom 3.7152306810896158 5.4636294910890948 23.1057594650000127 O
atom 1.4205178322556331 6.0099355203552101 21.4846082830951914 O
atom 3.1689172103547261 7.7583312622558038 21.4846077869048138 O
atom 2.2947124160072407 6.8841400560074293 26.3480623850000057 Pt
atom 9.1788529002732719 4.5894245152736222 24.7269101600000027 Pt
atom 0.8742057144582306 8.3046617244570733 26.3480639050000178 O
atom 3.7152304275572345 5.4636292475567592 26.3480609150000120 O
atom 1.4205044387241961 6.0099457368240605 24.7269111030951905 O
atom 3.1689051068236913 7.7583459387245393 24.7269114369048140 O
atom 6.8841377145391691 2.2947079145399361 23.1057603749999991 Pt
atom 5.4636247329897207 3.7152247229901545 23.1057594150000014 O
atom 8.3046552860891438 0.8741969260893044 23.1057597150000049 O
atom 6.0099339072561744 1.4205141553561931 21.4846081330951897 O
atom 7.7583315953557692 3.1689154572569382 21.4846088969048132 O
atom 6.8841382610068989 2.2947089210075271 26.3480631349999967 Pt
atom 4.5894208852736318 9.1788558302740793 24.7269102799999985 Pt
atom 5.4636243694573841 3.7152249794578287 26.3480610550000023 O
atom 8.3046552325567937 0.8741970825569477 26.3480640450000010 O
atom 6.0099449137228005 1.4205029518228369 24.7269120330951857 O
atom 7.7583466618224417 3.1689047637232157 24.7269114369048175 O
atom 6.8841477595403644 6.8841482545390491 23.1057583400000190 Pt
atom 5.4636311279906300 8.3046619129895891 23.1057589500000162 O
atom 8.3046607610898135 5.4636315060888299 23.1057600500000184 O
atom 7.7583522003555840 7.7583405272550934 21.4846086819048274 O
atom 6.8841504860079992 6.8841482510064385 26.3480641200000250 Pt
atom 4.5894288902736875 4.5894293002733386 24.7269097550000083 Pt
atom 5.4636322544582141 8.3046613094571331 26.3480615800000209 O
atom 8.3046620175573853 5.4636307325563553 26.3480613400000152 O
atom 6.0099385987247524 6.0099516818234244 24.7269118280952007 O
atom 7.7583395168242744 7.7583521437238820 24.7269107919048281 O
