#===============================================================================
# Created using the Atomic Simulation Environment (ASE)

# Mon Mar 23 14:01:21 2026

#=======================================================
lattice_vector 6.3710923900000003 0.0000000000000000 0.0000000000000000 
lattice_vector 0.0000000388927909 12.9411912842237733 0.0000000000000000 
lattice_vector 0.0000000000000000 0.0000000000000000 35.6836312150917010 
atom 1.5927877727767732 12.7528089276704524 16.2242807265702460 Pt
atom 0.0000002473900138 0.1719090428874496 15.0000328111532006 O
atom 0.0000039392707126 12.3925035643015811 17.4485283556126696 O
atom 1.5927545290596301 10.7458859342923034 15.8782742276494346 O
atom 1.5927548076011220 1.8185412110734833 16.5702893996893010 O
atom 0.0000022155535283 9.5174847650635481 16.2242758019029374 Pt
atom 1.5927667983303844 9.4798297416018755 19.4593507369603955 Pt
atom 6.3710904618365047 9.8401503080289885 18.2350909632886626 O
atom 1.5927722546132368 7.4729057170484214 19.1133452432151145 O
atom 0.0000007811072298 3.0469389126685713 16.2242822260772250 Pt
atom 1.5927704538840028 3.0092484026090580 19.4593589556470192 Pt
atom 0.0000021373900854 3.3695487927200856 18.2350971340570140 O
atom 1.5927681101668598 1.0023229620457648 19.1133501231270841 O
atom 0.0000028155535839 12.7151262306725954 19.4593490586363522 Pt
atom 1.5927490283303776 6.2822161073956098 16.2242836881510186 Pt
atom 6.3710919518365206 6.6425231311047233 15.0000010805398887 O
atom 0.0000003248242229 5.9219029757872628 17.4485660197763721 O
atom 1.5927923946132343 4.2752898666730914 15.8782738327209287 O
atom 1.5927934720474897 8.2891404316591011 16.5703057160783906 O
atom 3.1855474611072192 6.2445370299559588 19.4593412435898223 Pt
atom 4.7783091727767610 12.7528094750437564 16.2242863018533683 Pt
atom 3.1855503873900397 0.1718882537286056 15.0000000000000000 O
atom 3.1855465092706754 12.3925141997569117 17.4485550052072220 O
atom 4.7783404090596244 10.7458858608132868 15.8782759172355199 O
atom 4.7783375676011319 1.8185431661352667 16.5702863846051187 O
atom 3.1855461355536150 9.5175371020531223 16.2242886226565446 Pt
atom 3.1855509618364222 9.8401332311759937 18.2351115965747042 O
atom 4.7783152346132534 7.4729153036372393 19.1133467910571540 O
atom 3.1855450711071320 3.0468880099263949 16.2242744695742367 Pt
atom 4.7783226538839925 3.0092365384469177 19.4593514476741305 Pt
atom 3.1855450173900346 3.3695214691383857 18.2350923645410141 O
atom 4.7783191401668299 1.0023099666315982 19.1133498777479964 O
atom 4.7783425383303806 6.2822194876683373 16.2242848604375958 Pt
atom 3.1855464518363590 6.6424912941689609 15.0000415757003580 O
atom 3.1855459448243950 5.9219353304690010 17.4485204010195964 O
atom 4.7782985346132207 4.2752906170040896 15.8782797698163876 O
atom 4.7782999920474909 8.2891432459267982 16.5703069416385027 O
atom 6.3710861511071561 6.2445439596234404 19.4593764772414595 Pt
atom 0.0000051348242854 9.1195395385054994 20.6836312150916974 O
atom 1.5927729320474902 11.4867529523395770 19.8053745544854429 O
atom 6.3710907103779197 2.6489439308643101 20.6836174017272540 O
atom 1.5927704576011459 5.0161721467732949 19.8053664559769445 O
atom 4.7783295983303766 9.4798377230399016 19.4593619983389630 Pt
atom 3.1855448448243679 9.1195601148687739 20.6836143499123146 O
atom 4.7783144020475179 11.4867641710323589 19.8053726893761635 O
atom 3.1855478003779658 2.6489710971862088 20.6836236764905266 O
atom 4.7783169676011275 5.0161608102646529 19.8053630523653581 O
atom 3.1855383755535556 12.7151368791906929 19.4593722504961661 Pt
