#===============================================================================
# Created using the Atomic Simulation Environment (ASE)

# Mon Mar 23 14:01:22 2026

#=======================================================
lattice_vector 11.2383934762033828 0.0000000000000000 0.0000000000000000 
lattice_vector 3.7416502063603971 10.5972441125269068 0.0000000000000000 
lattice_vector 0.0000000000000000 0.0000000000000000 43.7621127860936809 
atom 0.9387721345509333 0.6641152147409889 15.0000058301278099 Pt
atom 11.0169728808437721 2.3041357704314089 15.0000025077995840 O
atom 5.8406128712427057 9.6213350588156992 15.0000000000000000 O
atom 14.2694172244030995 10.0945191663868155 15.2730414130151093 O
atom 12.3985880586893575 4.7958971594621973 15.2730380360287494 O
atom 2.8095976277375869 5.9627331598293525 15.0000026805430178 Pt
atom 9.3675684685565237 2.6516881857073842 16.1468434658870095 Pt
atom 12.8878044721512754 7.6027600129727082 15.0000109342723498 O
atom 3.9697934680161060 4.3227124312233078 15.0000055422073419 O
atom 8.6502081509771802 10.0945282005887087 15.2730362606639751 O
atom 6.5579684501208275 0.6641084413233772 15.0000015418611738 Pt
atom 5.6191921048885174 7.9503144842591160 16.1468422263723497 Pt
atom 5.3977780231816208 2.3041339782107757 15.0000008517372869 O
atom 11.4598122740779260 9.6213302615274294 15.0000050526597413 O
atom 8.4288015119793425 5.9627382108502553 15.0000103140363201 Pt
atom 3.7483730370170054 2.6516908553032326 16.1468460224674040 Pt
atom 7.2686072950274081 7.6027613610843536 15.0000089580374141 O
atom 9.5889914255109598 4.3227124839968916 15.0000099527679929 O
atom 6.7793859575874338 4.7959128843488790 15.2730431379418565 O
atom 12.1771669804816369 8.6144276876553842 19.5873731140682530 Pt
atom 11.2383981158571800 7.9503134002913907 16.1468513482363214 Pt
atom 11.0169742505710957 10.2544482433458075 19.5873697917400271 O
atom 13.3373575108130176 6.9744034192031892 19.5873672839404449 O
atom 12.3985854836046112 8.7710692313690348 17.5667266083053661 O
atom 13.8265703111827545 9.7812607977832737 19.3143375252682183 O
atom 14.0479935794404547 9.9378943831610247 17.2936898052645063 Pt
atom 9.3675727032498486 6.6268469550538178 18.4405339031593947 Pt
atom 9.1461489809567009 0.9806704126516161 17.2936860193380575 O
atom 3.9697866867815650 8.2978678077041597 17.2936864927154588 O
atom 10.5277683877700259 7.4475875267743046 19.8604086969555524 O
atom 0.7173649266777620 0.5074709732066716 17.0206565712532232 O
atom 12.1771668237964867 4.6392668574456453 17.2936874289839722 Pt
atom 7.4967422792712055 1.3282229493237512 18.4405269471164246 Pt
atom 11.0169808352070859 6.2792943908044228 17.2936940836509656 O
atom 2.0989682054224645 2.9992460054937915 17.2936907045075188 O
atom 8.6569392220562822 2.1489655198496882 19.8604053199691926 O
atom 2.5881839500113921 5.8060883949705246 17.0206501467587543 O
atom 10.3063422673078957 3.3158015202168438 19.5873699644834574 Pt
atom 5.6259196319234492 0.0047565460948755 20.7342107498274544 Pt
atom 9.1461556355182037 4.9558283733601991 19.5873782182127911 O
atom 11.4665381075864179 1.6757807916107987 19.5873728261477851 O
atom 10.5277529621802994 3.4724442355639216 17.5667197874403840 O
atom 11.9557429043877139 4.4826386233275350 19.3143353590412588 O
atom 8.4287934963710995 9.9378858108501440 17.2936847528959952 Pt
atom 3.7483692859430384 6.6268451792804299 18.4405244551067966 Pt
atom 3.5269529600603331 0.9806671652382485 17.2936856847144718 O
atom 9.5889885099098056 8.2978647225888320 17.2936878777130758 O
atom 4.9085593143441102 7.4475965609761996 19.8604035446044200 O
atom 6.3365452048246960 0.5074801124266555 17.0206511968790863 O
atom 6.5579698198481493 8.6144209142377743 19.5873688258016152 Pt
atom 1.8775432682554494 5.3033828446466060 20.7342095103127946 Pt
atom 5.3977793929089408 10.2544464511251743 19.5873681356777283 O
atom 7.7181634374448507 6.9743986219149203 19.5873723366001826 O
atom 6.7793923597764847 8.7710492465103673 17.5667202654274206 O
atom 8.2073837206784912 9.7812450969547413 19.3143365235198488 O
atom 4.6871526753462733 3.3158065712377462 19.5873775979767615 Pt
atom 0.0067242003839275 0.0047592156907233 20.7342133064078453 Pt
atom 3.5269584583943399 4.9558297214718428 19.5873762419778572 O
atom 5.8473425888778872 1.6757808443843816 19.5873772367084378 O
atom 4.9085725636290389 3.4724337379194448 17.5667265556529948 O
atom 6.3365621647931318 4.4826279710364147 19.3143429755308702 O
atom 6.5579778733968510 4.6392705780439689 17.2936971081003961 Pt
atom 1.8775501022242314 1.3282257731616187 18.4405307770732811 Pt
atom 5.3977841672246170 6.2792949557704452 17.2936924242092829 O
atom 7.7181691770708332 2.9992464409186406 17.2936924510004921 O
atom 3.0377371209543584 2.1489812447363699 19.8604104218822961 O
atom 8.2073768944765852 5.8061079844356849 17.0206579952571353 O
atom 8.4355181438485651 5.9674960480428769 24.1747403980086979 Pt
atom 7.4967492792241028 5.3033817606788833 20.7342186321767628 Pt
atom 7.2753254139380239 7.6075166037332966 24.1747370756804756 O
atom 9.5957086741799476 4.3274717795906783 24.1747345678808863 O
atom 8.6569366469715341 6.1241375917565266 22.1540938922458039 O
atom 10.0849214745496774 7.1343291581707629 23.9017048092086597 O
atom 10.3063447428073722 7.2909627435485156 21.8810570892049512 Pt
atom 5.6259238666167803 3.9799153154413074 23.0279011870998396 Pt
atom 9.1461503506840245 8.9309828855660136 21.8810533032785024 O
atom 11.4665313263518680 5.6509361680916488 21.8810537766559001 O
atom 6.7861195511369452 4.8006558871617973 24.4477759808959938 O
atom 11.9557597726084648 8.4577834461210681 21.6080238551936645 O
atom 8.4355179871634132 1.9923352178331355 21.8810547129244171 Pt
atom 7.4967436489985255 9.2785354222381482 23.0278942310568695 Pt
atom 7.2753319985740141 3.6323627511919119 21.8810613675914105 O
atom 9.5957128449927716 0.3523143658812810 21.8810579884479637 O
atom 8.6569405917836093 10.0992779927640850 24.4477726039096339 O
atom 10.0849285895817076 3.1591567553580142 21.6080174306991957 O
atom 6.5646934306748204 0.6688698806043322 24.1747372484239023 Pt
atom 5.6259210016507728 7.9550690190092705 25.3215780337678957 Pt
atom 5.4045067988851283 2.3088967337476887 24.1747455021532360 O
atom 11.4665394773137450 9.6260932645251955 24.1747401100882300 O
atom 6.7861041255472188 0.8255125959514117 22.1540870713808253 O
atom 8.2140940677546315 1.8357069837150251 23.9017026429817037 O
atom 4.6871446597380206 7.2909541712376358 21.8810520368364365 Pt
atom 11.2451139255133477 3.9799135396679226 23.0278917390472415 Pt
atom 3.5269543297876575 8.9309796381526461 21.8810529686549131 O
atom 5.8473396732767329 5.6509330829763229 21.8810551616535172 O
atom 12.4053039539144159 4.8006649213636878 24.4477708285448649 O
atom 6.3365465745520204 8.4577925853410534 21.6080184808195312 O
atom 2.8163209832150784 5.9674892746252644 24.1747361097420566 Pt
atom 9.3742879078257513 2.6564512050340987 25.3215767942532324 Pt
atom 12.8945240324792518 7.6075148115126634 24.1747354196181732 O
atom 3.9765146008117771 4.3274669823024103 24.1747396205406275 O
atom 3.0377435231434093 6.1241176068978564 22.1540875493678655 O
atom 4.4657348840454159 7.1343134573422313 23.9017038074602937 O
atom 0.9455038387131879 0.6688749316252358 24.1747448819172064 Pt
atom 11.2451190463146364 7.9550716886051189 25.3215805903482902 Pt
atom 11.0237030979646438 2.3088980818593341 24.1747435259183021 O
atom 5.8473439586052098 9.6260933172987801 24.1747445206488791 O
atom 1.1669237269959685 0.8255020983069350 22.1540938395934361 O
atom 2.5949133281600543 1.8356963314239045 23.9017102594713151 O
atom 2.8163290367637850 1.9923389384314585 21.8810643920408410 Pt
atom 13.1159449481549402 9.2785382460760157 23.0278980610137225 Pt
atom 1.6561353305915396 3.6323633161579361 21.8810597081497242 O
atom 3.9765203404377596 0.3523148013061300 21.8810597349409370 O
atom 14.2761319668850621 10.0992937176507667 24.4477777058227375 O
atom 4.4657280578435117 3.1591763448231744 21.6080252791975767 O
atom 4.6938693072154898 3.3205644084303660 28.7621076819491392 Pt
atom 3.7551004425910373 2.6564501210663729 25.3215859161172077 Pt
atom 3.5336765773049486 4.9605849641207866 28.7621043596209098 O
atom 5.8540598375468686 1.6805401399781716 28.7621018518213276 O
atom 4.9152878103384587 3.4772059521440162 26.7414611761862524 O
atom 6.3432726379166029 4.4873975185582555 28.4890720931491046 O
atom 6.5646959061743058 4.6440311039360047 26.4684243731453961 Pt
atom 1.8842750299837050 1.3329836758287985 27.6152684710402809 Pt
atom 5.4045015140509589 6.2840512459535036 26.4684205872189473 O
atom 7.7248824897187989 3.0040045284791401 26.4684210605963415 O
atom 8.2141109359753930 5.8108518065085573 26.1953911391341094 O
atom 8.4355193568907350 9.9426476907475330 26.4684219968648549 Pt
atom 3.7550948123654546 6.6316037826256382 27.6152615149973109 Pt
atom 3.5336831619409392 0.9854311115794033 26.4684286515318519 O
atom 9.5957142147200951 8.3026268387956783 26.4684252723884015 O
atom 6.3432797529486340 0.5122251157455041 26.1953847146396370 O
atom 6.5646948004021377 8.6191823535187311 28.7621045323643436 Pt
atom 5.4045081686124501 10.2592092066620868 28.7621127860936774 O
atom 7.7248906406806706 6.9791616249126864 28.7621073940286713 O
atom 6.7861054952745459 8.7758250688658084 26.7414543553212667 O
atom 8.2140954374819639 9.7860194566294219 28.4890699269221450 O
atom 12.1838892993083370 4.6440225316251240 26.4684193207768814 Pt
atom 7.5034650888802830 1.3329819000554102 27.6152590229876864 Pt
atom 11.0236989693579641 6.2840479985401361 26.4684202525953580 O
atom 2.1056908366436575 3.0040014433638129 26.4684224455939621 O
atom 2.5948977379189446 5.8108609457285434 26.1953857647599762 O
atom 10.3130656227853859 3.3205576350127566 28.7621033936824979 Pt
atom 9.1528751958461871 4.9605831719001534 28.7621027035586181 O
atom 11.4732592403820846 1.6805353426899023 28.7621069044810689 O
atom 10.5344881627137177 3.4771859672853460 26.7414548333083104 O
atom 11.9624795236157286 4.4873818177297231 28.4890710914007350 O
atom 12.1838986846439017 8.6191874045396322 28.7621121658576477 Pt
atom 11.0237044676919744 10.2592105547737305 28.7621108098587435 O
atom 13.3440885981755208 6.9791616776862684 28.7621118045893240 O
atom 12.4053185729266726 8.7758145712213320 26.7414611235338811 O
atom 13.8333081740907726 9.7860088043383016 28.4890775434117636 O
atom 14.0547238826944838 9.9426514113458548 26.4684316759812823 Pt
atom 9.3742961115218701 6.6316066064635049 27.6152653449541710 Pt
atom 9.1528799701618464 0.9854316765454247 26.4684269920901727 O
atom 3.9765217101650823 8.3026272742205283 26.4684270188813819 O
atom 0.7240792212104361 0.5122447052106659 26.1953925631380216 O
