#===============================================================================
# Created using the Atomic Simulation Environment (ASE)

# Mon Mar 23 14:01:20 2026

#=======================================================
lattice_vector 6.3710923900000003 0.0000000000000000 0.0000000000000000 
lattice_vector -0.0000000000000100 9.0973690600005526 0.0000000000000000 
lattice_vector 0.0000000000000000 0.0000000000000000 41.4377046447077078 
atom 1.5927876949911914 2.2743555560502666 16.1168864648577674 Pt
atom 0.0000002084972230 1.6569319568769605 15.0000243650003817 O
atom 0.0000038614851308 2.8917691352269634 17.2337582947185624 O
atom 1.5927544512740481 0.6174502986574331 17.3010002122103330 O
atom 0.0000021377679365 9.0973619078393071 18.4178855323649877 Pt
atom 1.5927667205448026 2.2743474996155526 20.7188502548607794 Pt
atom 6.3710903840509232 1.6569359704321129 19.6019590749992538 O
atom 0.0000050570387036 2.8917950987965391 21.8357343947097995 O
atom 1.5927721768276553 0.6174422322232203 21.9029654422134819 O
atom 1.5927728542619086 3.9312652270125747 19.5347485275037904 O
atom 0.0000007033216380 4.5487201013948741 23.0198222273503781 Pt
atom 1.5927704149912121 6.8230447760476851 16.1168782698560804 Pt
atom 0.0000020984972945 6.2056176068687448 15.0000000000000000 O
atom 6.3710906714851268 7.4404666752268120 17.2337570697140094 O
atom 1.5927680712740688 5.1661361386548865 17.3009921172099155 O
atom 0.0000027377680021 4.5486860578323034 18.4178662273619658 Pt
atom 1.5927489505447858 6.8230473296171770 20.7188541298553979 Pt
atom 6.3710918740509266 6.2056100404315018 19.6019565300029051 O
atom 0.0000002470386312 7.4404801288042997 21.8357558797096054 O
atom 1.5927923168276428 5.1661374022243267 21.9029678272098316 O
atom 1.5927933942618977 8.4799645670134858 19.5347503524987012 O
atom 3.1855473833216377 0.0000036513951252 23.0198237423614991 Pt
atom 4.7783090949911795 2.2743599060514974 16.1168899948561730 Pt
atom 3.1855503484972481 1.6568940068740752 15.0000160850136162 O
atom 3.1855464314850939 2.8917955652308560 17.2337694647093400 O
atom 4.7783403312740429 0.6174514486578651 17.3010014522100555 O
atom 3.1855460577680339 0.0000387578289261 18.4178573223489828 Pt
atom 4.7783295205447942 2.2743611196163331 20.7188524948560904 Pt
atom 3.1855508840508411 1.6569386404413995 19.6019857249983396 O
atom 3.1855447670387855 2.8917975687873079 21.8357079047089222 O
atom 4.7783151568276718 0.6174500722212236 21.9029597122107269 O
atom 4.7783143242619364 3.9312717870093379 19.5347392375014870 O
atom 4.7783226149912021 6.8230310960487870 16.1168814298608609 Pt
atom 3.1855449784972429 6.2055950068743480 15.0000160800078639 O
atom 3.1855477614851755 7.4404902352216151 17.2337421597058125 O
atom 4.7783191012740378 5.1661268286580473 17.3010011872131777 O
atom 3.1855382977679736 4.5487100378353453 18.4178749573535789 Pt
atom 4.7783424605447884 6.8230505396166272 20.7188525498544287 Pt
atom 3.1855463740507672 6.2056164604493098 19.6020076400006751 O
atom 3.1855458670388033 7.4404704287851056 21.8357007997129919 O
atom 4.7782984568276303 5.1661421522255955 21.9029714672080509 O
atom 4.7782999142619005 8.4799674170130892 19.5347492124975695 O
atom 6.3710860733215755 0.0000335814020413 23.0198435823510472 Pt
atom 1.5927876560983907 2.2743618631834850 25.3208216448561352 Pt
atom 0.0000001696044221 1.6569382640101797 24.2039595449987424 O
atom 0.0000038225923299 2.8917754423601822 26.4376934747169194 O
atom 1.5927547298155302 3.9312690705767102 24.1367090175026782 O
atom 1.5927703760984111 6.8230510831809061 25.3208134498544375 Pt
atom 0.0000020596044936 6.2056239140019658 24.2039351799983500 O
atom 6.3710906325923267 7.4404729823600313 26.4376922497123665 O
atom 1.5927703798155544 8.4799575805737994 24.1366998725013353 O
atom 4.7783090560983785 2.2743662131847162 25.3208251748545372 Pt
atom 3.1855503096044475 1.6569003140072947 24.2039512650119768 O
atom 3.1855463925922933 2.8918018723640753 26.4377046447077042 O
atom 4.7783374898155406 3.9312683005754865 24.1367055075030557 O
atom 3.1855449933215403 4.5486788014055906 23.0198529773647600 Pt
atom 4.7783225760984003 6.8230374031820062 25.3208166098592180 Pt
atom 3.1855449396044424 6.2056013140075681 24.2039512600062316 O
atom 3.1855477225923750 7.4404965423548362 26.4376773397041696 O
atom 4.7783168898155353 8.4799471905757748 24.1367055425049521 O
