#===============================================================================
# Created using the Atomic Simulation Environment (ASE)

# Mon Mar 23 14:01:26 2026

#=======================================================
lattice_vector 9.0578618800032320 0.0000000000000000 0.0000000000000000 
lattice_vector -0.0000001276308936 6.2569280899999997 0.0000000000000000 
lattice_vector 0.0000000000000000 0.0000000000000000 31.7586386298201191 
atom 2.2645097255567754 1.5643180481952357 15.8792663973907509 Ru
atom 3.1437498274073503 6.2569039776988724 16.7584981848117138 O
atom 1.3853086622922832 6.2569043586920099 15.0000718499380525 O
atom 2.2645098317421790 4.6926106081952366 15.8792665073917050 Ru
atom 3.1438299712947662 3.1284890476997709 16.7585836547437736 O
atom 1.3852350160468354 3.1284882986912264 15.0000000000000000 O
atom 6.7933817856086813 1.5643122581953555 15.8793259124405139 Ru
atom 7.6726028350649500 0.0000754976987197 16.7585284098770160 O
atom 5.9141706799633056 0.0000748586920001 15.0001179649957379 O
atom 6.7933812917940948 4.6926157881953543 15.8793260924419073 Ru
atom 7.6726712713432565 3.1283888476997275 16.7586386298201191 O
atom 5.9140625760914247 3.1283894786910911 15.0000503650879438 O
