#===============================================================================
# Created using the Atomic Simulation Environment (ASE)

# Mon Mar 23 14:01:25 2026

#=======================================================
lattice_vector 9.0578464400032317 0.0000000000000000 0.0000000000000000 
lattice_vector 0.0000153000130401 9.0578618799903108 0.0000000000000000 
lattice_vector 0.0000000000000000 0.0000000000000000 39.3856293700000322 
atom 2.2644731935843216 2.2644597453210329 15.0002043508241485 Ru
atom 9.0578527614532902 9.0578506471051270 19.6928027858241563 Ru
atom 0.8792158434573089 3.6496280152712091 15.0000586599998229 O
atom 3.6496710936768522 0.8792514454224138 15.0000451616484298 O
atom 3.1437065065260037 3.1436983620231302 19.6927902727655422 O
atom 1.3852772013983905 1.3852601671419793 19.6927906688828429 O
atom 2.2644733304917875 2.2644598515062055 18.1284969108241540 Ru
atom 9.0578512545461987 9.0578513709217674 16.5643621358241688 Ru
atom 0.8792508703989481 3.6496678214256266 18.1286426599999189 O
atom 3.6496357505511217 0.8792114116361449 18.1286562216483347 O
atom 3.1437919496860443 3.1437785057662198 16.5643753427657074 O
atom 1.3852053244285418 1.3851865210179424 16.5643746088826802 O
atom 2.2645403585411001 6.7933318052659502 15.0001985608237547 Ru
atom 0.8792611885028323 8.1786050752344224 15.0000821899999437 O
atom 3.6496971886709262 5.4081677554021725 15.0000041516483265 O
atom 2.2645405654480841 6.7933313114510137 18.1285020908237584 Ru
atom 9.0578503495433793 4.5289248509209754 16.5643487358241757 Ru
atom 0.8792596053795113 8.1785680914199723 18.1286183499997833 O
atom 3.6496995256105000 5.4082048315837188 18.1286971216484787 O
atom 3.1438545746166353 7.6726198057153869 16.5642751427651902 O
atom 1.3852633393475315 5.9140140809709969 16.5642757888821102 O
atom 6.7933225236459691 2.2645308403834643 15.0001983308246238 Ru
atom 5.4081773935095416 3.6496881002390955 15.0000000000000000 O
atom 8.1785889036880395 0.8792626904268361 15.0000783916484934 O
atom 7.6725373765562930 3.1437324771014050 19.6927272027658944 O
atom 5.9141124314479354 1.3853170822165763 19.6927265988832900 O
atom 6.7933218505527693 2.2645301265692677 18.1285030408246257 Ru
atom 4.5289249545435029 0.0000036859211956 16.5643487558242057 Ru
atom 5.4081984704331543 3.6497062564047780 18.1287012800000369 O
atom 8.1785680505808767 0.8792448166286245 18.1286226716484578 O
atom 7.6726020197389939 3.1438391208615046 16.5644382627662274 O
atom 5.9140038644830479 1.3852489761229594 16.5644389088832327 O
atom 6.7933885286013425 6.7934012003293001 15.0002061708242280 Ru
atom 4.5289415364652443 4.5289434920933802 19.6928030358242196 Ru
atom 5.4082338985428065 8.1786505801927749 15.0000479800000335 O
atom 8.1786008386913718 5.4081899004184457 15.0000618816484668 O
atom 6.7933895255094674 6.7934020965137645 18.1284947008242341 Ru
atom 4.5289409495541060 4.5289394259092433 16.5643625658242044 Ru
atom 5.4082019954140383 8.1786069664036258 18.1286532299999124 O
atom 8.1786325856357340 5.4082329465756631 18.1286392416485853 O
atom 7.6726569946637788 7.6726736708173435 16.5642906927656952 O
atom 5.9140693094088022 5.9140846760699590 16.5642901788826826 O
atom 2.2644732473997249 2.2644596176900489 21.2571324408241438 Ru
atom 0.8792158972727117 3.6496278876402251 21.2569867499998182 O
atom 3.6496711474922554 0.8792513177914294 21.2569732516484251 O
atom 2.2644733843071903 2.2644597238752211 24.3854250008241493 Ru
atom 9.0578513083616023 9.0578512432907843 22.8212902258241641 Ru
atom 0.8792509242143509 3.6496676937946422 24.3855707499999212 O
atom 3.6496358043665245 0.8792112840051605 24.3855843116483300 O
atom 3.1437920035014466 3.1437783781352353 22.8213034327657027 O
atom 1.3852053782439444 1.3851863933869577 22.8213026988826826 O
atom 2.2645404123565034 6.7933316776349653 21.2571266508237571 Ru
atom 0.0000082764517449 4.5289293871018002 19.6928167658241833 Ru
atom 0.8792612423182351 8.1786049476034393 21.2570102799999461 O
atom 3.6496972424863294 5.4081676277711868 21.2569322416483217 O
atom 3.1437443814668167 7.6725512419923190 19.6928898827651295 O
atom 1.3853309663468105 5.9141220570977513 19.6928892588824382 O
atom 2.2645406192634878 6.7933311838200279 24.3854301808237537 Ru
atom 9.0578504033587830 4.5289247232899905 22.8212768258241709 Ru
atom 0.8792596591949141 8.1785679637889874 24.3855464399997786 O
atom 3.6496995794259033 5.4082047039527330 24.3856252116484882 O
atom 3.1438546284320381 7.6726196780844012 22.8212032327651855 O
atom 1.3852633931629341 5.9140139533400120 22.8212038788821090 O
atom 6.7933225774613728 2.2645307127524803 21.2571264208246262 Ru
atom 4.5289238214488137 0.0000007821066654 19.6928168058241937 Ru
atom 5.4081774473249435 3.6496879726081111 21.2569280900000024 O
atom 8.1785889575034432 0.8792625627958518 21.2570064816484958 O
atom 6.7933219043681721 2.2645299989382828 24.3854311308246210 Ru
atom 4.5289250083589065 0.0000035582902112 22.8212768458242010 Ru
atom 5.4081985242485571 3.6497061287737935 24.3856293700000322 O
atom 8.1785681043962786 0.8792446889976401 24.3855507616484601 O
atom 7.6726020735543958 3.1438389932305206 22.8213663527662192 O
atom 5.9140039182984498 1.3852488484919749 22.8213669988832280 O
atom 6.7933885824167453 6.7934010726983152 21.2571342608242304 Ru
atom 5.4082339523582093 8.1786504525617918 21.2569760700000359 O
atom 8.1786008925067737 5.4081897727874608 21.2569899716484656 O
atom 7.6725859415063153 7.6725961370613529 19.6928745127655134 O
atom 5.9141560263879924 5.9141689421807184 19.6928750488828612 O
atom 6.7933895793248702 6.7934019688827796 24.3854227908242294 Ru
atom 4.5289410033695097 4.5289392982782584 22.8212906558241997 Ru
atom 5.4082020492294411 8.1786068387726427 24.3855813199999076 O
atom 8.1786326394511359 5.4082328189446782 24.3855673316485806 O
atom 7.6726570484791825 7.6726735431863586 22.8212187827656976 O
atom 5.9140693632242050 5.9140845484389750 22.8212182688826744 O
