#===============================================================================
# Created using the Atomic Simulation Environment (ASE)

# Mon Mar 23 14:01:27 2026

#=======================================================
lattice_vector 12.8097293803404586 0.0000000000000000 0.0000000000000000 
lattice_vector -0.0000001283020594 6.2569280899999997 0.0000000000000000 
lattice_vector 0.0000000000000000 0.0000000000000000 35.6895045658006111 
atom 12.8097112351893436 4.6926104285736976 16.2435467964774602 Ru
atom 6.4048331461210459 0.0000120202882828 19.4459688602178105 Ru
atom 10.8507244925695279 4.6927561193974725 16.2434804831306892 O
atom 1.9589548655135478 4.6927696177493816 16.2435427668278649 O
atom 12.8097053749280452 0.0000245170049726 17.4869742615921595 O
atom 12.8097158807141369 0.0000241001427836 15.0001734038156300 O
atom 12.8097112569129976 1.5643178685736987 16.2435469944661577 Ru
atom 6.4048315687621136 3.1284526702882713 19.4459682803891241 Ru
atom 10.8507211130659744 1.5641721193978153 16.2435334242132825 O
atom 1.9589581824018600 1.5641585577490356 16.2434894934067415 O
atom 12.8097091219830279 3.1284394470057846 17.4870913231233658 O
atom 12.8097171318696716 3.1284401601420906 15.0000704773540114 O
atom 9.6072707687285046 6.2569261035736448 16.2435447423248007 Ru
atom 7.6482807311904191 4.6927326161125755 19.4459775037279812 O
atom 9.6073593824247414 6.2568536268577830 18.2025949408390133 O
atom 9.6072710167326658 3.1284660435736034 16.2435384207903084 Ru
atom 7.6483057633054541 1.5641964561125068 19.4459502589254640 O
atom 9.6073880420791493 3.1285390068570758 18.2024707446273268 O
atom 3.2023062211900313 4.6926164752879336 19.4459825744739305 Ru
atom 3.2024044097848776 6.2569260635736486 16.2435463757400385 Ru
atom 3.2023109233001268 0.0000881968568836 18.2025891848319787 O
atom 3.2023062499857935 1.5643117652879259 19.4459816198786655 Ru
atom 3.2024032859940887 3.1284660235736625 16.2435492041661291 Ru
atom 5.1613678682198127 1.5641921344638872 19.4459572892707939 O
atom 3.2022823133556688 3.1283758868559017 18.2024642319695431 O
atom 6.4048281248905115 4.6926086085735879 16.2435432467857268 Ru
atom 4.4458566627373797 4.6927667993983144 16.2436069208914873 O
atom 8.3638134462774119 4.6927528977493846 16.2435472852350955 O
atom 6.4048276376662452 6.2568683670045058 17.4869144403480234 O
atom 6.4048299339363393 6.2568678101423290 15.0001209294039626 O
atom 6.4048281961106195 1.5643200785735969 16.2435446115006314 Ru
atom 4.4458649435153559 1.5641615493979915 16.2435535484796034 O
atom 8.3638054564376425 1.5641755377497046 16.2436001980294407 O
atom 6.4048231833148552 3.1285240970051968 17.4870194810557109 O
atom 6.4048283294178665 3.1285245901415002 15.0000000000000000 O
atom 9.6073571491422296 4.6926162452888223 19.4459850000089176 Ru
atom 11.5662698294542263 4.6928106544642390 19.4459832189072301 O
atom 9.6073440117590057 6.2568530237198319 20.6893781916525583 O
atom 9.6073576446277933 1.5643127152888219 19.4459848232314982 Ru
atom 11.5662452650533663 1.5641176844643121 19.4460111142503109 O
atom 9.6073735762965313 3.1285396737208262 20.6895045658006111 O
atom 1.2434066152776202 4.6928148061126018 19.4459878274783975 O
atom 5.1613699748629012 4.6927364144640826 19.4459846472334590 O
atom 3.2023134565794629 0.0000876137190039 20.6893708375994478 O
atom 1.2434086805182865 1.5641135261127985 19.4460155955650080 O
atom 3.2022837574808451 3.1283765537196859 20.6894919296116555 O
atom 12.8096949088430367 0.0000117702884773 19.4459995698628276 Ru
atom 12.8096973690661518 3.1284522402884667 19.4459962535343394 Ru
