#===============================================================================
# Created using the Atomic Simulation Environment (ASE)

# Mon Mar 23 14:01:25 2026

#=======================================================
lattice_vector 9.0578464400032317 0.0000000000000000 0.0000000000000000 
lattice_vector 0.0000153000130401 9.0578618799903108 0.0000000000000000 
lattice_vector 0.0000000000000000 0.0000000000000000 42.5140627591758005 
atom 9.0578527076378865 9.0578507747361137 16.5643080849999293 Ru
atom 3.1437064527106013 3.1436984896541142 16.5642955719413116 O
atom 1.3852771475829875 1.3852602947729635 16.5642959680586159 O
atom 2.2644732766763846 2.2644599791371904 15.0000022099999200 Ru
atom 0.8792508165835453 3.6496679490566120 15.0001479591756883 O
atom 3.6496356967357193 0.8792115392671295 15.0001615208241006 O
atom 2.2645405116326818 6.7933314390819968 15.0000073899995279 Ru
atom 0.8792595515641085 8.1785682190509572 15.0001236491755492 O
atom 3.6496994717950977 5.4082049592147019 15.0002024208242517 O
atom 7.6725373227408893 3.1437326047323895 16.5642325019416674 O
atom 5.9141123776325326 1.3853172098475606 16.5642318980590630 O
atom 6.7933217967373665 2.2645302542002521 15.0000083400003987 Ru
atom 5.4081984166177515 3.6497063840357629 15.0002065791758064 O
atom 8.1785679967654747 0.8792449442596090 15.0001279708242308 O
atom 4.5289414826498415 4.5289436197243642 16.5643083349999927 Ru
atom 6.7933894716940637 6.7934022241447485 15.0000000000000000 Ru
atom 5.4082019415986347 8.1786070940346107 15.0001585291756783 O
atom 8.1786325318203303 5.4082330742066471 15.0001445408243583 O
atom 2.2644731935843216 2.2644597453210329 18.1286377399999168 Ru
atom 9.0578527614532902 9.0578506471051270 22.8212361749999246 Ru
atom 0.8792158434573089 3.6496280152712091 18.1284920491755912 O
atom 3.6496710936768522 0.8792514454224138 18.1284785508241981 O
atom 3.1437065065260037 3.1436983620231302 22.8212236619413105 O
atom 1.3852772013983905 1.3852601671419793 22.8212240580586112 O
atom 2.2644733304917875 2.2644598515062055 21.2569302999999223 Ru
atom 9.0578512545461987 9.0578513709217674 19.6927955249999371 Ru
atom 0.8792508703989481 3.6496678214256266 21.2570760491756872 O
atom 3.6496357505511217 0.8792114116361449 21.2570896108241030 O
atom 3.1437919496860443 3.1437785057662198 19.6928087319414757 O
atom 1.3852053244285418 1.3851865210179424 19.6928079980584485 O
atom 2.2645403585411001 6.7933318052659502 18.1286319499995230 Ru
atom 0.0000082226363421 4.5289295147327850 16.5643220649999492 Ru
atom 0.8792611885028323 8.1786050752344224 18.1285155791757120 O
atom 3.6496971886709262 5.4081677554021725 18.1284375408240948 O
atom 3.1437443276514134 7.6725513696233030 16.5643951819409025 O
atom 1.3853309125314075 5.9141221847287362 16.5643945580582113 O
atom 2.2645405654480841 6.7933313114510137 21.2569354799995267 Ru
atom 9.0578503495433793 4.5289248509209754 19.6927821249999440 Ru
atom 0.8792596053795113 8.1785680914199723 21.2570517391755516 O
atom 3.6496995256105000 5.4082048315837188 21.2571305108242470 O
atom 3.1438545746166353 7.6726198057153869 19.6927085319409585 O
atom 1.3852633393475315 5.9140140809709969 19.6927091780578785 O
atom 6.7933225236459691 2.2645308403834643 18.1286317200003921 Ru
atom 4.5289237676334109 0.0000009097376499 16.5643221049999596 Ru
atom 5.4081773935095416 3.6496881002390955 18.1284333891757683 O
atom 8.1785889036880395 0.8792626904268361 18.1285117808242617 O
atom 7.6725373765562930 3.1437324771014050 22.8211605919416627 O
atom 5.9141124314479354 1.3853170822165763 22.8211599880590583 O
atom 6.7933218505527693 2.2645301265692677 21.2569364300003940 Ru
atom 4.5289249545435029 0.0000036859211956 19.6927821449999740 Ru
atom 5.4081984704331543 3.6497062564047780 21.2571346691758052 O
atom 8.1785680505808767 0.8792448166286245 21.2570560608242261 O
atom 7.6726020197389939 3.1438391208615046 19.6928716519419957 O
atom 5.9140038644830479 1.3852489761229594 19.6928722980590010 O
atom 6.7933885286013425 6.7934012003293001 18.1286395599999963 Ru
atom 4.5289415364652443 4.5289434920933802 22.8212364249999879 Ru
atom 5.4082338985428065 8.1786505801927749 18.1284813691758018 O
atom 8.1786008386913718 5.4081899004184457 18.1284952708242351 O
atom 7.6725858876909117 7.6725962646923378 16.5643798119412793 O
atom 5.9141559725725905 5.9141690698117024 16.5643803480586342 O
atom 6.7933895255094674 6.7934020965137645 21.2569280900000024 Ru
atom 4.5289409495541060 4.5289394259092433 19.6927959549999727 Ru
atom 5.4082019954140383 8.1786069664036258 21.2570866191756807 O
atom 8.1786325856357340 5.4082329465756631 21.2570726308243536 O
atom 7.6726569946637788 7.6726736708173435 19.6927240819414635 O
atom 5.9140693094088022 5.9140846760699590 19.6927235680584509 O
atom 2.2644732473997249 2.2644596176900489 24.3855658299999121 Ru
atom 0.8792158972727117 3.6496278876402251 24.3854201391755865 O
atom 3.6496711474922554 0.8792513177914294 24.3854066408241934 O
atom 2.2644733843071903 2.2644597238752211 27.5138583899999176 Ru
atom 9.0578513083616023 9.0578512432907843 25.9497236149999324 Ru
atom 0.8792509242143509 3.6496676937946422 27.5140041391756895 O
atom 3.6496358043665245 0.8792112840051605 27.5140177008240983 O
atom 3.1437920035014466 3.1437783781352353 25.9497368219414710 O
atom 1.3852053782439444 1.3851863933869577 25.9497360880584509 O
atom 2.2645404123565034 6.7933316776349653 24.3855600399995254 Ru
atom 0.0000082764517449 4.5289293871018002 22.8212501549999516 Ru
atom 0.8792612423182351 8.1786049476034393 24.3854436691757144 O
atom 3.6496972424863294 5.4081676277711868 24.3853656308240900 O
atom 3.1437443814668167 7.6725512419923190 22.8213232719408978 O
atom 1.3853309663468105 5.9141220570977513 22.8213226480582065 O
atom 2.2645406192634878 6.7933311838200279 27.5138635699995220 Ru
atom 9.0578504033587830 4.5289247232899905 25.9497102149999392 Ru
atom 0.8792596591949141 8.1785679637889874 27.5139798291755469 O
atom 3.6496995794259033 5.4082047039527330 27.5140586008242565 O
atom 3.1438546284320381 7.6726196780844012 25.9496366219409538 O
atom 1.3852633931629341 5.9140139533400120 25.9496372680578773 O
atom 6.7933225774613728 2.2645307127524803 24.3855598100003945 Ru
atom 4.5289238214488137 0.0000007821066654 22.8212501949999620 Ru
atom 5.4081774473249435 3.6496879726081111 24.3853614791757707 O
atom 8.1785889575034432 0.8792625627958518 24.3854398708242641 O
atom 6.7933219043681721 2.2645299989382828 27.5138645200003893 Ru
atom 4.5289250083589065 0.0000035582902112 25.9497102349999693 Ru
atom 5.4081985242485571 3.6497061287737935 27.5140627591758005 O
atom 8.1785681043962786 0.8792446889976401 27.5139841508242284 O
atom 7.6726020735543958 3.1438389932305206 25.9497997419419875 O
atom 5.9140039182984498 1.3852488484919749 25.9498003880589962 O
atom 6.7933885824167453 6.7934010726983152 24.3855676499999987 Ru
atom 5.4082339523582093 8.1786504525617918 24.3854094591758042 O
atom 8.1786008925067737 5.4081897727874608 24.3854233608242339 O
atom 7.6725859415063153 7.6725961370613529 22.8213079019412817 O
atom 5.9141560263879924 5.9141689421807184 22.8213084380586295 O
atom 6.7933895793248702 6.7934019688827796 27.5138561799999977 Ru
atom 4.5289410033695097 4.5289392982782584 25.9497240449999680 Ru
atom 5.4082020492294411 8.1786068387726427 27.5140147091756759 O
atom 8.1786326394511359 5.4082328189446782 27.5140007208243489 O
atom 7.6726570484791825 7.6726735431863586 25.9496521719414659 O
atom 5.9140693632242050 5.9140845484389750 25.9496516580584426 O
