#===============================================================================
# Created using the Atomic Simulation Environment (ASE)

# Mon Mar 23 14:01:26 2026

#=======================================================
lattice_vector 9.0578618800032320 0.0000000000000000 0.0000000000000000 
lattice_vector -0.0000001276308936 6.2569280899999997 0.0000000000000000 
lattice_vector 0.0000000000000000 0.0000000000000000 43.0809679425048557 
atom 0.0000196223353602 6.2569163858123291 15.8792708825928024 Ru
atom 0.0000203461494528 3.1284757358123243 15.8792694025920937 Ru
atom 4.5289557061568253 3.1284623358123871 15.8792761475884454 Ru
atom 0.8792920604706387 1.5641919840742637 15.0000208799854704 O
atom 0.8792741866372029 4.6927362640740515 15.0000000000000000 O
atom 5.4082192704759464 1.5641754740742744 15.0000251649887240 O
atom 5.4082623166867920 4.6927528340746676 15.0000568849515901 O
atom 2.2644944255698150 1.5643179702890166 18.1437492700851806 Ru
atom 0.0000349223223183 6.2569164637185475 24.9371173225831022 Ru
atom 3.6496603556219331 1.5641722675501188 16.7584895802157838 O
atom 0.8792884654688345 1.5641587930273571 19.5289495099903299 O
atom 3.1437345274203903 6.2569038997926532 19.0229810575061471 O
atom 1.3852933623053232 6.2569042807857915 17.2645547226324858 O
atom 2.2644945317552194 4.6926105302890182 18.1437493800861311 Ru
atom 0.0000356461364130 3.1284758137185431 24.9371158425823971 Ru
atom 3.6497001618355167 4.6927562675505188 16.7585245801813443 O
atom 0.8792484316228661 4.6927698530269550 19.5289141400231436 O
atom 3.1438146713078061 3.1284889697935525 19.0230665274381998 O
atom 1.3852197160598760 3.1284882207850080 17.2644828726944333 O
atom 6.7933664856217213 1.5643121802891369 18.1438087851349401 Ru
atom 4.5289603699759189 0.0000022758124349 15.8792804875845341 Ru
atom 8.1786374156552792 1.5641957975505636 16.7585272751766823 O
atom 5.4082047754862099 1.5641177830274109 19.5289679550029511 O
atom 7.6725875350779900 0.0000754197925011 19.0230112825714421 O
atom 5.9141553799763456 0.0000747807857816 17.2646008376901747 O
atom 6.7933659918071365 4.6926157102891368 18.1438089651363335 Ru
atom 4.5289710061437845 3.1284624137186063 24.9371225875787523 Ru
atom 8.1786004318381540 4.6927319575503912 16.7585256652074008 O
atom 5.4082418516717041 4.6928107530275902 19.5289702649701233 O
atom 7.6726559713562965 3.1283887697935087 19.0231215025145453 O
atom 5.9140472761044647 3.1283894007848727 17.2645332377823770 O
atom 2.2645731705009164 1.5643119892419672 22.6725986000203328 Ru
atom 0.0000394149677614 0.0000023547655543 20.4082036825777173 Ru
atom 3.6497280906480456 1.5641136465037391 21.2874511301605729 O
atom 0.8793073604575985 1.5641920619804821 24.0578673199757809 O
atom 3.1437762923361534 6.2568408687453223 23.5518119274728939 O
atom 1.3853579272247725 6.2568402497385893 21.7933899525799823 O
atom 2.2645724566855816 4.6926166992419605 22.6725979000218949 Ru
atom 0.0000421911533120 3.1284623947655752 20.4082048425753406 Ru
atom 3.6497462468493289 4.6928149265039538 21.2874721801436628 O
atom 0.8792894866241627 4.6927363419802699 24.0578464399903105 O
atom 3.1438829362054448 3.1285519287462060 23.5518765973817601 O
atom 1.3852898209477709 3.1285525597375954 21.7932814126364285 O
atom 6.7934435305517846 1.5643198292420728 22.6726569550714423 Ru
atom 4.5289819973470449 6.2569166747656704 20.4082137475678671 Ru
atom 8.1786905706907085 1.5641616265041902 21.2874999851336248 O
atom 5.4082345704629065 1.5641755519804927 24.0578716049790380 O
atom 7.6726400800025667 0.0000600887452866 23.5518528425287705 O
atom 5.9142099148869862 0.0000606097384704 21.7934258976458146 O
atom 6.7934444267379321 4.6926083592420840 22.6726579250717499 Ru
atom 4.5289779311619176 3.1284762047656494 20.4082131875712030 Ru
atom 8.1786469568476683 4.6927668765037946 21.2874680551695086 O
atom 5.4082776166737512 4.6927529119808860 24.0579033249419005 O
atom 7.6727174862476835 3.1284043587460841 23.5519239224641090 O
atom 5.9141255209988559 3.1284038297375445 21.7933392077178176 O
atom 2.2645097255567754 1.5643180481952357 27.2015957100754910 Ru
atom 3.6496756556088936 1.5641723454563374 25.8163360202060908 O
atom 3.1437498274073503 6.2569039776988724 28.0808274974964540 O
atom 1.3853086622922832 6.2569043586920099 26.3224011626227927 O
atom 2.2645098317421790 4.6926106081952366 27.2015958200764452 Ru
atom 3.6497154618224763 4.6927563454567371 25.8163710201716547 O
atom 3.1438299712947662 3.1284890476997709 28.0809129674285138 O
atom 1.3852350160468354 3.1284882986912264 26.3223293126847402 O
atom 6.7933817856086813 1.5643122581953555 27.2016552251252541 Ru
atom 4.5289756699628789 0.0000023537186534 24.9371269275748340 Ru
atom 8.1786527156422402 1.5641958754567824 25.8163737151669856 O
atom 7.6726028350649500 0.0000754976987197 28.0808577225617562 O
atom 5.9141706799633056 0.0000748586920001 26.3224472776804781 O
atom 6.7933812917940948 4.6926157881953543 27.2016554051266475 Ru
atom 8.1786157318251149 4.6927320354566096 25.8163721051977113 O
atom 7.6726712713432565 3.1283888476997275 28.0809679425048593 O
atom 5.9140625760914247 3.1283894786910911 26.3223796777726839 O
