#===============================================================================
# Created using the Atomic Simulation Environment (ASE)

# Mon Mar 23 14:01:26 2026

#=======================================================
lattice_vector 11.0088023998619828 0.0000000000000000 0.0000000000000000 
lattice_vector 0.0000126935906902 9.0578618799943378 0.0000000000000000 
lattice_vector 0.0000000000000000 0.0000000000000000 41.8709009810792523 
atom 8.4267120044236048 2.2644673164810700 15.7874416849120820 Ru
atom 3.8964787093811668 9.0578607418769668 18.3613962866635916 Ru
atom 7.2870297689477637 3.6496348436730339 15.0000000000000000 O
atom 9.5665186061021874 0.8792597590659560 16.5745987311995009 O
atom 10.0392340317906452 3.1437052861922914 15.0000462212912282 O
atom 6.6487256584646115 2.2644699143175080 18.3613451202662574 Ru
atom 5.6745480960925976 9.0578589739236541 15.7873702268476279 Ru
atom 5.5089064879713741 3.6496771417295508 17.5741630569427123 O
atom 8.2611925390570882 3.1437877941771299 17.5741796772947723 O
atom 6.8142592067643584 1.3851948666443579 16.5746760332353844 O
atom 8.4267706098447945 6.7933393764552914 15.7874707467882551 Ru
atom 7.2870537571134362 8.1786119036772114 15.0000407842534713 O
atom 9.5665634374182158 5.4081760690249521 16.5745754722512011 O
atom 10.0392086330981609 7.6725581662590345 15.0001453572463070 O
atom 6.6487780866056747 6.7933413743003985 18.3613832478481775 Ru
atom 5.6745549149477084 4.5289324539137894 15.7873630351311967 Ru
atom 5.5089275442184045 8.1785774117071313 17.5741436717897770 O
atom 8.2613010675941716 7.6726290940779753 17.5741284799802884 O
atom 6.8143631579335153 5.9140224265477164 16.5746233512418542 O
atom 0.1701486308950997 0.0000084489184782 15.7873687992858933 Ru
atom 0.0046095449750337 3.6496973565870485 17.5740179883228684 O
atom 2.7567087930784346 3.1437418291431225 17.5739863082861021 O
atom 1.3099084144459519 1.3853254915605808 16.5745746630370760 O
atom 2.9223434138638185 2.2645377613731048 15.7872632399955215 Ru
atom 9.4008703603188142 0.0000137168872491 18.3614106309724008 Ru
atom 1.7825759315560408 3.6497131487961609 15.0001806773186388 O
atom 4.0620312866150678 0.8792531941639383 16.5746771460811502 O
atom 4.5347463814902378 3.1438459812895694 15.0001226695082082 O
atom 0.1701710852749301 4.5289511589016342 15.7873631900812406 Ru
atom 0.0046288190549569 8.1786598366071495 17.5740852324697627 O
atom 2.7566650793140628 7.6726054892443498 17.5741307666804154 O
atom 1.3098599635190653 5.9141773516642431 16.5747172346752301 O
atom 2.9224038882137875 6.7934097313451511 15.7872904936391834 Ru
atom 1.7826061938994660 8.1786138587565418 15.0001387981775167 O
atom 4.0620750197420685 5.4082413241566831 16.5747231105330357 O
atom 4.5348755388021198 7.6726805311552519 15.0000281490754688 O
atom 4.8705442021501906 2.2644721724256716 20.9355306201851867 Ru
atom 0.3402982135170707 0.0000037178272301 23.5094852219366963 Ru
atom 3.7308619666743530 3.6496396996176359 20.1480889352731012 O
atom 6.0103508038287785 0.8792646150105581 21.7226876664726092 O
atom 6.4830662295172354 3.1437101421368929 20.1481351565643330 O
atom 5.0362616951815777 1.3852710045564880 19.1487218560725552 O
atom 3.0925578561911964 2.2644747702621095 23.5094340555393657 Ru
atom 2.1183676002285021 0.0000019498739162 20.9354591621207362 Ru
atom 1.9527386856979680 3.6496819976741524 22.7222519922158170 O
atom 7.7883220461519258 0.8792222171656142 19.1487440573955929 O
atom 4.7050247367836802 3.1437926501217319 22.7222686125678806 O
atom 3.2580914044909508 1.3851997225889603 21.7227649685084927 O
atom 4.8706028075713981 6.7933442323998943 20.9355596820613670 Ru
atom 3.8964723197869144 4.5289394818879076 18.3614132482211900 Ru
atom 3.7308859548400304 8.1786167596218124 20.1481297195265796 O
atom 6.0103956351448096 5.4081809249695549 21.7226644075243058 O
atom 6.4830408308247529 7.6725630222036365 20.1482342925194118 O
atom 5.0362499502281990 5.9141328946175209 19.1488291839756037 O
atom 3.0926102843322689 6.7933462302450014 23.5094721831212858 Ru
atom 2.1183871126743030 4.5289373098583923 20.9354519704043014 Ru
atom 1.9527597419449947 8.1785822676517306 22.7222326070628853 O
atom 7.7883513258464268 5.4082156371778662 19.1488096081841164 O
atom 4.7051332653207654 7.6726339500225773 22.7222174152533967 O
atom 3.2581953556601100 5.9140272824923192 21.7227122865149589 O
atom 1.1441695295390644 2.2645408394713944 18.3614392034796552 Ru
atom 7.6227832284836721 0.0000133048630802 20.9354577345589945 Ru
atom 7.4572441425636056 3.6497022125316505 22.7221069235959767 O
atom 2.2840101672932636 0.8792734320662465 19.1486674650719593 O
atom 10.2093433906670086 3.1437466850877245 22.7220752435592068 O
atom 8.7625430120345271 1.3853303475051832 21.7226635983101843 O
atom 10.3749780114523951 2.2645426173177063 20.9353521752686298 Ru
atom 5.8447025580454088 0.0000185728318511 23.5094995662455091 Ru
atom 9.2352105291446147 3.6497180047407629 20.1482696125917435 O
atom 0.5058634843416547 0.8792580501085402 21.7227660813542514 O
atom 0.9785785792168317 3.1438508372341714 20.1482116047813165 O
atom 10.5404373757764649 1.3852597497060493 19.1487025430061699 O
atom 1.1442194338281071 6.7934111994567727 18.3614788205837804 Ru
atom 7.6228056828635022 4.5289560148462371 20.9354521253543453 Ru
atom 7.4572634166435341 8.1786646925517505 22.7221741677428710 O
atom 2.2840294232789340 5.4082006420490156 19.1486563163490331 O
atom 10.2092996769026350 7.6726103451889527 22.7222197019535201 O
atom 8.7624945611076370 5.9141822076088451 21.7228061699483348 O
atom 10.3750384858023601 6.7934145872897540 20.9353794289122845 Ru
atom 9.4008757242269372 4.5289494568927813 18.3614267365297472 Ru
atom 9.2352407914880406 8.1786187147011429 20.1482277334506215 O
atom 0.5059072174686547 5.4082461801012860 21.7228120458061369 O
atom 0.9787077365287115 7.6726853870998557 20.1481170843485735 O
atom 10.5405758069124627 5.9140954495675837 19.1486130188415977 O
atom 1.3143763998767801 2.2644770283702735 26.0836195554582915 Ru
atom 0.1746941644009474 3.6496445555622379 25.2961778705462130 O
atom 2.4541830015553781 0.8792694709551599 26.8707766017457139 O
atom 2.9268984272438341 3.1437149980814953 25.2962240918374413 O
atom 1.4800938929081748 1.3852758605010898 24.2968107913456599 O
atom 9.5710021978170747 0.0000068058185185 26.0835480973938445 Ru
atom 4.2321542438785107 0.8792270731102162 24.2968329926686977 O
atom 10.7107260020795323 1.3852045785335620 26.8708539037816045 O
atom 1.3144350052979870 6.7933490883444962 26.0836486173344682 Ru
atom 0.3403045175135138 4.5289443378325087 23.5095021834942983 Ru
atom 0.1747181525666197 8.1786216155664153 25.2962186547996808 O
atom 2.4542278328714136 5.4081857809141560 26.8707533427974177 O
atom 2.9268730285513467 7.6725678781482394 25.2963232277925165 O
atom 1.4800821479547928 5.9141377505621229 24.2969181192487085 O
atom 9.5710217102628743 4.5289421658029934 26.0835409056774097 Ru
atom 4.2321835235730285 5.4082204931224682 24.2968985434572247 O
atom 10.7108299532486821 5.9140321384369212 26.8708012217880707 O
atom 8.5968041271276476 2.2645456954159964 23.5095281387527635 Ru
atom 4.0666154262102667 0.0000181608076822 26.0835466698321028 Ru
atom 9.7366447648818397 0.8792782880108484 24.2967564003450640 O
atom 5.2063752097611182 1.3853352034497850 26.8707525335832926 O
atom 6.8188102091789826 2.2645474732623083 26.0834411105417345 Ru
atom 5.6790427268712147 3.6497228606853653 25.2963585478648518 O
atom 7.9584980819302373 0.8792629060531423 26.8708550166273632 O
atom 8.4312131768054090 3.1438556931787738 25.2963005400544212 O
atom 6.9842695735030542 1.3852646056506512 24.2967914782792747 O
atom 8.5968540314166795 6.7934160554013738 23.5095677558568852 Ru
atom 4.0666378805900987 4.5289608707908391 26.0835410606274536 Ru
atom 9.7366640208675115 5.4082054979936185 24.2967452516221414 O
atom 5.2063267588342370 5.9141870635534470 26.8708951052214431 O
atom 6.8188706835289512 6.7934194432343551 26.0834683641853964 Ru
atom 5.8447079219535318 4.5289543128373833 23.5095156718028520 Ru
atom 5.6790729892146352 8.1786235706457457 25.2963166687237262 O
atom 7.9585418150572362 5.4082510360458862 26.8709009810792487 O
atom 8.4313423341172840 7.6726902430444568 25.2962060196216747 O
atom 6.9844080046390600 5.9141003055121857 24.2967019541147025 O
