#===============================================================================
# Created using the Atomic Simulation Environment (ASE)

# Mon Mar 23 14:01:27 2026

#=======================================================
lattice_vector 12.8097293803404586 0.0000000000000000 0.0000000000000000 
lattice_vector -0.0000001283020594 6.2569280899999997 0.0000000000000000 
lattice_vector 0.0000000000000000 0.0000000000000000 38.8919158427257514 
atom 12.8097087540292023 0.0000119668588251 16.2435046282482709 Ru
atom 12.8097071766702637 3.1284526168588136 16.2435040484195774 Ru
atom 1.2434269587581150 4.6927325626831173 16.2435132717584381 O
atom 3.2025056099924347 6.2568535734283257 15.0001307088694738 O
atom 1.2434519908731421 1.5641964026830490 16.2434860269559245 O
atom 3.2025342696468413 3.1285389534276185 15.0000065126577873 O
atom 9.6071818290981810 4.6926164218584763 16.2435183425043839 Ru
atom 9.6071865312082849 0.0000881434274258 15.0001249528624392 O
atom 9.6071818578939467 1.5643117118584682 16.2435173879091188 Ru
atom 11.5662434761279549 1.5641920810344292 16.2434930573012473 O
atom 9.6071579212638216 3.1283758334264444 15.0000000000000000 O
atom 12.8097112351893436 4.6926104285736976 19.4459580734025970 Ru
atom 6.4048331461210459 0.0000120202882828 22.6483801371429472 Ru
atom 10.8507244925695279 4.6927561193974725 19.4458917600558259 O
atom 1.9589548655135478 4.6927696177493816 19.4459540437530016 O
atom 12.8097053749280452 0.0000245170049726 20.6893855385172962 O
atom 12.8097158807141369 0.0000241001427836 18.2025846807407667 O
atom 12.8097112569129976 1.5643178685736987 19.4459582713912944 Ru
atom 6.4048315687621136 3.1284526702882713 22.6483795573142608 Ru
atom 10.8507211130659744 1.5641721193978153 19.4459447011384192 O
atom 1.9589581824018600 1.5641585577490356 19.4459007703318782 O
atom 12.8097091219830279 3.1284394470057846 20.6895026000485025 O
atom 12.8097171318696716 3.1284401601420906 18.2024817542791482 O
atom 3.2025033767099158 4.6926161918593641 16.2435207680393745 Ru
atom 9.6072707687285046 6.2569261035736448 19.4459560192499374 Ru
atom 7.6482807311904191 4.6927326161125755 22.6483887806531179 O
atom 5.1614160570219125 4.6928106010347808 16.2435189869376835 O
atom 3.2024902393266972 6.2568529702903737 17.4869139596830081 O
atom 9.6073593824247414 6.2568536268577830 21.4050062177641500 O
atom 3.2025038721954782 1.5643126618593641 16.2435205912619587 Ru
atom 9.6072710167326658 3.1284660435736034 19.4459496977154451 Ru
atom 7.6483057633054541 1.5641964561125068 22.6483615358506007 O
atom 5.1613914926210596 1.5641176310348543 16.2435468822807643 O
atom 3.2025198038642255 3.1285396202913685 17.4870403338310645 O
atom 9.6073880420791493 3.1285390068570758 21.4048820215524636 O
atom 3.2023062211900313 4.6926164752879336 22.6483938513990672 Ru
atom 3.2024044097848776 6.2569260635736486 19.4459576526651752 Ru
atom 7.6482822231857668 4.6928147526831436 16.2435235955088508 O
atom 11.5662455827710566 4.6927363610346253 16.2435204152639159 O
atom 9.6071890644876081 0.0000875602895462 17.4869066056299118 O
atom 3.2023109233001268 0.0000881968568836 21.4050004617571155 O
atom 3.2023062499857935 1.5643117652879259 22.6483928968038022 Ru
atom 3.2024032859940887 3.1284660235736625 19.4459604810912658 Ru
atom 7.6482842884264359 1.5641134726833412 16.2435513635954614 O
atom 5.1613678682198127 1.5641921344638872 22.6483685661959306 O
atom 9.6071593653889931 3.1283765002902282 17.4870276976421160 O
atom 3.2022823133556688 3.1283758868559017 21.4048755088946798 O
atom 6.4048281248905115 4.6926086085735879 19.4459545237108635 Ru
atom 6.4048411364107301 0.0000117168590196 16.2435353378932810 Ru
atom 4.4458566627373797 4.6927667993983144 19.4460181978166240 O
atom 8.3638134462774119 4.6927528977493846 19.4459585621602322 O
atom 6.4048276376662452 6.2568683670045058 20.6893257172731602 O
atom 6.4048299339363393 6.2568678101423290 18.2025322063290993 O
atom 6.4048281961106195 1.5643200785735969 19.4459558884257682 Ru
atom 6.4048435966338388 3.1284521868590089 16.2435320215647927 Ru
atom 4.4458649435153559 1.5641615493979915 19.4459648254047401 O
atom 8.3638054564376425 1.5641755377497046 19.4460114749545774 O
atom 6.4048231833148552 3.1285240970051968 20.6894307579808476 O
atom 6.4048283294178665 3.1285245901415002 18.2024112769251367 O
atom 9.6073571491422296 4.6926162452888223 22.6483962769340543 Ru
atom 11.5662698294542263 4.6928106544642390 22.6483944958323669 O
atom 9.6073440117590057 6.2568530237198319 23.8917894685776950 O
atom 9.6073576446277933 1.5643127152888219 22.6483961001566350 Ru
atom 11.5662452650533663 1.5641176844643121 22.6484223911754476 O
atom 9.6073735762965313 3.1285396737208262 23.8919158427257479 O
atom 1.2434066152776202 4.6928148061126018 22.6483991044035342 O
atom 5.1613699748629012 4.6927364144640826 22.6483959241585957 O
atom 3.2023134565794629 0.0000876137190039 23.8917821145245846 O
atom 1.2434086805182865 1.5641135261127985 22.6484268724901447 O
atom 3.2022837574808451 3.1283765537196859 23.8919032065367922 O
atom 12.8096949088430367 0.0000117702884773 22.6484108467879643 Ru
atom 12.8096973690661518 3.1284522402884667 22.6484075304594761 Ru
