#===============================================================================
# Created using the Atomic Simulation Environment (ASE)

# Mon Mar 23 14:01:25 2026

#=======================================================
lattice_vector 11.0088023998619828 0.0000000000000000 0.0000000000000000 
lattice_vector 3.5561804958640981 10.4186176412040616 0.0000000000000000 
lattice_vector 0.0000000000000000 0.0000000000000000 31.9880503405679306 
atom 4.8705568957408909 3.4840176886573468 16.9880051239566718 Ru
atom 3.7308746602650507 5.0773643122322154 16.9878545688131872 O
atom 6.0103634974194886 1.8907769099223835 16.9878884368219083 O
atom 6.4830789231079304 4.6374906452022753 16.7379028208242957 O
atom 5.0362743887722754 3.6025527953836480 15.0001344839084751 O
atom 2.1183802938191993 1.5153419636260796 15.8690139338204546 Ru
atom 3.8964850133776059 6.7246593407627175 15.8690171334448067 Ru
atom 6.6487907801963733 8.6933257932037069 16.9878863529225264 Ru
atom 5.5089402378090968 10.2866321121395341 16.9879453620277516 O
atom 7.7883640194371244 7.1000230737983339 16.9880442344865692 O
atom 8.2613137611848710 9.8467724808835531 16.7379309521752120 O
atom 6.8143758515242103 8.8117343564998762 15.0000000000000000 O
atom 7.6227959220743617 1.5153525409490016 15.8690183034830596 Ru
atom 10.3749907050430856 3.4841671067581208 16.9878847939844242 Ru
atom 9.2352232227353213 5.0773431130383280 16.9880503405679306 O
atom 11.5146785777943332 1.8907324557784304 16.9879533661734214 O
atom 11.9873936726695067 4.6375751894177810 16.7380388050730247 O
atom 10.5404500693671537 3.6025525535624379 15.0001121320021937 O
atom 12.1530345272807825 8.6933392738155568 16.9880039453260210 Ru
atom 11.0134439125076380 10.2867326479123609 16.9879352835036066 O
atom 13.2928445167316109 7.1000857823350527 16.9879035544239620 O
atom 13.7654801727667433 9.8467508291297996 16.7379212764981169 O
atom 12.3186750569717436 8.8118226570136340 15.0001581736705738 O
atom 9.4008884178176384 6.7246613480497306 15.8690337889540771 Ru
