#===============================================================================
# Created using the Atomic Simulation Environment (ASE)

# Mon Mar 23 14:01:26 2026

#=======================================================
lattice_vector 9.0578618800032320 0.0000000000000000 0.0000000000000000 
lattice_vector -0.0000001276308936 6.2569280899999997 0.0000000000000000 
lattice_vector 0.0000000000000000 0.0000000000000000 38.5520538024817156 
atom 0.0000349223223183 6.2569164637185475 20.4082031825599586 Ru
atom 0.8792884654688345 1.5641587930273571 15.0000353699671862 O
atom 0.0000356461364130 3.1284758137185431 20.4082017025592535 Ru
atom 0.8792484316228661 4.6927698530269550 15.0000000000000000 O
atom 5.4082047754862099 1.5641177830274109 15.0000538149798075 O
atom 4.5289710061437845 3.1284624137186063 20.4082084475556087 Ru
atom 5.4082418516717041 4.6928107530275902 15.0000561249469797 O
atom 2.2645731705009164 1.5643119892419672 18.1436844599971892 Ru
atom 0.0000394149677614 0.0000023547655543 15.8792895425545737 Ru
atom 3.6497280906480456 1.5641136465037391 16.7585369901374293 O
atom 0.8793073604575985 1.5641920619804821 19.5289531799526372 O
atom 3.1437762923361534 6.2568408687453223 19.0228977874497502 O
atom 1.3853579272247725 6.2568402497385893 17.2644758125568387 O
atom 2.2645724566855816 4.6926166992419605 18.1436837599987513 Ru
atom 0.0000421911533120 3.1284623947655752 15.8792907025521970 Ru
atom 3.6497462468493289 4.6928149265039538 16.7585580401205192 O
atom 0.8792894866241627 4.6927363419802699 19.5289322999671668 O
atom 3.1438829362054448 3.1285519287462060 19.0229624573586165 O
atom 1.3852898209477709 3.1285525597375954 17.2643672726132849 O
atom 6.7934435305517846 1.5643198292420728 18.1437428150482987 Ru
atom 4.5289819973470449 6.2569166747656704 15.8792996075447235 Ru
atom 8.1786905706907085 1.5641616265041902 16.7585858451104812 O
atom 5.4082345704629065 1.5641755519804927 19.5289574649558944 O
atom 7.6726400800025667 0.0000600887452866 19.0229387025056269 O
atom 5.9142099148869862 0.0000606097384704 17.2645117576226710 O
atom 6.7934444267379321 4.6926083592420840 18.1437437850486063 Ru
atom 4.5289779311619176 3.1284762047656494 15.8792990475480593 Ru
atom 8.1786469568476683 4.6927668765037946 16.7585539151463649 O
atom 5.4082776166737512 4.6927529119808860 19.5289891849187569 O
atom 7.6727174862476835 3.1284043587460841 19.0230097824409654 O
atom 5.9141255209988559 3.1284038297375445 17.2644250676946740 O
atom 2.2645097255567754 1.5643180481952357 22.6726815700523474 Ru
atom 3.6496756556088936 1.5641723454563374 21.2874218801829471 O
atom 3.1437498274073503 6.2569039776988724 23.5519133574733104 O
atom 1.3853086622922832 6.2569043586920099 21.7934870225996491 O
atom 2.2645098317421790 4.6926106081952366 22.6726816800533015 Ru
atom 3.6497154618224763 4.6927563454567371 21.2874568801485111 O
atom 3.1438299712947662 3.1284890476997709 23.5519988274053702 O
atom 1.3852350160468354 3.1284882986912264 21.7934151726615966 O
atom 6.7933817856086813 1.5643122581953555 22.6727410851021105 Ru
atom 4.5289756699628789 0.0000023537186534 20.4082127875516903 Ru
atom 8.1786527156422402 1.5641958754567824 21.2874595751438420 O
atom 7.6726028350649500 0.0000754976987197 23.5519435825386125 O
atom 5.9141706799633056 0.0000748586920001 21.7935331376573345 O
atom 6.7933812917940948 4.6926157881953543 22.6727412651035038 Ru
atom 8.1786157318251149 4.6927320354566096 21.2874579651745677 O
atom 7.6726712713432565 3.1283888476997275 23.5520538024817156 O
atom 5.9140625760914247 3.1283894786910911 21.7934655377495403 O
