#===============================================================================
# Created using the Atomic Simulation Environment (ASE)

# Mon Mar 23 14:01:25 2026

#=======================================================
lattice_vector 9.0578464400032317 0.0000000000000000 0.0000000000000000 
lattice_vector 0.0000153000130401 9.0578618799903108 0.0000000000000000 
lattice_vector 0.0000000000000000 0.0000000000000000 30.0002065791758028 
atom 2.2644733843071903 2.2644597238752211 15.0000022099999200 Ru
atom 0.8792509242143509 3.6496676937946422 15.0001479591756919 O
atom 3.6496358043665245 0.8792112840051605 15.0001615208241006 O
atom 2.2645406192634878 6.7933311838200279 15.0000073899995243 Ru
atom 0.8792596591949141 8.1785679637889874 15.0001236491755492 O
atom 3.6496995794259033 5.4082047039527330 15.0002024208242588 O
atom 6.7933219043681721 2.2645299989382828 15.0000083400003916 Ru
atom 5.4081985242485571 3.6497061287737935 15.0002065791758028 O
atom 8.1785681043962786 0.8792446889976401 15.0001279708242308 O
atom 6.7933895793248702 6.7934019688827796 15.0000000000000000 Ru
atom 5.4082020492294411 8.1786068387726427 15.0001585291756783 O
atom 8.1786326394511359 5.4082328189446782 15.0001445408243512 O
