#===============================================================================
# Created using the Atomic Simulation Environment (ASE)

# Mon Mar 23 14:01:26 2026

#=======================================================
lattice_vector 9.0578618800032320 0.0000000000000000 0.0000000000000000 
lattice_vector -0.0000001276308936 6.2569280899999997 0.0000000000000000 
lattice_vector 0.0000000000000000 0.0000000000000000 52.1388143824951698 
atom 0.0000043223484000 6.2569163079061108 15.8792708825927988 Ru
atom 0.0000050461624947 3.1284756579061059 15.8792694025920937 Ru
atom 4.5289404061698653 3.1284622579061692 15.8792761475884454 Ru
atom 0.8792767604836789 1.5641919061680449 15.0000208799854704 O
atom 0.8792588866502431 4.6927361861678332 15.0000000000000000 O
atom 5.4082039704889864 1.5641753961680556 15.0000251649887275 O
atom 5.4082470166998320 4.6927527561684492 15.0000568849515936 O
atom 2.2644791255828558 1.5643178923827983 18.1437492700851806 Ru
atom 0.0000196223353602 6.2569163858123291 24.9371173225831129 Ru
atom 3.6496450556349740 1.5641721896439003 16.7584895802157838 O
atom 0.8792731654818748 1.5641587151211389 19.5289495099903334 O
atom 3.1437192274334311 6.2569038218864348 19.0229810575061506 O
atom 1.3852780623183634 6.2569042028795714 17.2645547226324894 O
atom 2.2644792317682603 4.6926104523827998 18.1437493800861311 Ru
atom 0.0000203461494528 3.1284757358123243 24.9371158425824042 Ru
atom 3.6496848618485571 4.6927561896443004 16.7585245801813443 O
atom 0.8792331316359063 4.6927697751207367 19.5289141400231543 O
atom 3.1437993713208461 3.1284888918873341 19.0230665274382034 O
atom 1.3852044160729158 3.1284881428787887 17.2644828726944297 O
atom 6.7933511856347613 1.5643121023829185 18.1438087851349437 Ru
atom 4.5289450699889580 0.0000021979062163 15.8792804875845341 Ru
atom 8.1786221156683219 1.5641957196443455 16.7585272751766823 O
atom 5.4081894754992490 1.5641177051211925 19.5289679550029476 O
atom 7.6725722350910299 0.0000753418862826 19.0230112825714421 O
atom 5.9141400799893855 0.0000747028795631 17.2646008376901712 O
atom 6.7933506918201765 4.6926156323829185 18.1438089651363370 Ru
atom 4.5289557061568253 3.1284623358123871 24.9371225875787559 Ru
atom 8.1785851318511966 4.6927318796441719 16.7585256652074008 O
atom 5.4082265516847450 4.6928106751213701 19.5289702649701198 O
atom 7.6726406713693365 3.1283886918872903 19.0231215025145488 O
atom 5.9140319761175038 3.1283893228786539 17.2645332377823735 O
atom 2.2645578705139573 1.5643119113357491 22.6725986000203292 Ru
atom 0.0000241149808017 0.0000022768593358 20.4082036825777138 Ru
atom 3.6497127906610864 1.5641135685975205 21.2874511301605693 O
atom 0.8792920604706387 1.5641919840742637 24.0578673199757809 O
atom 3.1437609923491934 6.2568407908391039 23.5518119274728974 O
atom 1.3853426272378124 6.2568401718323701 21.7933899525799788 O
atom 2.2645571566986220 4.6926166213357421 22.6725979000218949 Ru
atom 0.0000268911663523 3.1284623168593564 20.4082048425753442 Ru
atom 3.6497309468623698 4.6928148485977355 21.2874721801436593 O
atom 0.8792741866372029 4.6927362640740515 24.0578464399903105 O
atom 3.1438676362184861 3.1285518508399877 23.5518765973817672 O
atom 1.3852745209608106 3.1285524818313761 21.7932814126364249 O
atom 6.7934282305648237 1.5643197513358544 22.6726569550714423 Ru
atom 4.5289666973600848 6.2569165968594520 20.4082137475678635 Ru
atom 8.1786752707037511 1.5641615485979716 21.2874999851336248 O
atom 5.4082192704759464 1.5641754740742744 24.0578716049790344 O
atom 7.6726247800156067 0.0000600108390681 23.5518528425287776 O
atom 5.9141946149000253 0.0000605318322518 21.7934258976458182 O
atom 6.7934291267509721 4.6926082813358656 22.6726579250717535 Ru
atom 4.5289626311749576 3.1284761268594306 20.4082131875712030 Ru
atom 8.1786316568607109 4.6927667985975763 21.2874680551695050 O
atom 5.4082623166867920 4.6927528340746676 24.0579033249419005 O
atom 7.6727021862607243 3.1284042808398653 23.5519239224641126 O
atom 5.9141102210118959 3.1284037518313257 21.7933392077178141 O
atom 2.2644944255698150 1.5643179702890166 27.2015957100754910 Ru
atom 0.0000349223223183 6.2569164637185475 33.9949637625734127 Ru
atom 3.6496603556219331 1.5641722675501188 25.8163360202060943 O
atom 0.8792884654688345 1.5641587930273571 28.5867959499806403 O
atom 3.1437345274203903 6.2569038997926532 28.0808274974964576 O
atom 1.3852933623053232 6.2569042807857915 26.3224011626227963 O
atom 2.2644945317552194 4.6926105302890182 27.2015958200764416 Ru
atom 0.0000356461364130 3.1284758137185431 33.9949622825727076 Ru
atom 3.6497001618355167 4.6927562675505188 25.8163710201716547 O
atom 0.8792484316228661 4.6927698530269550 28.5867605800134541 O
atom 3.1438146713078061 3.1284889697935525 28.0809129674285103 O
atom 1.3852197160598760 3.1284882207850080 26.3223293126847437 O
atom 6.7933664856217213 1.5643121802891369 27.2016552251252506 Ru
atom 4.5289603699759189 0.0000022758124349 24.9371269275748446 Ru
atom 8.1786374156552792 1.5641957975505636 25.8163737151669928 O
atom 5.4082047754862099 1.5641177830274109 28.5868143949932616 O
atom 7.6725875350779900 0.0000754197925011 28.0808577225617526 O
atom 5.9141553799763456 0.0000747807857816 26.3224472776804852 O
atom 6.7933659918071365 4.6926157102891368 27.2016554051266439 Ru
atom 4.5289710061437845 3.1284624137186063 33.9949690275690628 Ru
atom 8.1786004318381540 4.6927319575503912 25.8163721051977113 O
atom 5.4082418516717041 4.6928107530275902 28.5868167049604338 O
atom 7.6726559713562965 3.1283887697935087 28.0809679425048557 O
atom 5.9140472761044647 3.1283894007848727 26.3223796777726875 O
atom 2.2645731705009164 1.5643119892419672 31.7304450400106433 Ru
atom 0.0000394149677614 0.0000023547655543 29.4660501225680278 Ru
atom 3.6497280906480456 1.5641136465037391 30.3452975701508834 O
atom 0.8793073604575985 1.5641920619804821 33.1157137599660913 O
atom 3.1437762923361534 6.2568408687453223 32.6096583674632043 O
atom 1.3853579272247725 6.2568402497385893 30.8512363925702928 O
atom 2.2645724566855816 4.6926166992419605 31.7304443400122054 Ru
atom 0.0000421911533120 3.1284623947655752 29.4660512825656511 Ru
atom 3.6497462468493289 4.6928149265039538 30.3453186201339733 O
atom 0.8792894866241627 4.6927363419802699 33.1156928799806209 O
atom 3.1438829362054448 3.1285519287462060 32.6097230373720706 O
atom 1.3852898209477709 3.1285525597375954 30.8511278526267390 O
atom 6.7934435305517846 1.5643198292420728 31.7305033950617528 Ru
atom 4.5289819973470449 6.2569166747656704 29.4660601875581776 Ru
atom 8.1786905706907085 1.5641616265041902 30.3453464251239353 O
atom 5.4082345704629065 1.5641755519804927 33.1157180449693485 O
atom 7.6726400800025667 0.0000600887452866 32.6096992825190810 O
atom 5.9142099148869862 0.0000606097384704 30.8512723376361251 O
atom 6.7934444267379321 4.6926083592420840 31.7305043650620604 Ru
atom 4.5289779311619176 3.1284762047656494 29.4660596275615134 Ru
atom 8.1786469568476683 4.6927668765037946 30.3453144951598190 O
atom 5.4082776166737512 4.6927529119808860 33.1157497649322110 O
atom 7.6727174862476835 3.1284043587460841 32.6097703624544195 O
atom 5.9141255209988559 3.1284038297375445 30.8511856477081281 O
atom 2.2645097255567754 1.5643180481952357 36.2594421500658015 Ru
atom 3.6496756556088936 1.5641723454563374 34.8741824601964012 O
atom 3.1437498274073503 6.2569039776988724 37.1386739374867645 O
atom 1.3853086622922832 6.2569043586920099 35.3802476026131032 O
atom 2.2645098317421790 4.6926106081952366 36.2594422600667556 Ru
atom 3.6497154618224763 4.6927563454567371 34.8742174601619652 O
atom 3.1438299712947662 3.1284890476997709 37.1387594074188243 O
atom 1.3852350160468354 3.1284882986912264 35.3801757526750507 O
atom 6.7933817856086813 1.5643122581953555 36.2595016651155646 Ru
atom 4.5289756699628789 0.0000023537186534 33.9949733675651444 Ru
atom 8.1786527156422402 1.5641958754567824 34.8742201551572961 O
atom 7.6726028350649500 0.0000754976987197 37.1387041625520666 O
atom 5.9141706799633056 0.0000748586920001 35.3802937176707886 O
atom 6.7933812917940948 4.6926157881953543 36.2595018451169580 Ru
atom 8.1786157318251149 4.6927320354566096 34.8742185451880218 O
atom 7.6726712713432565 3.1283888476997275 37.1388143824951698 O
atom 5.9140625760914247 3.1283894786910911 35.3802261177629944 O
