#===============================================================================
# Created using the Atomic Simulation Environment (ASE)

# Mon Mar 23 14:01:26 2026

#=======================================================
lattice_vector 11.0088023998619828 0.0000000000000000 0.0000000000000000 
lattice_vector 0.0000126935906902 9.0578618799943378 0.0000000000000000 
lattice_vector 0.0000000000000000 0.0000000000000000 31.5747231105330393 
atom 1.3143763998767801 2.2644770283702735 15.7874416849120784 Ru
atom 0.1746941644009474 3.6496445555622379 15.0000000000000000 O
atom 2.4541830015553781 0.8792694709551599 16.5745987311995009 O
atom 2.9268984272438341 3.1437149980814953 15.0000462212912282 O
atom 9.5710021978170747 0.0000068058185185 15.7873702268476315 Ru
atom 10.7107260020795323 1.3852045785335620 16.5746760332353915 O
atom 1.3144350052979870 6.7933490883444962 15.7874707467882551 Ru
atom 0.1747181525666197 8.1786216155664153 15.0000407842534678 O
atom 2.4542278328714136 5.4081857809141560 16.5745754722512046 O
atom 2.9268730285513467 7.6725678781482394 15.0001453572463035 O
atom 9.5710217102628743 4.5289421658029934 15.7873630351311967 Ru
atom 10.7108299532486821 5.9140321384369212 16.5746233512418577 O
atom 4.0666154262102667 0.0000181608076822 15.7873687992858898 Ru
atom 5.2063752097611182 1.3853352034497850 16.5745746630370796 O
atom 6.8188102091789826 2.2645474732623083 15.7872632399955215 Ru
atom 5.6790427268712147 3.6497228606853653 15.0001806773186388 O
atom 7.9584980819302373 0.8792629060531423 16.5746771460811502 O
atom 8.4312131768054090 3.1438556931787738 15.0001226695082082 O
atom 4.0666378805900987 4.5289608707908391 15.7873631900812406 Ru
atom 5.2063267588342370 5.9141870635534470 16.5747172346752301 O
atom 6.8188706835289512 6.7934194432343551 15.7872904936391834 Ru
atom 5.6790729892146352 8.1786235706457457 15.0001387981775132 O
atom 7.9585418150572362 5.4082510360458862 16.5747231105330357 O
atom 8.4313423341172840 7.6726902430444568 15.0000281490754617 O
