#===============================================================================
# Created using the Atomic Simulation Environment (ASE)

# Mon Mar 23 14:01:26 2026

#=======================================================
lattice_vector 9.0578618800032320 0.0000000000000000 0.0000000000000000 
lattice_vector -0.0000001276308936 6.2569280899999997 0.0000000000000000 
lattice_vector 0.0000000000000000 0.0000000000000000 47.6099002424720155 
atom 0.0000196223353602 6.2569163858123291 20.4082031825599586 Ru
atom 0.8792731654818748 1.5641587151211389 15.0000353699671791 O
atom 0.0000203461494528 3.1284757358123243 20.4082017025592499 Ru
atom 0.8792331316359063 4.6927697751207367 15.0000000000000000 O
atom 5.4081894754992490 1.5641177051211925 15.0000538149797933 O
atom 4.5289557061568253 3.1284623358123871 20.4082084475556016 Ru
atom 5.4082265516847450 4.6928106751213701 15.0000561249469655 O
atom 2.2645578705139573 1.5643119113357491 18.1436844599971749 Ru
atom 0.0000241149808017 0.0000022768593358 15.8792895425545595 Ru
atom 3.6497127906610864 1.5641135685975205 16.7585369901374150 O
atom 0.8792920604706387 1.5641919840742637 19.5289531799526266 O
atom 3.1437609923491934 6.2568407908391039 19.0228977874497431 O
atom 1.3853426272378124 6.2568401718323701 17.2644758125568245 O
atom 2.2645571566986220 4.6926166213357421 18.1436837599987406 Ru
atom 0.0000268911663523 3.1284623168593564 15.8792907025521899 Ru
atom 3.6497309468623698 4.6928148485977355 16.7585580401205050 O
atom 0.8792741866372029 4.6927362640740515 19.5289322999671562 O
atom 3.1438676362184861 3.1285518508399877 19.0229624573586129 O
atom 1.3852745209608106 3.1285524818313761 17.2643672726132706 O
atom 6.7934282305648237 1.5643197513358544 18.1437428150482880 Ru
atom 4.5289666973600848 6.2569165968594520 15.8792996075447093 Ru
atom 8.1786752707037511 1.5641615485979716 16.7585858451104706 O
atom 5.4082192704759464 1.5641754740742744 19.5289574649558801 O
atom 7.6726247800156067 0.0000600108390681 19.0229387025056234 O
atom 5.9141946149000253 0.0000605318322518 17.2645117576226639 O
atom 6.7934291267509721 4.6926082813358656 18.1437437850485992 Ru
atom 4.5289626311749576 3.1284761268594306 15.8792990475480487 Ru
atom 8.1786316568607109 4.6927667985975763 16.7585539151463507 O
atom 5.4082623166867920 4.6927528340746676 19.5289891849187462 O
atom 7.6727021862607243 3.1284042808398653 19.0230097824409583 O
atom 5.9141102210118959 3.1284037518313257 17.2644250676946598 O
atom 2.2644944255698150 1.5643179702890166 22.6726815700523368 Ru
atom 0.0000349223223183 6.2569164637185475 29.4660496225502584 Ru
atom 3.6496603556219331 1.5641722675501188 21.2874218801829400 O
atom 0.8792884654688345 1.5641587930273571 24.0578818099574860 O
atom 3.1437345274203903 6.2569038997926532 23.5519133574733033 O
atom 1.3852933623053232 6.2569042807857915 21.7934870225996420 O
atom 2.2644945317552194 4.6926105302890182 22.6726816800532873 Ru
atom 0.0000356461364130 3.1284758137185431 29.4660481425495533 Ru
atom 3.6497001618355167 4.6927562675505188 21.2874568801485005 O
atom 0.8792484316228661 4.6927698530269550 24.0578464399902998 O
atom 3.1438146713078061 3.1284889697935525 23.5519988274053560 O
atom 1.3852197160598760 3.1284882207850080 21.7934151726615895 O
atom 6.7933664856217213 1.5643121802891369 22.6727410851020963 Ru
atom 4.5289603699759189 0.0000022758124349 20.4082127875516903 Ru
atom 8.1786374156552792 1.5641957975505636 21.2874595751438385 O
atom 5.4082047754862099 1.5641177830274109 24.0579002549701073 O
atom 7.6725875350779900 0.0000754197925011 23.5519435825385983 O
atom 5.9141553799763456 0.0000747807857816 21.7935331376573309 O
atom 6.7933659918071365 4.6926157102891368 22.6727412651034896 Ru
atom 4.5289710061437845 3.1284624137186063 29.4660548875459085 Ru
atom 8.1786004318381540 4.6927319575503912 21.2874579651745570 O
atom 5.4082418516717041 4.6928107530275902 24.0579025649372795 O
atom 7.6726559713562965 3.1283887697935087 23.5520538024817014 O
atom 5.9140472761044647 3.1283894007848727 21.7934655377495332 O
atom 2.2645731705009164 1.5643119892419672 27.2015308999874890 Ru
atom 0.0000394149677614 0.0000023547655543 24.9371359825448735 Ru
atom 3.6497280906480456 1.5641136465037391 25.8163834301277291 O
atom 0.8793073604575985 1.5641920619804821 28.5867996199429371 O
atom 3.1437762923361534 6.2568408687453223 28.0807442274400501 O
atom 1.3853579272247725 6.2568402497385893 26.3223222525471385 O
atom 2.2645724566855816 4.6926166992419605 27.2015301999890511 Ru
atom 0.0000421911533120 3.1284623947655752 24.9371371425424968 Ru
atom 3.6497462468493289 4.6928149265039538 25.8164044801108190 O
atom 0.8792894866241627 4.6927363419802699 28.5867787399574667 O
atom 3.1438829362054448 3.1285519287462060 28.0808088973489163 O
atom 1.3852898209477709 3.1285525597375954 26.3222137126035847 O
atom 6.7934435305517846 1.5643198292420728 27.2015892550385985 Ru
atom 4.5289819973470449 6.2569166747656704 24.9371460475350233 Ru
atom 8.1786905706907085 1.5641616265041902 25.8164322851007810 O
atom 5.4082345704629065 1.5641755519804927 28.5868039049461942 O
atom 7.6726400800025667 0.0000600887452866 28.0807851424959267 O
atom 5.9142099148869862 0.0000606097384704 26.3223581976129708 O
atom 6.7934444267379321 4.6926083592420840 27.2015902250389061 Ru
atom 4.5289779311619176 3.1284762047656494 24.9371454875383591 Ru
atom 8.1786469568476683 4.6927668765037946 25.8164003551366648 O
atom 5.4082776166737512 4.6927529119808860 28.5868356249090567 O
atom 7.6727174862476835 3.1284043587460841 28.0808562224312652 O
atom 5.9141255209988559 3.1284038297375445 26.3222715076849738 O
atom 2.2645097255567754 1.5643180481952357 31.7305280100426472 Ru
atom 3.6496756556088936 1.5641723454563374 30.3452683201732469 O
atom 3.1437498274073503 6.2569039776988724 32.6097597974636102 O
atom 1.3853086622922832 6.2569043586920099 30.8513334625899489 O
atom 2.2645098317421790 4.6926106081952366 31.7305281200436013 Ru
atom 3.6497154618224763 4.6927563454567371 30.3453033201388109 O
atom 3.1438299712947662 3.1284890476997709 32.6098452673956700 O
atom 1.3852350160468354 3.1284882986912264 30.8512616126518964 O
atom 6.7933817856086813 1.5643122581953555 31.7305875250924103 Ru
atom 4.5289756699628789 0.0000023537186534 29.4660592275419901 Ru
atom 8.1786527156422402 1.5641958754567824 30.3453060151341418 O
atom 7.6726028350649500 0.0000754976987197 32.6097900225289123 O
atom 5.9141706799633056 0.0000748586920001 30.8513795776476343 O
atom 6.7933812917940948 4.6926157881953543 31.7305877050938037 Ru
atom 8.1786157318251149 4.6927320354566096 30.3453044051648675 O
atom 7.6726712713432565 3.1283888476997275 32.6099002424720155 O
atom 5.9140625760914247 3.1283894786910911 30.8513119777398401 O
