#===============================================================================
# Created using the Atomic Simulation Environment (ASE)

# Mon Mar 23 14:01:25 2026

#=======================================================
lattice_vector 11.0088023998619828 0.0000000000000000 0.0000000000000000 
lattice_vector 3.5561804958640981 10.4186176412040616 0.0000000000000000 
lattice_vector 0.0000000000000000 0.0000000000000000 38.7016234010798144 
atom 7.4526465116545753 5.3310355332856538 15.8690103640639215 Ru
atom 10.3704397026284649 7.4181744299584862 15.0001096438353549 O
atom 8.5924177525016017 2.2088159577947946 15.0002064346152899 O
atom 5.6745549149477137 0.1217255870514656 15.8690226254018860 Ru
atom 4.8660889103100500 7.4183380835898927 15.0000860583573790 O
atom 3.0879412093238954 2.2088902157676484 15.0000000000000000 O
atom 8.4267246980142936 6.0278077204764431 19.2258713174448879 Ru
atom 3.8964787093811699 2.7872455014665567 20.3447172310875821 Ru
atom 7.2870424625384587 7.6211543440513108 19.2257207623014033 O
atom 9.5665312996928868 4.4345669417414815 19.2257546303101314 O
atom 10.0392467253813429 7.1812806770213689 18.9757690143125153 O
atom 8.5924421910456736 6.1463428272027443 17.2380006773966876 O
atom 10.2049061543287127 7.2997725714987238 16.9878953556075309 Ru
atom 5.6745480960925976 4.0591319954451768 18.1068801273086670 Ru
atom 9.0650869838354797 8.8930254248495864 16.9879901300827214 O
atom 11.3445025420160164 5.7063773715517572 16.9879691322938911 O
atom 11.8173730349211876 8.4532013425214636 16.7380325159809011 O
atom 6.8142719003550543 4.8743843981393891 19.4758165108590227 O
atom 8.4267706098448034 2.0903283658255938 16.9880140560475574 Ru
atom 7.4526528156510086 9.2684493725818129 18.1068833269330263 Ru
atom 7.2870537571134415 3.6837604832201474 16.9879255752725022 O
atom 9.5665634374182176 0.4971519106233730 16.9878737466148202 O
atom 10.0392086330981662 3.2437500222395124 16.7379631974673124 O
atom 8.5924304460922958 10.0836435671797595 19.4759133016389576 O
atom 6.6487780866056827 0.8184981838187416 19.2257525464107530 Ru
atom 5.6745676085384069 7.9965531964364320 20.3447294924255466 Ru
atom 5.5089275442184107 2.4118045027545683 19.2258115555159677 O
atom 11.3445318217105324 9.6438131056174310 19.2259104279747852 O
atom 8.2613010675941769 1.9719448714985899 18.9757971456634245 O
atom 6.8143631579335198 0.9369067471149100 17.2378661934882125 O
atom 4.7003500254031669 7.2997877444476567 16.9880121965683166 Ru
atom 11.1789637243477724 4.0591425727680948 18.1068844969712757 Ru
atom 3.5607900408391360 8.8931146813591990 16.9878739973120751 O
atom 5.8401906631573670 5.7064597434527924 16.9879278500942590 O
atom 6.3128892889425350 8.4532569291806343 16.7378416901933669 O
atom 12.3187235078986212 4.8745480517707982 19.4757929253810396 O
atom 2.9223561074545148 6.0279571385772153 19.2257509874726402 Ru
atom 1.9482484563209348 5.3310413602324278 15.8690301750974285 Ru
atom 12.7913910250087213 7.6211331448574251 19.2259165340561466 O
atom 4.0620439802057584 4.4345224875975262 19.2258195596616410 O
atom 4.5347590750809328 7.1813652212368773 18.9759049985612407 O
atom 3.0878154717785780 6.1463425853815323 17.2379783254904169 O
atom 1.1442194338281140 0.8185116644305898 19.2258701388142370 Ru
atom 0.1701710852749351 0.1217417724433057 15.8690320026973772 Ru
atom 11.0134312189169439 2.4119050385273968 19.2258014769918226 O
atom 5.8402099191430352 9.6438758141541463 19.2257697479121781 O
atom 2.7566650793140615 1.9719232197448335 18.9757874699863329 O
atom 1.3098599635190693 0.9369950476286676 17.2380243671587934 O
atom 2.9224038882137919 2.0904785991703161 16.9878921095411961 Ru
atom 12.9570562200910420 9.2684513798688286 18.1068999824422896 Ru
atom 1.7826061938994666 3.6837137519180123 16.9880117537909463 O
atom 4.0620750197420712 0.4971356912593841 16.9880343461998429 O
atom 4.5348755388021198 3.2439143206024146 16.7379217611174873 O
atom 14.0967563027765692 10.0837178251526147 19.4757068670236571 O
atom 4.8705568957408909 3.4840176886573468 23.7015781844685520 Ru
atom 3.7308746602650507 5.0773643122322154 23.7014276293250674 O
atom 6.0103634974194886 1.8907769099223835 23.7014614973337885 O
atom 6.4830789231079304 4.6374906452022753 23.4514758813361759 O
atom 5.0362743887722754 3.6025527953836480 21.7137075444203553 O
atom 6.6487383520553065 4.7559825396796294 21.4636022226311951 Ru
atom 2.1183802938191993 1.5153419636260796 22.5825869943323347 Ru
atom 5.5089191815620628 6.3492353930304919 21.4636969971063820 O
atom 7.7883347397426128 3.1625873397326618 21.4636759993175552 O
atom 8.2612052326477787 5.9094113107023665 21.2137393830045653 O
atom 8.4267833034354993 9.9651559752105587 21.4637209230712216 Ru
atom 3.8964850133776059 6.7246593407627175 22.5825901939566869 Ru
atom 3.7308859548400339 1.1399704514010520 21.4636324422961628 O
atom 9.5665761310089135 8.3719795200083382 21.4635806136384808 O
atom 6.4830408308247547 0.6999599904204162 21.2136700644909766 O
atom 6.6487907801963733 8.6933257932037069 23.7014594134344065 Ru
atom 5.5089402378090968 10.2866321121395341 23.7015184225396318 O
atom 7.7883640194371244 7.1000230737983339 23.7016172949984494 O
atom 8.2613137611848710 9.8467724808835531 23.4515040126870922 O
atom 6.8143758515242103 8.8117343564998762 21.7135730605118802 O
atom 12.1529846229917524 4.7559977126285613 21.4637190635919843 Ru
atom 7.6227959220743617 1.5153525409490016 22.5825913639949398 Ru
atom 11.0134246384277077 6.3493246495401046 21.4635808643357393 O
atom 2.2840228608839603 3.1626697116336979 21.4636347171179231 O
atom 2.7567214866691314 5.9094668973615381 21.2135485572170275 O
atom 10.3749907050430856 3.4841671067581208 23.7014578544963044 Ru
atom 9.4008830539095172 2.7872513284133351 20.3447370421210927 Ru
atom 9.2352232227353213 5.0773431130383280 23.7016234010798108 O
atom 11.5146785777943332 1.8907324557784304 23.7015264266853016 O
atom 11.9873936726695067 4.6375751894177810 23.4516118655849048 O
atom 10.5404500693671537 3.6025525535624379 21.7136851925140739 O
atom 12.1530345272807825 8.6933392738155568 23.7015770058379012 Ru
atom 11.1789861787276035 7.9965693818282721 20.3447388697210414 Ru
atom 11.0134439125076380 10.2867326479123609 23.7015083440154868 O
atom 13.2928445167316109 7.1000857823350527 23.7014766149358422 O
atom 13.7654801727667433 9.8467508291297996 23.4514943370099971 O
atom 12.3186750569717436 8.8118226570136340 21.7137312341824540 O
atom 13.9312189816664702 9.9653062085552815 21.4635989765648638 Ru
atom 9.4008884178176384 6.7246613480497306 22.5826068494659573 Ru
atom 9.2352407914880423 1.1399237200989174 21.4637186208146140 O
atom 4.0620877133327662 8.3719633006443495 21.4637412132235070 O
atom 0.9787077365287160 0.7001242887833167 21.2136286281411479 O
