#===============================================================================
# Created using the Atomic Simulation Environment (ASE)

# Mon Mar 23 14:01:26 2026

#=======================================================
lattice_vector 9.0578618800032320 0.0000000000000000 0.0000000000000000 
lattice_vector -0.0000001276308936 6.2569280899999997 0.0000000000000000 
lattice_vector 0.0000000000000000 0.0000000000000000 45.3455329698587448 
atom 0.0000196223353602 6.2569163858123291 18.1438359099466879 Ru
atom 0.0000203461494528 3.1284757358123243 18.1438344299459793 Ru
atom 4.5289557061568253 3.1284623358123871 18.1438411749423310 Ru
atom 2.2645578705139573 1.5643119113357491 15.8793171873839043 Ru
atom 0.8792920604706387 1.5641919840742637 17.2645859073393559 O
atom 3.1437609923491934 6.2568407908391039 16.7585305148364725 O
atom 1.3853426272378124 6.2568401718323701 15.0001085399435539 O
atom 2.2645571566986220 4.6926166213357421 15.8793164873854700 Ru
atom 0.8792741866372029 4.6927362640740515 17.2645650273538855 O
atom 3.1438676362184861 3.1285518508399877 16.7585951847453423 O
atom 1.3852745209608106 3.1285524818313761 15.0000000000000000 O
atom 6.7934282305648237 1.5643197513358544 15.8793755424350174 Ru
atom 5.4082192704759464 1.5641754740742744 17.2645901923426095 O
atom 7.6726247800156067 0.0000600108390681 16.7585714298923527 O
atom 5.9141946149000253 0.0000605318322518 15.0001444850093932 O
atom 6.7934291267509721 4.6926082813358656 15.8793765124353286 Ru
atom 5.4082623166867920 4.6927528340746676 17.2646219123054756 O
atom 7.6727021862607243 3.1284042808398653 16.7586425098276877 O
atom 5.9141102210118959 3.1284037518313257 15.0000577950813891 O
atom 2.2644944255698150 1.5643179702890166 20.4083142974390661 Ru
atom 0.0000349223223183 6.2569164637185475 27.2016823499369877 Ru
atom 3.6496603556219331 1.5641722675501188 19.0230546075696694 O
atom 0.8792884654688345 1.5641587930273571 21.7935145373442154 O
atom 3.1437345274203903 6.2569038997926532 21.2875460848600326 O
atom 1.3852933623053232 6.2569042807857915 19.5291197499863713 O
atom 2.2644945317552194 4.6926105302890182 20.4083144074400167 Ru
atom 0.0000356461364130 3.1284758137185431 27.2016808699362826 Ru
atom 3.6497001618355167 4.6927562675505188 19.0230896075352298 O
atom 0.8792484316228661 4.6927698530269550 21.7934791673770292 O
atom 3.1438146713078061 3.1284889697935525 21.2876315547920854 O
atom 1.3852197160598760 3.1284882207850080 19.5290479000483188 O
atom 6.7933664856217213 1.5643121802891369 20.4083738124888256 Ru
atom 4.5289603699759189 0.0000022758124349 18.1438455149384197 Ru
atom 8.1786374156552792 1.5641957975505636 19.0230923025305678 O
atom 5.4082047754862099 1.5641177830274109 21.7935329823568367 O
atom 7.6725875350779900 0.0000754197925011 21.2875763099253277 O
atom 5.9141553799763456 0.0000747807857816 19.5291658650440603 O
atom 6.7933659918071365 4.6926157102891368 20.4083739924902190 Ru
atom 4.5289710061437845 3.1284624137186063 27.2016876149326379 Ru
atom 8.1786004318381540 4.6927319575503912 19.0230906925612864 O
atom 5.4082418516717041 4.6928107530275902 21.7935352923240089 O
atom 7.6726559713562965 3.1283887697935087 21.2876865298684308 O
atom 5.9140472761044647 3.1283894007848727 19.5290982651362626 O
atom 2.2645731705009164 1.5643119892419672 24.9371636273742183 Ru
atom 0.0000394149677614 0.0000023547655543 22.6727687099316029 Ru
atom 3.6497280906480456 1.5641136465037391 23.5520161575144584 O
atom 0.8793073604575985 1.5641920619804821 26.3224323473296664 O
atom 3.1437762923361534 6.2568408687453223 25.8163769548267794 O
atom 1.3853579272247725 6.2568402497385893 24.0579549799338679 O
atom 2.2645724566855816 4.6926166992419605 24.9371629273757804 Ru
atom 0.0000421911533120 3.1284623947655752 22.6727698699292262 Ru
atom 3.6497462468493289 4.6928149265039538 23.5520372074975484 O
atom 0.8792894866241627 4.6927363419802699 26.3224114673441960 O
atom 3.1438829362054448 3.1285519287462060 25.8164416247356456 O
atom 1.3852898209477709 3.1285525597375954 24.0578464399903140 O
atom 6.7934435305517846 1.5643198292420728 24.9372219824253278 Ru
atom 4.5289819973470449 6.2569166747656704 22.6727787749217526 Ru
atom 8.1786905706907085 1.5641616265041902 23.5520650124875104 O
atom 5.4082345704629065 1.5641755519804927 26.3224366323329235 O
atom 7.6726400800025667 0.0000600887452866 25.8164178698826561 O
atom 5.9142099148869862 0.0000606097384704 24.0579909249997002 O
atom 6.7934444267379321 4.6926083592420840 24.9372229524256355 Ru
atom 4.5289779311619176 3.1284762047656494 22.6727782149250885 Ru
atom 8.1786469568476683 4.6927668765037946 23.5520330825233941 O
atom 5.4082776166737512 4.6927529119808860 26.3224683522957861 O
atom 7.6727174862476835 3.1284043587460841 25.8164889498179946 O
atom 5.9141255209988559 3.1284038297375445 24.0579042350717032 O
atom 2.2645097255567754 1.5643180481952357 29.4661607374293766 Ru
atom 3.6496756556088936 1.5641723454563374 28.0809010475599763 O
atom 3.1437498274073503 6.2569039776988724 30.3453925248503396 O
atom 1.3853086622922832 6.2569043586920099 28.5869661899766783 O
atom 2.2645098317421790 4.6926106081952366 29.4661608474303307 Ru
atom 3.6497154618224763 4.6927563454567371 28.0809360475255403 O
atom 3.1438299712947662 3.1284890476997709 30.3454779947823994 O
atom 1.3852350160468354 3.1284882986912264 28.5868943400386257 O
atom 6.7933817856086813 1.5643122581953555 29.4662202524791397 Ru
atom 4.5289756699628789 0.0000023537186534 27.2016919549287195 Ru
atom 8.1786527156422402 1.5641958754567824 28.0809387425208712 O
atom 7.6726028350649500 0.0000754976987197 30.3454227499156417 O
atom 5.9141706799633056 0.0000748586920001 28.5870123050343636 O
atom 6.7933812917940948 4.6926157881953543 29.4662204324805330 Ru
atom 8.1786157318251149 4.6927320354566096 28.0809371325515968 O
atom 7.6726712713432565 3.1283888476997275 30.3455329698587448 O
atom 5.9140625760914247 3.1283894786910911 28.5869447051265695 O
