#===============================================================================
# Created using the Atomic Simulation Environment (ASE)

# Mon Mar 23 14:01:26 2026

#=======================================================
lattice_vector 9.0578618800032320 0.0000000000000000 0.0000000000000000 
lattice_vector -0.0000001276308936 6.2569280899999997 0.0000000000000000 
lattice_vector 0.0000000000000000 0.0000000000000000 36.2876865298684308 
atom 0.0000349223223183 6.2569164637185475 18.1438359099466737 Ru
atom 0.0000356461364130 3.1284758137185431 18.1438344299459686 Ru
atom 4.5289710061437845 3.1284624137186063 18.1438411749423238 Ru
atom 2.2645731705009164 1.5643119892419672 15.8793171873839043 Ru
atom 0.8793073604575985 1.5641920619804821 17.2645859073393524 O
atom 3.1437762923361534 6.2568408687453223 16.7585305148364654 O
atom 1.3853579272247725 6.2568402497385893 15.0001085399435539 O
atom 2.2645724566855816 4.6926166992419605 15.8793164873854664 Ru
atom 0.8792894866241627 4.6927363419802699 17.2645650273538820 O
atom 3.1438829362054448 3.1285519287462060 16.7585951847453316 O
atom 1.3852898209477709 3.1285525597375954 15.0000000000000000 O
atom 6.7934435305517846 1.5643198292420728 15.8793755424350138 Ru
atom 5.4082345704629065 1.5641755519804927 17.2645901923426095 O
atom 7.6726400800025667 0.0000600887452866 16.7585714298923421 O
atom 5.9142099148869862 0.0000606097384704 15.0001444850093861 O
atom 6.7934444267379321 4.6926083592420840 15.8793765124353214 Ru
atom 5.4082776166737512 4.6927529119808860 17.2646219123054721 O
atom 7.6727174862476835 3.1284043587460841 16.7586425098276806 O
atom 5.9141255209988559 3.1284038297375445 15.0000577950813891 O
atom 2.2645097255567754 1.5643180481952357 20.4083142974390626 Ru
atom 3.6496756556088936 1.5641723454563374 19.0230546075696623 O
atom 3.1437498274073503 6.2569039776988724 21.2875460848600255 O
atom 1.3853086622922832 6.2569043586920099 19.5291197499863642 O
atom 2.2645098317421790 4.6926106081952366 20.4083144074400167 Ru
atom 3.6497154618224763 4.6927563454567371 19.0230896075352263 O
atom 3.1438299712947662 3.1284890476997709 21.2876315547920854 O
atom 1.3852350160468354 3.1284882986912264 19.5290479000483117 O
atom 6.7933817856086813 1.5643122581953555 20.4083738124888256 Ru
atom 4.5289756699628789 0.0000023537186534 18.1438455149384055 Ru
atom 8.1786527156422402 1.5641958754567824 19.0230923025305572 O
atom 7.6726028350649500 0.0000754976987197 21.2875763099253277 O
atom 5.9141706799633056 0.0000748586920001 19.5291658650440496 O
atom 6.7933812917940948 4.6926157881953543 20.4083739924902190 Ru
atom 8.1786157318251149 4.6927320354566096 19.0230906925612828 O
atom 7.6726712713432565 3.1283888476997275 21.2876865298684308 O
atom 5.9140625760914247 3.1283894786910911 19.5290982651362555 O
