#===============================================================================
# Created using the Atomic Simulation Environment (ASE)

# Mon Mar 23 14:01:25 2026

#=======================================================
lattice_vector 9.0578464400032317 0.0000000000000000 0.0000000000000000 
lattice_vector 0.0000153000130401 9.0578618799903108 0.0000000000000000 
lattice_vector 0.0000000000000000 0.0000000000000000 37.8213542272348420 
atom 9.0578527614532902 9.0578506471051270 18.1285276430589661 Ru
atom 3.1437065065260037 3.1436983620231302 18.1285151300003520 O
atom 1.3852772013983905 1.3852601671419793 18.1285155261176527 O
atom 2.2644733304917875 2.2644598515062055 16.5642217680589638 Ru
atom 9.0578512545461987 9.0578513709217674 15.0000869930589786 Ru
atom 0.8792508703989481 3.6496678214256266 16.5643675172347287 O
atom 3.6496357505511217 0.8792114116361449 16.5643810788831445 O
atom 3.1437919496860443 3.1437785057662198 15.0001002000005172 O
atom 1.3852053244285418 1.3851865210179424 15.0000994661174900 O
atom 2.2645405654480841 6.7933313114510137 16.5642269480585682 Ru
atom 9.0578503495433793 4.5289248509209754 15.0000735930589855 Ru
atom 0.8792596053795113 8.1785680914199723 16.5643432072345931 O
atom 3.6496995256105000 5.4082048315837188 16.5644219788832885 O
atom 3.1438545746166353 7.6726198057153869 15.0000000000000000 O
atom 1.3852633393475315 5.9140140809709969 15.0000006461169200 O
atom 7.6725373765562930 3.1437324771014050 18.1284520600007042 O
atom 5.9141124314479354 1.3853170822165763 18.1284514561180998 O
atom 6.7933218505527693 2.2645301265692677 16.5642278980594355 Ru
atom 4.5289249545435029 0.0000036859211956 15.0000736130590155 Ru
atom 5.4081984704331543 3.6497062564047780 16.5644261372348467 O
atom 8.1785680505808767 0.8792448166286245 16.5643475288832676 O
atom 7.6726020197389939 3.1438391208615046 15.0001631200010372 O
atom 5.9140038644830479 1.3852489761229594 15.0001637661180425 O
atom 4.5289415364652443 4.5289434920933802 18.1285278930590295 Ru
atom 6.7933895255094674 6.7934020965137645 16.5642195580590439 Ru
atom 4.5289409495541060 4.5289394259092433 15.0000874230590142 Ru
atom 5.4082019954140383 8.1786069664036258 16.5643780872347222 O
atom 8.1786325856357340 5.4082329465756631 16.5643640988833951 O
atom 7.6726569946637788 7.6726736708173435 15.0000155500005050 O
atom 5.9140693094088022 5.9140846760699590 15.0000150361174924 O
atom 2.2644732473997249 2.2644596176900489 19.6928572980589536 Ru
atom 0.8792158972727117 3.6496278876402251 19.6927116072346280 O
atom 3.6496711474922554 0.8792513177914294 19.6926981088832349 O
atom 2.2644733843071903 2.2644597238752211 22.8211498580589591 Ru
atom 9.0578513083616023 9.0578512432907843 21.2570150830589739 Ru
atom 0.8792509242143509 3.6496676937946422 22.8212956072347311 O
atom 3.6496358043665245 0.8792112840051605 22.8213091688831398 O
atom 3.1437920035014466 3.1437783781352353 21.2570282900005125 O
atom 1.3852053782439444 1.3851863933869577 21.2570275561174924 O
atom 2.2645404123565034 6.7933316776349653 19.6928515080585669 Ru
atom 0.0000082764517449 4.5289293871018002 18.1285416230589931 Ru
atom 0.8792612423182351 8.1786049476034393 19.6927351372347559 O
atom 3.6496972424863294 5.4081676277711868 19.6926570988831315 O
atom 3.1437443814668167 7.6725512419923190 18.1286147399999393 O
atom 1.3853309663468105 5.9141220570977513 18.1286141161172480 O
atom 2.2645406192634878 6.7933311838200279 22.8211550380585635 Ru
atom 9.0578504033587830 4.5289247232899905 21.2570016830589807 Ru
atom 0.8792596591949141 8.1785679637889874 22.8212712972345884 O
atom 3.6496995794259033 5.4082047039527330 22.8213500688832980 O
atom 3.1438546284320381 7.6726196780844012 21.2569280899999953 O
atom 1.3852633931629341 5.9140139533400120 21.2569287361169188 O
atom 6.7933225774613728 2.2645307127524803 19.6928512780594360 Ru
atom 4.5289238214488137 0.0000007821066654 18.1285416630590035 Ru
atom 5.4081774473249435 3.6496879726081111 19.6926529472348122 O
atom 8.1785889575034432 0.8792625627958518 19.6927313388833056 O
atom 6.7933219043681721 2.2645299989382828 22.8211559880594308 Ru
atom 4.5289250083589065 0.0000035582902112 21.2570017030590108 Ru
atom 5.4081985242485571 3.6497061287737935 22.8213542272348420 O
atom 8.1785681043962786 0.8792446889976401 22.8212756188832699 O
atom 7.6726020735543958 3.1438389932305206 21.2570912100010290 O
atom 5.9140039182984498 1.3852488484919749 21.2570918561180378 O
atom 6.7933885824167453 6.7934010726983152 19.6928591180590402 Ru
atom 5.4082339523582093 8.1786504525617918 19.6927009272348457 O
atom 8.1786008925067737 5.4081897727874608 19.6927148288832754 O
atom 7.6725859415063153 7.6725961370613529 18.1285993700003232 O
atom 5.9141560263879924 5.9141689421807184 18.1285999061176710 O
atom 6.7933895793248702 6.7934019688827796 22.8211476480590392 Ru
atom 4.5289410033695097 4.5289392982782584 21.2570155130590095 Ru
atom 5.4082020492294411 8.1786068387726427 22.8213061772347174 O
atom 8.1786326394511359 5.4082328189446782 22.8212921888833904 O
atom 7.6726570484791825 7.6726735431863586 21.2569436400005074 O
atom 5.9140693632242050 5.9140845484389750 21.2569431261174842 O
