#===============================================================================
# Created using the Atomic Simulation Environment (ASE)

# Mon Mar 23 14:01:26 2026

#=======================================================
lattice_vector 11.0088023998619828 0.0000000000000000 0.0000000000000000 
lattice_vector 0.0000126935906902 9.0578618799943378 0.0000000000000000 
lattice_vector 0.0000000000000000 0.0000000000000000 34.1488257375200419 
atom 0.3402982135170707 0.0000037178272301 15.7874099783774895 Ru
atom 3.0925578561911964 2.2644747702621095 15.7873588119801589 Ru
atom 1.9527386856979680 3.6496819976741524 15.0001767486566102 O
atom 4.7050247367836802 3.1437926501217319 15.0001933690086737 O
atom 3.0926102843322689 6.7933462302450014 15.7873969395620790 Ru
atom 1.9527597419449947 8.1785822676517306 15.0001573635036785 O
atom 4.7051332653207654 7.6726339500225773 15.0001421716941898 O
atom 7.4572441425636056 3.6497022125316505 15.0000316800367699 O
atom 10.2093433906670086 3.1437466850877245 15.0000000000000000 O
atom 5.8447025580454088 0.0000185728318511 15.7874243226863022 Ru
atom 7.4572634166435341 8.1786646925517505 15.0000989241836642 O
atom 10.2092996769026350 7.6726103451889527 15.0001444583943133 O
atom 1.3143763998767801 2.2644770283702735 18.3615443118990846 Ru
atom 0.1746941644009474 3.6496445555622379 17.5741026269870062 O
atom 2.4541830015553781 0.8792694709551599 19.1487013581865071 O
atom 2.9268984272438341 3.1437149980814953 17.5741488482782344 O
atom 1.4800938929081748 1.3852758605010898 16.5747355477864531 O
atom 9.5710021978170747 0.0000068058185185 18.3614728538346377 Ru
atom 4.2321542438785107 0.8792270731102162 16.5747577491094908 O
atom 10.7107260020795323 1.3852045785335620 19.1487786602223977 O
atom 1.3144350052979870 6.7933490883444962 18.3615733737752613 Ru
atom 0.3403045175135138 4.5289443378325087 15.7874269399350915 Ru
atom 0.1747181525666197 8.1786216155664153 17.5741434112404740 O
atom 2.4542278328714136 5.4081857809141560 19.1486780992382108 O
atom 2.9268730285513467 7.6725678781482394 17.5742479842333097 O
atom 1.4800821479547928 5.9141377505621229 16.5748428756895017 O
atom 9.5710217102628743 4.5289421658029934 18.3614656621182029 Ru
atom 4.2321835235730285 5.4082204931224682 16.5748232998980178 O
atom 10.7108299532486821 5.9140321384369212 19.1487259782288639 O
atom 8.5968041271276476 2.2645456954159964 15.7874528951935567 Ru
atom 4.0666154262102667 0.0000181608076822 18.3614714262728960 Ru
atom 9.7366447648818397 0.8792782880108484 16.5746811567858572 O
atom 5.2063752097611182 1.3853352034497850 19.1486772900240858 O
atom 6.8188102091789826 2.2645474732623083 18.3613658669825277 Ru
atom 5.6790427268712147 3.6497228606853653 17.5742833043056450 O
atom 7.9584980819302373 0.8792629060531423 19.1487797730681564 O
atom 8.4312131768054090 3.1438556931787738 17.5742252964952144 O
atom 6.9842695735030542 1.3852646056506512 16.5747162347200678 O
atom 8.5968540314166795 6.7934160554013738 15.7874925122976784 Ru
atom 4.0666378805900987 4.5289608707908391 18.3614658170682468 Ru
atom 9.7366640208675115 5.4082054979936185 16.5746700080629346 O
atom 5.2063267588342370 5.9141870635534470 19.1488198616622363 O
atom 6.8188706835289512 6.7934194432343551 18.3613931206261896 Ru
atom 5.8447079219535318 4.5289543128373833 15.7874404282436451 Ru
atom 5.6790729892146352 8.1786235706457457 17.5742414251645194 O
atom 7.9585418150572362 5.4082510360458862 19.1488257375200419 O
atom 8.4313423341172840 7.6726902430444568 17.5741307760624679 O
atom 6.9844080046390600 5.9141003055121857 16.5746267105554956 O
