#===============================================================================
# Created using the Atomic Simulation Environment (ASE)

# Mon Mar 23 14:01:25 2026

#=======================================================
lattice_vector 11.0088023998619828 0.0000000000000000 0.0000000000000000 
lattice_vector 3.5561804958640981 10.4186176412040616 0.0000000000000000 
lattice_vector 0.0000000000000000 0.0000000000000000 43.4273163728257359 
atom 0.9740774068350293 0.6967701429105707 15.0001505551434882 Ru
atom 11.0088143139279833 7.8748255651047483 16.1189964687861789 Ru
atom 10.8431975712211717 2.2901167664854389 15.0000000000000000 O
atom 5.6700645043777156 9.5221470053796704 15.0000338680087282 O
atom 13.9266075049018685 9.9619644617775798 15.2500957485576176 O
atom 12.1485855547750106 4.7526059896138895 15.2501925393375544 O
atom 2.7523112912905097 5.9060782474569322 15.0000317841093480 Ru
atom 9.2307227172211235 2.6655156188705611 16.1190087301241469 Ru
atom 12.6212631487652214 7.4993845663927585 15.0000907932145697 O
atom 3.8918845305312666 4.3127755280515592 15.0001896656733855 O
atom 8.4222567125834580 9.9621281154089871 15.2500721630796399 O
atom 6.4785112161372256 0.6969195610113447 15.0000302251712387 Ru
atom 5.3387437338294541 2.2900955672915537 15.0001957717547469 O
atom 11.1743795847525771 9.5221025512357169 15.0000987973602413 O
atom 8.2565550383749216 5.9060917280687812 15.0001493765128355 Ru
atom 7.1169644236017753 7.4994851021655853 15.0000807146904211 O
atom 9.3963650278257500 4.3128382365882763 15.0000489856107748 O
atom 6.6441090115973056 4.7526802475867438 15.2499861047222609 O
atom 11.9828925002877043 8.5715977522955367 19.4758574221671523 Ru
atom 7.4526465116545753 5.3310355332856538 20.5947033358098466 Ru
atom 10.8432102648118658 10.1649443758704052 19.4757068670236642 O
atom 13.1226991019662886 6.9783569735605759 19.4757407350323923 O
atom 13.5954145276547500 9.7250707088404642 19.2257551190347762 O
atom 12.1486099933190879 8.6901328590218387 17.4879867821189521 O
atom 13.7610739566021198 9.8435626033178210 17.2378814603297918 Ru
atom 9.2307158983660109 6.6029220272642721 18.3568662320309315 Ru
atom 9.0650742902447767 1.0181978154646212 17.2379762348049823 O
atom 3.8918679444274469 8.2501674033708525 17.2379552370161555 O
atom 0.8085579414685062 0.5783737331364976 16.9880186207031656 O
atom 10.3704397026284649 7.4181744299584862 19.7258026155812800 O
atom 11.9829384121182141 4.6341183976446887 17.2380001607698219 Ru
atom 7.4526401220603242 1.3936217631968442 18.3568694316552907 Ru
atom 10.8432215593868442 6.2275505150392441 17.2379116799947596 O
atom 2.1139288398296445 3.0409419424424677 17.2378598513370811 O
atom 2.5865740355095888 5.7875400540586064 16.9879493021895769 O
atom 8.5924177525016017 2.2088159577947946 19.7258994063612150 O
atom 10.2049458888790880 3.3622882156378369 19.4757386511330104 Ru
atom 5.6745549149477137 0.1217255870514656 20.5947155971478111 Ru
atom 9.0650953464918178 4.9555945345736641 19.4757976602382357 O
atom 11.3445191281198383 1.7689854962324636 19.4758965326970497 O
atom 11.8174688698675858 4.5157349033176848 19.2257832503856854 O
atom 10.3705309602069278 3.4806967789340044 17.4878522982104769 O
atom 8.2565178276765749 9.8435777762667538 17.2379983012905775 Ru
atom 3.7263291267591989 6.6029326045871928 18.3568706016935366 Ru
atom 3.5607773472484432 1.0182870719742338 17.2378601020343325 O
atom 9.3963584654307759 8.2502497752718877 17.2379139548165199 O
atom 6.3128765953518391 0.5784293197956683 16.9878277949156242 O
atom 4.8660889103100500 7.4183380835898927 19.7257790301033040 O
atom 6.4785239097279153 8.5717471703963124 19.4757370921949011 Ru
atom 5.5044162585943424 7.8748313920515249 16.1190162798196894 Ru
atom 5.3387564274201447 10.1649231766765205 19.4759026387784111 O
atom 7.6182117824791682 6.9783125194166225 19.4758056643839019 O
atom 8.0909268773543381 9.7251552530559735 19.2258911032835016 O
atom 6.6439832740519904 8.6901326172006286 17.4879644302126778 O
atom 4.7003872361015162 3.3623016962496850 19.4758562435364979 Ru
atom 3.7263388875483376 2.6655318042624012 16.1190181074196417 Ru
atom 3.5607966213283677 4.9556950703464917 19.4757875817140871 O
atom 5.8401972255523420 1.7690482047691813 19.4757558526344390 O
atom 6.3128328815874744 4.5157132515639287 19.2257735747085974 O
atom 4.8660277657924711 3.4807850794477622 17.4880104718810543 O
atom 6.4785716904871986 4.6342686309894114 17.2378782142634570 Ru
atom 1.9482411266383670 1.3936237704838617 18.3568860871645541 Ru
atom 5.3387739961728720 6.2275037837371086 17.2379978585132108 O
atom 7.6182428220154739 3.0409257230784794 17.2380204509221038 O
atom 8.0910433410755260 5.7877043524215086 16.9879078658397482 O
atom 3.0879412093238954 2.2088902157676484 19.7256929717459251 O
atom 8.4267246980142936 6.0278077204764431 23.9515642891908129 Ru
atom 3.8964787093811699 2.7872455014665567 25.0704102028335072 Ru
atom 7.2870424625384587 7.6211543440513108 23.9514137340473283 O
atom 9.5665312996928868 4.4345669417414815 23.9514476020560565 O
atom 10.0392467253813429 7.1812806770213689 23.7014619860584403 O
atom 8.5924421910456736 6.1463428272027443 21.9636936491426127 O
atom 10.2049061543287127 7.2997725714987238 21.7135883273534560 Ru
atom 5.6745480960925976 4.0591319954451768 22.8325730990545921 Ru
atom 9.0650869838354797 8.8930254248495864 21.7136831018286465 O
atom 11.3445025420160164 5.7063773715517572 21.7136621040398161 O
atom 11.8173730349211876 8.4532013425214636 21.4637254877268262 O
atom 6.8142719003550543 4.8743843981393891 24.2015094826049477 O
atom 8.4267706098448034 2.0903283658255938 21.7137070277934825 Ru
atom 7.4526528156510086 9.2684493725818129 22.8325762986789513 Ru
atom 7.2870537571134415 3.6837604832201474 21.7136185470184273 O
atom 9.5665634374182176 0.4971519106233730 21.7135667183607453 O
atom 10.0392086330981662 3.2437500222395124 21.4636561692132375 O
atom 8.5924304460922958 10.0836435671797595 24.2016062733848827 O
atom 6.6487780866056827 0.8184981838187416 23.9514455181566781 Ru
atom 5.6745676085384069 7.9965531964364320 25.0704224641714717 Ru
atom 5.5089275442184107 2.4118045027545683 23.9515045272618927 O
atom 11.3445318217105324 9.6438131056174310 23.9516033997207103 O
atom 8.2613010675941769 1.9719448714985899 23.7014901174093495 O
atom 6.8143631579335198 0.9369067471149100 21.9635591652341375 O
atom 4.7003500254031669 7.2997877444476567 21.7137051683142417 Ru
atom 11.1789637243477724 4.0591425727680948 22.8325774687172007 Ru
atom 3.5607900408391360 8.8931146813591990 21.7135669690580002 O
atom 5.8401906631573670 5.7064597434527924 21.7136208218401840 O
atom 6.3128892889425350 8.4532569291806343 21.4635346619392919 O
atom 12.3187235078986212 4.8745480517707982 24.2014858971269646 O
atom 2.9223561074545148 6.0279571385772153 23.9514439592185653 Ru
atom 1.9482484563209348 5.3310413602324278 20.5947231468433536 Ru
atom 12.7913910250087213 7.6211331448574251 23.9516095058020717 O
atom 4.0620439802057584 4.4345224875975262 23.9515125314075661 O
atom 4.5347590750809328 7.1813652212368773 23.7015979703071658 O
atom 3.0878154717785780 6.1463425853815323 21.9636712972363419 O
atom 1.1442194338281140 0.8185116644305898 23.9515631105601621 Ru
atom 0.1701710852749351 0.1217417724433057 20.5947249744433023 Ru
atom 11.0134312189169439 2.4119050385273968 23.9514944487377477 O
atom 5.8402099191430352 9.6438758141541463 23.9514627196581031 O
atom 2.7566650793140615 1.9719232197448335 23.7014804417322580 O
atom 1.3098599635190693 0.9369950476286676 21.9637173389047184 O
atom 2.9224038882137919 2.0904785991703161 21.7135850812871212 Ru
atom 12.9570562200910420 9.2684513798688286 22.8325929541882147 Ru
atom 1.7826061938994666 3.6837137519180123 21.7137047255368714 O
atom 4.0620750197420712 0.4971356912593841 21.7137273179457679 O
atom 4.5348755388021198 3.2439143206024146 21.4636147328634124 O
atom 14.0967563027765692 10.0837178251526147 24.2013998387695821 O
atom 4.8705568957408909 3.4840176886573468 28.4272711562144771 Ru
atom 3.7308746602650507 5.0773643122322154 28.4271206010709925 O
atom 6.0103634974194886 1.8907769099223835 28.4271544690797136 O
atom 6.4830789231079304 4.6374906452022753 28.1771688530821010 O
atom 5.0362743887722754 3.6025527953836480 26.4394005161662804 O
atom 6.6487383520553065 4.7559825396796294 26.1892951943771202 Ru
atom 2.1183802938191993 1.5153419636260796 27.3082799660782598 Ru
atom 5.5089191815620628 6.3492353930304919 26.1893899688523071 O
atom 7.7883347397426128 3.1625873397326618 26.1893689710634803 O
atom 8.2612052326477787 5.9094113107023665 25.9394323547504904 O
atom 8.4267833034354993 9.9651559752105587 26.1894138948171467 Ru
atom 3.8964850133776059 6.7246593407627175 27.3082831657026119 Ru
atom 3.7308859548400339 1.1399704514010520 26.1893254140420879 O
atom 9.5665761310089135 8.3719795200083382 26.1892735853844059 O
atom 6.4830408308247547 0.6999599904204162 25.9393630362369016 O
atom 6.6487907801963733 8.6933257932037069 28.4271523851803316 Ru
atom 5.5089402378090968 10.2866321121395341 28.4272113942855569 O
atom 7.7883640194371244 7.1000230737983339 28.4273102667443744 O
atom 8.2613137611848710 9.8467724808835531 28.1771969844330172 O
atom 6.8143758515242103 8.8117343564998762 26.4392660322578053 O
atom 12.1529846229917524 4.7559977126285613 26.1894120353379094 Ru
atom 7.6227959220743617 1.5153525409490016 27.3082843357408649 Ru
atom 11.0134246384277077 6.3493246495401046 26.1892738360816644 O
atom 2.2840228608839603 3.1626697116336979 26.1893276888638482 O
atom 2.7567214866691314 5.9094668973615381 25.9392415289629525 O
atom 10.3749907050430856 3.4841671067581208 28.4271508262422294 Ru
atom 9.4008830539095172 2.7872513284133351 25.0704300138670177 Ru
atom 9.2352232227353213 5.0773431130383280 28.4273163728257359 O
atom 11.5146785777943332 1.8907324557784304 28.4272193984312267 O
atom 11.9873936726695067 4.6375751894177810 28.1773048373308299 O
atom 10.5404500693671537 3.6025525535624379 26.4393781642599990 O
atom 12.1530345272807825 8.6933392738155568 28.4272699775838262 Ru
atom 11.1789861787276035 7.9965693818282721 25.0704318414669665 Ru
atom 11.0134439125076380 10.2867326479123609 28.4272013157614118 O
atom 13.2928445167316109 7.1000857823350527 28.4271695866817673 O
atom 13.7654801727667433 9.8467508291297996 28.1771873087559221 O
atom 12.3186750569717436 8.8118226570136340 26.4394242059283791 O
atom 13.9312189816664702 9.9653062085552815 26.1892919483107889 Ru
atom 9.4008884178176384 6.7246613480497306 27.3082998212118824 Ru
atom 9.2352407914880423 1.1399237200989174 26.1894115925605391 O
atom 4.0620877133327662 8.3719633006443495 26.1894341849694321 O
atom 0.9787077365287160 0.7001242887833167 25.9393215998870730 O
