#===============================================================================
# Created using the Atomic Simulation Environment (ASE)

# Mon Mar 23 14:01:25 2026

#=======================================================
lattice_vector 11.0088023998619828 0.0000000000000000 0.0000000000000000 
lattice_vector 3.5561804958640981 10.4186176412040616 0.0000000000000000 
lattice_vector 0.0000000000000000 0.0000000000000000 41.1894565214886512 
atom 11.9828925002877043 8.5715977522955367 17.2379975708300712 Ru
atom 7.4526465116545753 5.3310355332856538 18.3568434844727655 Ru
atom 10.8432102648118658 10.1649443758704052 17.2378470156865831 O
atom 13.1226991019662886 6.9783569735605759 17.2378808836953112 O
atom 13.5954145276547500 9.7250707088404642 16.9878952676976951 O
atom 12.1486099933190879 8.6901328590218387 15.2501269307818710 O
atom 13.7610739566021198 9.8435626033178210 15.0000216089927108 Ru
atom 9.2307158983660109 6.6029220272642721 16.1190063806938504 Ru
atom 9.0650742902447767 1.0181978154646212 15.0001163834679012 O
atom 3.8918679444274469 8.2501674033708525 15.0000953856790744 O
atom 10.3704397026284649 7.4181744299584862 17.4879427642441989 O
atom 11.9829384121182141 4.6341183976446887 15.0001403094327408 Ru
atom 7.4526401220603242 1.3936217631968442 16.1190095803182096 Ru
atom 10.8432215593868442 6.2275505150392441 15.0000518286576785 O
atom 2.1139288398296445 3.0409419424424677 15.0000000000000000 O
atom 8.5924177525016017 2.2088159577947946 17.4880395550241339 O
atom 10.2049458888790880 3.3622882156378369 17.2378787997959293 Ru
atom 5.6745549149477137 0.1217255870514656 18.3568557458107300 Ru
atom 9.0650953464918178 4.9555945345736641 17.2379378089011546 O
atom 11.3445191281198383 1.7689854962324636 17.2380366813599686 O
atom 11.8174688698675858 4.5157349033176848 16.9879233990486043 O
atom 10.3705309602069278 3.4806967789340044 15.2499924468733958 O
atom 8.2565178276765749 9.8435777762667538 15.0001384499534964 Ru
atom 3.7263291267591989 6.6029326045871928 16.1190107503564555 Ru
atom 3.5607773472484432 1.0182870719742338 15.0000002506972514 O
atom 9.3963584654307759 8.2502497752718877 15.0000541034794388 O
atom 4.8660889103100500 7.4183380835898927 17.4879191787662229 O
atom 6.4785239097279153 8.5717471703963124 17.2378772408578200 Ru
atom 5.3387564274201447 10.1649231766765205 17.2380427874413300 O
atom 7.6182117824791682 6.9783125194166225 17.2379458130468208 O
atom 8.0909268773543381 9.7251552530559735 16.9880312519464205 O
atom 6.6439832740519904 8.6901326172006286 15.2501045788755967 O
atom 4.7003872361015162 3.3623016962496850 17.2379963921994168 Ru
atom 3.5607966213283677 4.9556950703464917 17.2379277303770060 O
atom 5.8401972255523420 1.7690482047691813 17.2378960012973579 O
atom 6.3128328815874744 4.5157132515639287 16.9879137233715163 O
atom 4.8660277657924711 3.4807850794477622 15.2501506205439732 O
atom 6.4785716904871986 4.6342686309894114 15.0000183629263759 Ru
atom 1.9482411266383670 1.3936237704838617 16.1190262358274730 Ru
atom 5.3387739961728720 6.2275037837371086 15.0001380071761297 O
atom 7.6182428220154739 3.0409257230784794 15.0001605995850227 O
atom 3.0879412093238954 2.2088902157676484 17.4878331204088440 O
atom 8.4267246980142936 6.0278077204764431 21.7137044378537318 Ru
atom 3.8964787093811699 2.7872455014665567 22.8325503514964261 Ru
atom 7.2870424625384587 7.6211543440513108 21.7135538827102472 O
atom 9.5665312996928868 4.4345669417414815 21.7135877507189754 O
atom 10.0392467253813429 7.1812806770213689 21.4636021347213592 O
atom 8.5924421910456736 6.1463428272027443 19.7258337978055316 O
atom 10.2049061543287127 7.2997725714987238 19.4757284760163749 Ru
atom 5.6745480960925976 4.0591319954451768 20.5947132477175110 Ru
atom 9.0650869838354797 8.8930254248495864 19.4758232504915654 O
atom 11.3445025420160164 5.7063773715517572 19.4758022527027350 O
atom 11.8173730349211876 8.4532013425214636 19.2258656363897451 O
atom 6.8142719003550543 4.8743843981393891 21.9636496312678666 O
atom 8.4267706098448034 2.0903283658255938 19.4758471764564014 Ru
atom 7.4526528156510086 9.2684493725818129 20.5947164473418702 Ru
atom 7.2870537571134415 3.6837604832201474 19.4757586956813462 O
atom 9.5665634374182176 0.4971519106233730 19.4757068670236642 O
atom 10.0392086330981662 3.2437500222395124 19.2257963178761564 O
atom 8.5924304460922958 10.0836435671797595 21.9637464220478016 O
atom 6.6487780866056827 0.8184981838187416 21.7135856668195970 Ru
atom 5.6745676085384069 7.9965531964364320 22.8325626128343906 Ru
atom 5.5089275442184107 2.4118045027545683 21.7136446759248116 O
atom 11.3445318217105324 9.6438131056174310 21.7137435483836292 O
atom 8.2613010675941769 1.9719448714985899 21.4636302660722684 O
atom 6.8143631579335198 0.9369067471149100 19.7256993138970564 O
atom 4.7003500254031669 7.2997877444476567 19.4758453169771606 Ru
atom 11.1789637243477724 4.0591425727680948 20.5947176173801196 Ru
atom 3.5607900408391360 8.8931146813591990 19.4757071177209191 O
atom 5.8401906631573670 5.7064597434527924 19.4757609705031030 O
atom 6.3128892889425350 8.4532569291806343 19.2256748106022108 O
atom 12.3187235078986212 4.8745480517707982 21.9636260457898835 O
atom 2.9223561074545148 6.0279571385772153 21.7135841078814842 Ru
atom 1.9482484563209348 5.3310413602324278 18.3568632955062725 Ru
atom 12.7913910250087213 7.6211331448574251 21.7137496544649906 O
atom 4.0620439802057584 4.4345224875975262 21.7136526800704850 O
atom 4.5347590750809328 7.1813652212368773 21.4637381189700847 O
atom 3.0878154717785780 6.1463425853815323 19.7258114458992608 O
atom 1.1442194338281140 0.8185116644305898 21.7137032592230810 Ru
atom 0.1701710852749351 0.1217417724433057 18.3568651231062212 Ru
atom 11.0134312189169439 2.4119050385273968 21.7136345974006666 O
atom 5.8402099191430352 9.6438758141541463 21.7136028683210220 O
atom 2.7566650793140615 1.9719232197448335 21.4636205903951769 O
atom 1.3098599635190693 0.9369950476286676 19.7258574875676373 O
atom 2.9224038882137919 2.0904785991703161 19.4757252299500401 Ru
atom 12.9570562200910420 9.2684513798688286 20.5947331028511336 Ru
atom 1.7826061938994666 3.6837137519180123 19.4758448741997903 O
atom 4.0620750197420712 0.4971356912593841 19.4758674666086868 O
atom 4.5348755388021198 3.2439143206024146 19.2257548815263313 O
atom 14.0967563027765692 10.0837178251526147 21.9635399874325010 O
atom 4.8705568957408909 3.4840176886573468 26.1894113048773960 Ru
atom 3.7308746602650507 5.0773643122322154 26.1892607497339114 O
atom 6.0103634974194886 1.8907769099223835 26.1892946177426325 O
atom 6.4830789231079304 4.6374906452022753 25.9393090017450199 O
atom 5.0362743887722754 3.6025527953836480 24.2015406648291993 O
atom 6.6487383520553065 4.7559825396796294 23.9514353430400391 Ru
atom 2.1183802938191993 1.5153419636260796 25.0704201147411787 Ru
atom 5.5089191815620628 6.3492353930304919 23.9515301175152260 O
atom 7.7883347397426128 3.1625873397326618 23.9515091197263992 O
atom 8.2612052326477787 5.9094113107023665 23.7015725034134093 O
atom 8.4267833034354993 9.9651559752105587 23.9515540434800656 Ru
atom 3.8964850133776059 6.7246593407627175 25.0704233143655308 Ru
atom 3.7308859548400339 1.1399704514010520 23.9514655627050068 O
atom 9.5665761310089135 8.3719795200083382 23.9514137340473248 O
atom 6.4830408308247547 0.6999599904204162 23.7015031848998206 O
atom 6.6487907801963733 8.6933257932037069 26.1892925338432505 Ru
atom 5.5089402378090968 10.2866321121395341 26.1893515429484758 O
atom 7.7883640194371244 7.1000230737983339 26.1894504154072933 O
atom 8.2613137611848710 9.8467724808835531 25.9393371330959361 O
atom 6.8143758515242103 8.8117343564998762 24.2014061809207242 O
atom 12.1529846229917524 4.7559977126285613 23.9515521840008283 Ru
atom 7.6227959220743617 1.5153525409490016 25.0704244844037838 Ru
atom 11.0134246384277077 6.3493246495401046 23.9514139847445833 O
atom 2.2840228608839603 3.1626697116336979 23.9514678375267671 O
atom 2.7567214866691314 5.9094668973615381 23.7013816776258714 O
atom 10.3749907050430856 3.4841671067581208 26.1892909749051483 Ru
atom 9.4008830539095172 2.7872513284133351 22.8325701625299367 Ru
atom 9.2352232227353213 5.0773431130383280 26.1894565214886548 O
atom 11.5146785777943332 1.8907324557784304 26.1893595470941456 O
atom 11.9873936726695067 4.6375751894177810 25.9394449859937488 O
atom 10.5404500693671537 3.6025525535624379 24.2015183129229179 O
atom 12.1530345272807825 8.6933392738155568 26.1894101262467451 Ru
atom 11.1789861787276035 7.9965693818282721 22.8325719901298854 Ru
atom 11.0134439125076380 10.2867326479123609 26.1893414644243308 O
atom 13.2928445167316109 7.1000857823350527 26.1893097353446862 O
atom 13.7654801727667433 9.8467508291297996 25.9393274574188410 O
atom 12.3186750569717436 8.8118226570136340 24.2015643545912980 O
atom 13.9312189816664702 9.9653062085552815 23.9514320969737078 Ru
atom 9.4008884178176384 6.7246613480497306 25.0704399698748013 Ru
atom 9.2352407914880423 1.1399237200989174 23.9515517412234580 O
atom 4.0620877133327662 8.3719633006443495 23.9515743336323510 O
atom 0.9787077365287160 0.7001242887833167 23.7014617485499919 O
