#===============================================================================
# Created using the Atomic Simulation Environment (ASE)

# Mon Mar 23 14:01:25 2026

#=======================================================
lattice_vector 9.0578464400032317 0.0000000000000000 0.0000000000000000 
lattice_vector 0.0000153000130401 9.0578618799903108 0.0000000000000000 
lattice_vector 0.0000000000000000 0.0000000000000000 45.6425574600000274 
atom 2.2644731397689193 2.2644598729520178 15.0002043508241485 Ru
atom 9.0578527076378865 9.0578507747361137 19.6928027858241563 Ru
atom 0.8792157896419061 3.6496281429021940 15.0000586599998194 O
atom 3.6496710398614494 0.8792515730533983 15.0000451616484298 O
atom 3.1437064527106013 3.1436984896541142 19.6927902727655386 O
atom 1.3852771475829875 1.3852602947729635 19.6927906688828429 O
atom 2.2644732766763846 2.2644599791371904 18.1284969108241469 Ru
atom 9.0578512007307967 9.0578514985527541 16.5643621358241688 Ru
atom 0.8792508165835453 3.6496679490566120 18.1286426599999153 O
atom 3.6496356967357193 0.8792115392671295 18.1286562216483276 O
atom 3.1437918958706410 3.1437786333972046 16.5643753427657074 O
atom 1.3852052706131390 1.3851866486489268 16.5643746088826767 O
atom 2.2645403047256973 6.7933319328969342 15.0001985608237547 Ru
atom 0.8792611346874294 8.1786052028654090 15.0000821899999366 O
atom 3.6496971348555234 5.4081678830331557 15.0000041516483229 O
atom 2.2645405116326818 6.7933314390819968 18.1285020908237549 Ru
atom 9.0578502957279792 4.5289249785519594 16.5643487358241686 Ru
atom 0.8792595515641085 8.1785682190509572 18.1286183499997762 O
atom 3.6496994717950977 5.4082049592147019 18.1286971216484787 O
atom 3.1438545208012330 7.6726199333463700 16.5642751427651866 O
atom 1.3852632855321287 5.9140142086019818 16.5642757888821066 O
atom 6.7933224698305654 2.2645309680144492 15.0001983308246238 Ru
atom 5.4081773396941379 3.6496882278700800 15.0000000000000000 O
atom 8.1785888498726376 0.8792628180578207 15.0000783916484899 O
atom 7.6725373227408893 3.1437326047323895 19.6927272027658944 O
atom 5.9141123776325326 1.3853172098475606 19.6927265988832900 O
atom 6.7933217967373665 2.2645302542002521 18.1285030408246257 Ru
atom 4.5289249007280992 0.0000038135521801 16.5643487558242022 Ru
atom 5.4081984166177515 3.6497063840357629 18.1287012800000333 O
atom 8.1785679967654747 0.8792449442596090 18.1286226716484578 O
atom 7.6726019659235902 3.1438392484924895 16.5644382627662239 O
atom 5.9140038106676434 1.3852491037539438 16.5644389088832256 O
atom 6.7933884747859397 6.7934013279602850 15.0002061708242280 Ru
atom 4.5289414826498415 4.5289436197243642 19.6928030358242196 Ru
atom 5.4082338447274028 8.1786507078237616 15.0000479800000299 O
atom 8.1786007848759699 5.4081900280494297 15.0000618816484632 O
atom 6.7933894716940637 6.7934022241447485 18.1284947008242270 Ru
atom 4.5289408957387023 4.5289395535402264 16.5643625658242044 Ru
atom 5.4082019415986347 8.1786070940346107 18.1286532299999052 O
atom 8.1786325318203303 5.4082330742066471 18.1286392416485853 O
atom 7.6726569408483769 7.6726737984483284 16.5642906927656917 O
atom 5.9140692555933985 5.9140848037009430 16.5642901788826791 O
atom 2.2644731935843216 2.2644597453210329 21.2571324408241438 Ru
atom 9.0578527614532902 9.0578506471051270 25.9497308758241516 Ru
atom 0.8792158434573089 3.6496280152712091 21.2569867499998182 O
atom 3.6496710936768522 0.8792514454224138 21.2569732516484251 O
atom 3.1437065065260037 3.1436983620231302 25.9497183627655374 O
atom 1.3852772013983905 1.3852601671419793 25.9497187588828382 O
atom 2.2644733304917875 2.2644598515062055 24.3854250008241493 Ru
atom 9.0578512545461987 9.0578513709217674 22.8212902258241641 Ru
atom 0.8792508703989481 3.6496678214256266 24.3855707499999141 O
atom 3.6496357505511217 0.8792114116361449 24.3855843116483300 O
atom 3.1437919496860443 3.1437785057662198 22.8213034327657027 O
atom 1.3852053244285418 1.3851865210179424 22.8213026988826755 O
atom 2.2645403585411001 6.7933318052659502 21.2571266508237500 Ru
atom 0.0000082226363421 4.5289295147327850 19.6928167658241762 Ru
atom 0.8792611885028323 8.1786050752344224 21.2570102799999390 O
atom 3.6496971886709262 5.4081677554021725 21.2569322416483217 O
atom 3.1437443276514134 7.6725513696233030 19.6928898827651295 O
atom 1.3853309125314075 5.9141221847287362 19.6928892588824382 O
atom 2.2645405654480841 6.7933313114510137 24.3854301808237537 Ru
atom 9.0578503495433793 4.5289248509209754 22.8212768258241709 Ru
atom 0.8792596053795113 8.1785680914199723 24.3855464399997786 O
atom 3.6496995256105000 5.4082048315837188 24.3856252116484740 O
atom 3.1438545746166353 7.6726198057153869 22.8212032327651855 O
atom 1.3852633393475315 5.9140140809709969 22.8212038788821054 O
atom 6.7933225236459691 2.2645308403834643 21.2571264208246191 Ru
atom 4.5289237676334109 0.0000009097376499 19.6928168058241866 Ru
atom 5.4081773935095416 3.6496881002390955 21.2569280899999953 O
atom 8.1785889036880395 0.8792626904268361 21.2570064816484887 O
atom 7.6725373765562930 3.1437324771014050 25.9496552927658897 O
atom 5.9141124314479354 1.3853170822165763 25.9496546888832853 O
atom 6.7933218505527693 2.2645301265692677 24.3854311308246210 Ru
atom 4.5289249545435029 0.0000036859211956 22.8212768458242010 Ru
atom 5.4081984704331543 3.6497062564047780 24.3856293700000322 O
atom 8.1785680505808767 0.8792448166286245 24.3855507616484530 O
atom 7.6726020197389939 3.1438391208615046 22.8213663527662227 O
atom 5.9140038644830479 1.3852489761229594 22.8213669988832280 O
atom 6.7933885286013425 6.7934012003293001 21.2571342608242233 Ru
atom 4.5289415364652443 4.5289434920933802 25.9497311258242149 Ru
atom 5.4082338985428065 8.1786505801927749 21.2569760700000288 O
atom 8.1786008386913718 5.4081899004184457 21.2569899716484620 O
atom 7.6725858876909117 7.6725962646923378 19.6928745127655063 O
atom 5.9141559725725905 5.9141690698117024 19.6928750488828612 O
atom 6.7933895255094674 6.7934020965137645 24.3854227908242294 Ru
atom 4.5289409495541060 4.5289394259092433 22.8212906558241997 Ru
atom 5.4082019954140383 8.1786069664036258 24.3855813199999076 O
atom 8.1786325856357340 5.4082329465756631 24.3855673316485806 O
atom 7.6726569946637788 7.6726736708173435 22.8212187827656905 O
atom 5.9140693094088022 5.9140846760699590 22.8212182688826779 O
atom 2.2644732473997249 2.2644596176900489 27.5140605308241391 Ru
atom 0.8792158972727117 3.6496278876402251 27.5139148399998135 O
atom 3.6496711474922554 0.8792513177914294 27.5139013416484204 O
atom 2.2644733843071903 2.2644597238752211 30.6423530908241446 Ru
atom 9.0578513083616023 9.0578512432907843 29.0782183158241594 Ru
atom 0.8792509242143509 3.6496676937946422 30.6424988399999165 O
atom 3.6496358043665245 0.8792112840051605 30.6425124016483252 O
atom 3.1437920035014466 3.1437783781352353 29.0782315227656980 O
atom 1.3852053782439444 1.3851863933869577 29.0782307888826779 O
atom 2.2645404123565034 6.7933316776349653 27.5140547408237524 Ru
atom 0.0000082764517449 4.5289293871018002 25.9497448558241786 Ru
atom 0.8792612423182351 8.1786049476034393 27.5139383699999414 O
atom 3.6496972424863294 5.4081676277711868 27.5138603316483170 O
atom 3.1437443814668167 7.6725512419923190 25.9498179727651248 O
atom 1.3853309663468105 5.9141220570977513 25.9498173488824335 O
atom 2.2645406192634878 6.7933311838200279 30.6423582708237490 Ru
atom 9.0578504033587830 4.5289247232899905 29.0782049158241662 Ru
atom 0.8792596591949141 8.1785679637889874 30.6424745299997738 O
atom 3.6496995794259033 5.4082047039527330 30.6425533016484835 O
atom 3.1438546284320381 7.6726196780844012 29.0781313227651808 O
atom 1.3852633931629341 5.9140139533400120 29.0781319688821043 O
atom 6.7933225774613728 2.2645307127524803 27.5140545108246215 Ru
atom 4.5289238214488137 0.0000007821066654 25.9497448958241890 Ru
atom 5.4081774473249435 3.6496879726081111 27.5138561799999977 O
atom 8.1785889575034432 0.8792625627958518 27.5139345716484911 O
atom 6.7933219043681721 2.2645299989382828 30.6423592208246163 Ru
atom 4.5289250083589065 0.0000035582902112 29.0782049358241963 Ru
atom 5.4081985242485571 3.6497061287737935 30.6425574600000274 O
atom 8.1785681043962786 0.8792446889976401 30.6424788516484554 O
atom 7.6726020735543958 3.1438389932305206 29.0782944427662144 O
atom 5.9140039182984498 1.3852488484919749 29.0782950888832232 O
atom 6.7933885824167453 6.7934010726983152 27.5140623508242257 Ru
atom 5.4082339523582093 8.1786504525617918 27.5139041600000311 O
atom 8.1786008925067737 5.4081897727874608 27.5139180616484609 O
atom 7.6725859415063153 7.6725961370613529 25.9498026027655087 O
atom 5.9141560263879924 5.9141689421807184 25.9498031388828565 O
atom 6.7933895793248702 6.7934019688827796 30.6423508808242246 Ru
atom 4.5289410033695097 4.5289392982782584 29.0782187458241950 Ru
atom 5.4082020492294411 8.1786068387726427 30.6425094099999029 O
atom 8.1786326394511359 5.4082328189446782 30.6424954216485759 O
atom 7.6726570484791825 7.6726735431863586 29.0781468727656929 O
atom 5.9140693632242050 5.9140845484389750 29.0781463588826696 O
