#===============================================================================
# Created using the Atomic Simulation Environment (ASE)

# Mon Mar 23 14:01:25 2026

#=======================================================
lattice_vector 9.0578464400032317 0.0000000000000000 0.0000000000000000 
lattice_vector 0.0000153000130401 9.0578618799903108 0.0000000000000000 
lattice_vector 0.0000000000000000 0.0000000000000000 34.6929027711167421 
atom 9.0578527614532902 9.0578506471051270 15.0000761869408663 Ru
atom 3.1437065065260037 3.1436983620231302 15.0000636738822521 O
atom 1.3852772013983905 1.3852601671419793 15.0000640699995529 O
atom 7.6725373765562930 3.1437324771014050 15.0000006038826044 O
atom 5.9141124314479354 1.3853170822165763 15.0000000000000000 O
atom 4.5289415364652443 4.5289434920933802 15.0000764369409296 Ru
atom 2.2644732473997249 2.2644596176900489 16.5644058419408537 Ru
atom 0.8792158972727117 3.6496278876402251 16.5642601511165282 O
atom 3.6496711474922554 0.8792513177914294 16.5642466527651351 O
atom 2.2644733843071903 2.2644597238752211 19.6926984019408593 Ru
atom 9.0578513083616023 9.0578512432907843 18.1285636269408741 Ru
atom 0.8792509242143509 3.6496676937946422 19.6928441511166312 O
atom 3.6496358043665245 0.8792112840051605 19.6928577127650399 O
atom 3.1437920035014466 3.1437783781352353 18.1285768338824127 O
atom 1.3852053782439444 1.3851863933869577 18.1285760999993926 O
atom 2.2645404123565034 6.7933316776349653 16.5644000519404671 Ru
atom 0.0000082764517449 4.5289293871018002 15.0000901669408933 Ru
atom 0.8792612423182351 8.1786049476034393 16.5642836811166561 O
atom 3.6496972424863294 5.4081676277711868 16.5642056427650317 O
atom 3.1437443814668167 7.6725512419923190 15.0001632838818395 O
atom 1.3853309663468105 5.9141220570977513 15.0001626599991482 O
atom 2.2645406192634878 6.7933311838200279 19.6927035819404637 Ru
atom 9.0578504033587830 4.5289247232899905 18.1285502269408809 Ru
atom 0.8792596591949141 8.1785679637889874 19.6928198411164885 O
atom 3.6496995794259033 5.4082047039527330 19.6928986127651982 O
atom 3.1438546284320381 7.6726196780844012 18.1284766338818955 O
atom 1.3852633931629341 5.9140139533400120 18.1284772799988190 O
atom 6.7933225774613728 2.2645307127524803 16.5643998219413362 Ru
atom 4.5289238214488137 0.0000007821066654 15.0000902069409037 Ru
atom 5.4081774473249435 3.6496879726081111 16.5642014911167124 O
atom 8.1785889575034432 0.8792625627958518 16.5642798827652058 O
atom 6.7933219043681721 2.2645299989382828 19.6927045319413310 Ru
atom 4.5289250083589065 0.0000035582902112 18.1285502469409110 Ru
atom 5.4081985242485571 3.6497061287737935 19.6929027711167421 O
atom 8.1785681043962786 0.8792446889976401 19.6928241627651701 O
atom 7.6726020735543958 3.1438389932305206 18.1286397538829291 O
atom 5.9140039182984498 1.3852488484919749 18.1286403999999379 O
atom 6.7933885824167453 6.7934010726983152 16.5644076619409404 Ru
atom 5.4082339523582093 8.1786504525617918 16.5642494711167458 O
atom 8.1786008925067737 5.4081897727874608 16.5642633727651756 O
atom 7.6725859415063153 7.6725961370613529 15.0001479138822233 O
atom 5.9141560263879924 5.9141689421807184 15.0001484499995712 O
atom 6.7933895793248702 6.7934019688827796 19.6926961919409393 Ru
atom 4.5289410033695097 4.5289392982782584 18.1285640569409097 Ru
atom 5.4082020492294411 8.1786068387726427 19.6928547211166176 O
atom 8.1786326394511359 5.4082328189446782 19.6928407327652906 O
atom 7.6726570484791825 7.6726735431863586 18.1284921838824076 O
atom 5.9140693632242050 5.9140845484389750 18.1284916699993843 O
