#===============================================================================
# Created using the Atomic Simulation Environment (ASE)

# Mon Mar 23 14:01:27 2026

#=======================================================
lattice_vector 12.8097293803404586 0.0000000000000000 0.0000000000000000 
lattice_vector -0.0000001283020594 6.2569280899999997 0.0000000000000000 
lattice_vector 0.0000000000000000 0.0000000000000000 42.0943800746952874 
atom 6.4048574627570432 4.6926103751442403 16.2435467964774531 Ru
atom 12.8097087540292023 0.0000119668588251 19.4459688602178105 Ru
atom 4.4458707201372238 4.6927560659680143 16.2434804831306892 O
atom 8.3638304734217002 4.6927695643199243 16.2435427668278614 O
atom 6.4048516024957323 0.0000244635755149 17.4869742615921524 O
atom 6.4048621082818284 0.0000240467133259 15.0001734038156300 O
atom 6.4048574844806954 1.5643178151442407 16.2435469944661541 Ru
atom 12.8097071766702637 3.1284526168588136 19.4459682803891170 Ru
atom 4.4458673406336713 1.5641720659683576 16.2435334242132754 O
atom 8.3638337903100126 1.5641585043195778 16.2434894934067344 O
atom 6.4048553495507186 3.1284393935763273 17.4870913231233622 O
atom 6.4048633594373614 3.1284401067126333 15.0000704773540043 O
atom 3.2024169962961944 6.2569260501441883 16.2435447423247936 Ru
atom 1.2434269587581150 4.6927325626831173 19.4459775037279776 O
atom 3.2025056099924347 6.2568535734283257 18.2025949408390133 O
atom 3.2024172443003596 3.1284659901441465 16.2435384207903013 Ru
atom 1.2434519908731421 1.5641964026830490 19.4459502589254640 O
atom 3.2025342696468413 3.1285389534276185 18.2024707446273268 O
atom 9.6071818290981810 4.6926164218584763 19.4459825744739234 Ru
atom 9.6072800176930269 6.2569260101441913 16.2435463757400385 Ru
atom 9.6071865312082849 0.0000881434274258 18.2025891848319787 O
atom 9.6071818578939467 1.5643117118584682 19.4459816198786584 Ru
atom 9.6072788939022420 3.1284659701442052 16.2435492041661256 Ru
atom 11.5662434761279549 1.5641920810344292 19.4459572892707868 O
atom 9.6071579212638216 3.1283758334264444 18.2024642319695396 O
atom 12.8097037327986545 4.6926085551441297 16.2435432467857268 Ru
atom 10.8507322706455334 4.6927667459688571 16.2436069208914837 O
atom 1.9589596738451054 4.6927528443199273 16.2435472852350955 O
atom 12.8097032455743953 6.2568683135750485 17.4869144403480234 O
atom 12.8097055418444938 6.2568677567128708 15.0001209294039590 O
atom 12.8097038040187670 1.5643200251441387 16.2435446115006279 Ru
atom 10.8507405514235096 1.5641614959685335 16.2435535484796034 O
atom 1.9589516840053334 1.5641754843202469 16.2436001980294407 O
atom 12.8096987912230063 3.1285240435757391 17.4870194810557038 O
atom 12.8097039373260220 3.1285245367120433 15.0000000000000000 O
atom 12.8097112351893436 4.6926104285736976 22.6484223053721365 Ru
atom 6.4048331461210459 0.0000120202882828 25.8508443691124867 Ru
atom 10.8507244925695279 4.6927561193974725 22.6483559920253654 O
atom 1.9589548655135478 4.6927696177493816 22.6484182757225412 O
atom 12.8097053749280452 0.0000245170049726 23.8918497704868358 O
atom 12.8097158807141369 0.0000241001427836 21.4050489127103063 O
atom 12.8097112569129976 1.5643178685736987 22.6484225033608340 Ru
atom 6.4048315687621136 3.1284526702882713 25.8508437892838003 Ru
atom 10.8507211130659744 1.5641721193978153 22.6484089331079588 O
atom 1.9589581824018600 1.5641585577490356 22.6483650023014178 O
atom 12.8097091219830279 3.1284394470057846 23.8919668320180421 O
atom 12.8097171318696716 3.1284401601420906 21.4049459862486877 O
atom 3.2025033767099158 4.6926161918593641 19.4459850000089141 Ru
atom 9.6072707687285046 6.2569261035736448 22.6484202512194770 Ru
atom 7.6482807311904191 4.6927326161125755 25.8508530126226574 O
atom 5.1614160570219125 4.6928106010347808 19.4459832189072230 O
atom 3.2024902393266972 6.2568529702903737 20.6893781916525477 O
atom 9.6073593824247414 6.2568536268577830 24.6074704497336896 O
atom 3.2025038721954782 1.5643126618593641 19.4459848232314982 Ru
atom 9.6072710167326658 3.1284660435736034 22.6484139296849847 Ru
atom 7.6483057633054541 1.5641964561125068 25.8508257678201403 O
atom 5.1613914926210596 1.5641176310348543 19.4460111142503038 O
atom 3.2025198038642255 3.1285396202913685 20.6895045658006040 O
atom 9.6073880420791493 3.1285390068570758 24.6073462535220031 O
atom 3.2023062211900313 4.6926164752879336 25.8508580833686068 Ru
atom 3.2024044097848776 6.2569260635736486 22.6484218846347147 Ru
atom 7.6482822231857668 4.6928147526831436 19.4459878274783904 O
atom 11.5662455827710566 4.6927363610346253 19.4459846472334554 O
atom 9.6071890644876081 0.0000875602895462 20.6893708375994514 O
atom 3.2023109233001268 0.0000881968568836 24.6074646937266550 O
atom 3.2023062499857935 1.5643117652879259 25.8508571287733417 Ru
atom 3.2024032859940887 3.1284660235736625 22.6484247130608054 Ru
atom 7.6482842884264359 1.5641134726833412 19.4460155955650009 O
atom 5.1613678682198127 1.5641921344638872 25.8508327981654702 O
atom 9.6071593653889931 3.1283765002902282 20.6894919296116555 O
atom 3.2022823133556688 3.1283758868559017 24.6073397408642194 O
atom 6.4048281248905115 4.6926086085735879 22.6484187556804031 Ru
atom 6.4048411364107301 0.0000117168590196 19.4459995698628205 Ru
atom 4.4458566627373797 4.6927667993983144 22.6484824297861636 O
atom 8.3638134462774119 4.6927528977493846 22.6484227941297718 O
atom 6.4048276376662452 6.2568683670045058 23.8917899492426997 O
atom 6.4048299339363393 6.2568678101423290 21.4049964382986389 O
atom 6.4048281961106195 1.5643200785735969 22.6484201203953077 Ru
atom 6.4048435966338388 3.1284521868590089 19.4459962535343323 Ru
atom 4.4458649435153559 1.5641615493979915 22.6484290573742797 O
atom 8.3638054564376425 1.5641755377497046 22.6484757069241169 O
atom 6.4048231833148552 3.1285240970051968 23.8918949899503872 O
atom 6.4048283294178665 3.1285245901415002 21.4048755088946763 O
atom 9.6073571491422296 4.6926162452888223 25.8508605089035939 Ru
atom 11.5662698294542263 4.6928106544642390 25.8508587278019064 O
atom 9.6073440117590057 6.2568530237198319 27.0942537005472346 O
atom 9.6073576446277933 1.5643127152888219 25.8508603321261745 Ru
atom 11.5662452650533663 1.5641176844643121 25.8508866231449872 O
atom 9.6073735762965313 3.1285396737208262 27.0943800746952874 O
atom 1.2434066152776202 4.6928148061126018 25.8508633363730738 O
atom 5.1613699748629012 4.6927364144640826 25.8508601561281353 O
atom 3.2023134565794629 0.0000876137190039 27.0942463464941241 O
atom 1.2434086805182865 1.5641135261127985 25.8508911044596843 O
atom 3.2022837574808451 3.1283765537196859 27.0943674385063318 O
atom 12.8096949088430367 0.0000117702884773 25.8508750787575039 Ru
atom 12.8096973690661518 3.1284522402884667 25.8508717624290156 Ru
