#===============================================================================
# Created using the Atomic Simulation Environment (ASE)

# Mon Mar 23 14:01:25 2026

#=======================================================
lattice_vector 11.0088023998619828 0.0000000000000000 0.0000000000000000 
lattice_vector 3.5561804958640981 10.4186176412040616 0.0000000000000000 
lattice_vector 0.0000000000000000 0.0000000000000000 36.4637572075915983 
atom 8.4267246980142936 6.0278077204764431 16.9880051239566754 Ru
atom 3.8964787093811699 2.7872455014665567 18.1068510375993696 Ru
atom 7.2870424625384587 7.6211543440513108 16.9878545688131908 O
atom 9.5665312996928868 4.4345669417414815 16.9878884368219190 O
atom 10.0392467253813429 7.1812806770213689 16.7379028208243028 O
atom 8.5924421910456736 6.1463428272027443 15.0001344839084751 O
atom 5.6745480960925976 4.0591319954451768 15.8690139338204546 Ru
atom 6.8142719003550543 4.8743843981393891 17.2379503173708102 O
atom 7.4526528156510086 9.2684493725818129 15.8690171334448138 Ru
atom 8.5924304460922958 10.0836435671797595 17.2380471081507451 O
atom 6.6487780866056827 0.8184981838187416 16.9878863529225406 Ru
atom 5.6745676085384069 7.9965531964364320 18.1068632989373342 Ru
atom 5.5089275442184107 2.4118045027545683 16.9879453620277552 O
atom 11.3445318217105324 9.6438131056174310 16.9880442344865727 O
atom 8.2613010675941769 1.9719448714985899 16.7379309521752120 O
atom 6.8143631579335198 0.9369067471149100 15.0000000000000000 O
atom 11.1789637243477724 4.0591425727680948 15.8690183034830632 Ru
atom 12.3187235078986212 4.8745480517707982 17.2379267318928271 O
atom 2.9223561074545148 6.0279571385772153 16.9878847939844277 Ru
atom 12.7913910250087213 7.6211331448574251 16.9880503405679342 O
atom 4.0620439802057584 4.4345224875975262 16.9879533661734285 O
atom 4.5347590750809328 7.1813652212368773 16.7380388050730282 O
atom 3.0878154717785780 6.1463425853815323 15.0001121320022044 O
atom 1.1442194338281140 0.8185116644305898 16.9880039453260245 Ru
atom 11.0134312189169439 2.4119050385273968 16.9879352835036102 O
atom 5.8402099191430352 9.6438758141541463 16.9879035544239656 O
atom 2.7566650793140615 1.9719232197448335 16.7379212764981204 O
atom 1.3098599635190693 0.9369950476286676 15.0001581736705809 O
atom 12.9570562200910420 9.2684513798688286 15.8690337889540771 Ru
atom 14.0967563027765692 10.0837178251526147 17.2378406735354446 O
atom 4.8705568957408909 3.4840176886573468 21.4637119909803396 Ru
atom 3.7308746602650507 5.0773643122322154 21.4635614358368549 O
atom 6.0103634974194886 1.8907769099223835 21.4635953038455760 O
atom 6.4830789231079304 4.6374906452022753 21.2136096878479634 O
atom 5.0362743887722754 3.6025527953836480 19.4758413509321429 O
atom 6.6487383520553065 4.7559825396796294 19.2257360291429826 Ru
atom 2.1183802938191993 1.5153419636260796 20.3447208008441223 Ru
atom 5.5089191815620628 6.3492353930304919 19.2258308036181695 O
atom 7.7883347397426128 3.1625873397326618 19.2258098058293427 O
atom 8.2612052326477787 5.9094113107023665 18.9758731895163528 O
atom 8.4267833034354993 9.9651559752105587 19.2258547295830091 Ru
atom 3.8964850133776059 6.7246593407627175 20.3447240004684744 Ru
atom 3.7308859548400339 1.1399704514010520 19.2257662488079504 O
atom 9.5665761310089135 8.3719795200083382 19.2257144201502683 O
atom 6.4830408308247547 0.6999599904204162 18.9758038710027641 O
atom 6.6487907801963733 8.6933257932037069 21.4635932199461941 Ru
atom 5.5089402378090968 10.2866321121395341 21.4636522290514193 O
atom 7.7883640194371244 7.1000230737983339 21.4637511015102369 O
atom 8.2613137611848710 9.8467724808835531 21.2136378191988797 O
atom 6.8143758515242103 8.8117343564998762 19.4757068670236677 O
atom 12.1529846229917524 4.7559977126285613 19.2258528701037719 Ru
atom 7.6227959220743617 1.5153525409490016 20.3447251705067274 Ru
atom 11.0134246384277077 6.3493246495401046 19.2257146708475268 O
atom 2.2840228608839603 3.1626697116336979 19.2257685236297107 O
atom 2.7567214866691314 5.9094668973615381 18.9756823637288150 O
atom 10.3749907050430856 3.4841671067581208 21.4635916610080919 Ru
atom 9.4008830539095172 2.7872513284133351 18.1068708486328802 Ru
atom 9.2352232227353213 5.0773431130383280 21.4637572075915983 O
atom 11.5146785777943332 1.8907324557784304 21.4636602331970892 O
atom 11.9873936726695067 4.6375751894177810 21.2137456720966924 O
atom 10.5404500693671537 3.6025525535624379 19.4758189990258614 O
atom 12.1530345272807825 8.6933392738155568 21.4637108123496887 Ru
atom 11.1789861787276035 7.9965693818282721 18.1068726762328289 Ru
atom 11.0134439125076380 10.2867326479123609 21.4636421505272743 O
atom 13.2928445167316109 7.1000857823350527 21.4636104214476298 O
atom 13.7654801727667433 9.8467508291297996 21.2136281435217846 O
atom 12.3186750569717436 8.8118226570136340 19.4758650406942415 O
atom 13.9312189816664702 9.9653062085552815 19.2257327830766513 Ru
atom 9.4008884178176384 6.7246613480497306 20.3447406559777448 Ru
atom 9.2352407914880423 1.1399237200989174 19.2258524273264015 O
atom 4.0620877133327662 8.3719633006443495 19.2258750197352946 O
atom 0.9787077365287160 0.7001242887833167 18.9757624346529354 O
