#===============================================================================
# Created using the Atomic Simulation Environment (ASE)

# Mon Mar 23 14:01:26 2026

#=======================================================
lattice_vector 11.0088023998619828 0.0000000000000000 0.0000000000000000 
lattice_vector 0.0000126935906902 9.0578618799943378 0.0000000000000000 
lattice_vector 0.0000000000000000 0.0000000000000000 36.7228120458061511 
atom 4.8705442021501906 2.2644721724256716 15.7874416849120855 Ru
atom 0.3402982135170707 0.0000037178272301 18.3613962866635951 Ru
atom 3.7308619666743530 3.6496396996176359 15.0000000000000000 O
atom 6.0103508038287785 0.8792646150105581 16.5745987311995080 O
atom 6.4830662295172354 3.1437101421368929 15.0000462212912318 O
atom 3.0925578561911964 2.2644747702621095 18.3613451202662645 Ru
atom 2.1183676002285021 0.0000019498739162 15.7873702268476350 Ru
atom 1.9527386856979680 3.6496819976741524 17.5741630569427159 O
atom 4.7050247367836802 3.1437926501217319 17.5741796772947794 O
atom 3.2580914044909508 1.3851997225889603 16.5746760332353915 O
atom 4.8706028075713981 6.7933442323998943 15.7874707467882658 Ru
atom 3.7308859548400304 8.1786167596218124 15.0000407842534784 O
atom 6.0103956351448096 5.4081809249695549 16.5745754722512046 O
atom 6.4830408308247529 7.6725630222036365 15.0001453572463106 O
atom 3.0926102843322689 6.7933462302450014 18.3613832478481847 Ru
atom 2.1183871126743030 4.5289373098583923 15.7873630351312002 Ru
atom 1.9527597419449947 8.1785822676517306 17.5741436717897841 O
atom 4.7051332653207654 7.6726339500225773 17.5741284799802955 O
atom 3.2581953556601100 5.9140272824923192 16.5746233512418577 O
atom 7.6227832284836721 0.0000133048630802 15.7873687992858933 Ru
atom 7.4572441425636056 3.6497022125316505 17.5740179883228755 O
atom 10.2093433906670086 3.1437466850877245 17.5739863082861056 O
atom 8.7625430120345271 1.3853303475051832 16.5745746630370832 O
atom 10.3749780114523951 2.2645426173177063 15.7872632399955286 Ru
atom 5.8447025580454088 0.0000185728318511 18.3614106309724079 Ru
atom 9.2352105291446147 3.6497180047407629 15.0001806773186424 O
atom 0.5058634843416547 0.8792580501085402 16.5746771460811502 O
atom 0.9785785792168317 3.1438508372341714 15.0001226695082153 O
atom 7.6228056828635022 4.5289560148462371 15.7873631900812441 Ru
atom 7.4572634166435341 8.1786646925517505 17.5740852324697698 O
atom 10.2092996769026350 7.6726103451889527 17.5741307666804190 O
atom 8.7624945611076370 5.9141822076088451 16.5747172346752336 O
atom 10.3750384858023601 6.7934145872897540 15.7872904936391834 Ru
atom 9.2352407914880406 8.1786187147011429 15.0001387981775203 O
atom 0.5059072174686547 5.4082461801012860 16.5747231105330357 O
atom 0.9787077365287115 7.6726853870998557 15.0000281490754723 O
atom 1.3143763998767801 2.2644770283702735 20.9355306201851903 Ru
atom 0.1746941644009474 3.6496445555622379 20.1480889352731118 O
atom 2.4541830015553781 0.8792694709551599 21.7226876664726127 O
atom 2.9268984272438341 3.1437149980814953 20.1481351565643401 O
atom 1.4800938929081748 1.3852758605010898 19.1487218560725587 O
atom 9.5710021978170747 0.0000068058185185 20.9354591621207433 Ru
atom 4.2321542438785107 0.8792270731102162 19.1487440573955965 O
atom 10.7107260020795323 1.3852045785335620 21.7227649685085034 O
atom 1.3144350052979870 6.7933490883444962 20.9355596820613670 Ru
atom 0.3403045175135138 4.5289443378325087 18.3614132482211971 Ru
atom 0.1747181525666197 8.1786216155664153 20.1481297195265796 O
atom 2.4542278328714136 5.4081857809141560 21.7226644075243165 O
atom 2.9268730285513467 7.6725678781482394 20.1482342925194153 O
atom 1.4800821479547928 5.9141377505621229 19.1488291839756073 O
atom 9.5710217102628743 4.5289421658029934 20.9354519704043085 Ru
atom 4.2321835235730285 5.4082204931224682 19.1488096081841235 O
atom 10.7108299532486821 5.9140321384369212 21.7227122865149695 O
atom 8.5968041271276476 2.2645456954159964 18.3614392034796623 Ru
atom 4.0666154262102667 0.0000181608076822 20.9354577345590016 Ru
atom 9.7366447648818397 0.8792782880108484 19.1486674650719628 O
atom 5.2063752097611182 1.3853352034497850 21.7226635983101914 O
atom 6.8188102091789826 2.2645474732623083 20.9353521752686333 Ru
atom 5.6790427268712147 3.6497228606853653 20.1482696125917506 O
atom 7.9584980819302373 0.8792629060531423 21.7227660813542620 O
atom 8.4312131768054090 3.1438556931787738 20.1482116047813200 O
atom 6.9842695735030542 1.3852646056506512 19.1487025430061735 O
atom 8.5968540314166795 6.7934160554013738 18.3614788205837840 Ru
atom 4.0666378805900987 4.5289608707908391 20.9354521253543524 Ru
atom 9.7366640208675115 5.4082054979936185 19.1486563163490402 O
atom 5.2063267588342370 5.9141870635534470 21.7228061699483419 O
atom 6.8188706835289512 6.7934194432343551 20.9353794289122952 Ru
atom 5.8447079219535318 4.5289543128373833 18.3614267365297508 Ru
atom 5.6790729892146352 8.1786235706457457 20.1482277334506250 O
atom 7.9585418150572362 5.4082510360458862 21.7228120458061476 O
atom 8.4313423341172840 7.6726902430444568 20.1481170843485735 O
atom 6.9844080046390600 5.9141003055121857 19.1486130188416013 O
