#===============================================================================
# Created using the Atomic Simulation Environment (ASE)

# Mon Mar 23 14:01:26 2026

#=======================================================
lattice_vector 9.0578618800032320 0.0000000000000000 0.0000000000000000 
lattice_vector -0.0000001276308936 6.2569280899999997 0.0000000000000000 
lattice_vector 0.0000000000000000 0.0000000000000000 49.8743315098007400 
atom 2.2644791255828558 1.5643178923827983 15.8792663973907509 Ru
atom 0.0000196223353602 6.2569163858123291 22.6726344498886832 Ru
atom 0.8792731654818748 1.5641587151211389 17.2644666372959037 O
atom 3.1437192274334311 6.2569038218864348 16.7584981848117209 O
atom 1.3852780623183634 6.2569042028795714 15.0000718499380596 O
atom 2.2644792317682603 4.6926104523827998 15.8792665073917014 Ru
atom 0.0000203461494528 3.1284757358123243 22.6726329698879745 Ru
atom 0.8792331316359063 4.6927697751207367 17.2644312673287246 O
atom 3.1437993713208461 3.1284888918873341 16.7585836547437736 O
atom 1.3852044160729158 3.1284881428787887 15.0000000000000000 O
atom 6.7933511856347613 1.5643121023829185 15.8793259124405139 Ru
atom 5.4081894754992490 1.5641177051211925 17.2644850823085179 O
atom 7.6725722350910299 0.0000753418862826 16.7585284098770124 O
atom 5.9141400799893855 0.0000747028795631 15.0001179649957415 O
atom 6.7933506918201765 4.6926156323829185 15.8793260924419073 Ru
atom 4.5289557061568253 3.1284623358123871 22.6726397148843262 Ru
atom 5.4082265516847450 4.6928106751213701 17.2644873922756901 O
atom 7.6726406713693365 3.1283886918872903 16.7586386298201191 O
atom 5.9140319761175038 3.1283893228786539 15.0000503650879438 O
atom 2.2645578705139573 1.5643119113357491 20.4081157273258995 Ru
atom 0.0000241149808017 0.0000022768593358 18.1437208098832841 Ru
atom 3.6497127906610864 1.5641135685975205 19.0229682574661396 O
atom 0.8792920604706387 1.5641919840742637 21.7933844472813512 O
atom 3.1437609923491934 6.2568407908391039 21.2873290547784677 O
atom 1.3853426272378124 6.2568401718323701 19.5289070798855491 O
atom 2.2645571566986220 4.6926166213357421 20.4081150273274652 Ru
atom 0.0000268911663523 3.1284623168593564 18.1437219698809145 Ru
atom 3.6497309468623698 4.6928148485977355 19.0229893074492296 O
atom 0.8792741866372029 4.6927362640740515 21.7933635672958808 O
atom 3.1438676362184861 3.1285518508399877 21.2873937246873375 O
atom 1.3852745209608106 3.1285524818313761 19.5287985399419952 O
atom 6.7934282305648237 1.5643197513358544 20.4081740823770126 Ru
atom 4.5289666973600848 6.2569165968594520 18.1437308748734338 Ru
atom 8.1786752707037511 1.5641615485979716 19.0230171124391951 O
atom 5.4082192704759464 1.5641754740742744 21.7933887322846047 O
atom 7.6726247800156067 0.0000600108390681 21.2873699698343479 O
atom 5.9141946149000253 0.0000605318322518 19.5289430249513885 O
atom 6.7934291267509721 4.6926082813358656 20.4081750523773238 Ru
atom 4.5289626311749576 3.1284761268594306 18.1437303148767732 Ru
atom 8.1786316568607109 4.6927667985975763 19.0229851824750753 O
atom 5.4082623166867920 4.6927528340746676 21.7934204522474708 O
atom 7.6727021862607243 3.1284042808398653 21.2874410497696829 O
atom 5.9141102210118959 3.1284037518313257 19.5288563350233844 O
atom 2.2644944255698150 1.5643179702890166 24.9371128373810613 Ru
atom 0.0000349223223183 6.2569164637185475 31.7304808898789830 Ru
atom 3.6496603556219331 1.5641722675501188 23.5518531475116646 O
atom 0.8792884654688345 1.5641587930273571 26.3223130772862106 O
atom 3.1437345274203903 6.2569038997926532 25.8163446248020279 O
atom 1.3852933623053232 6.2569042807857915 24.0579182899283666 O
atom 2.2644945317552194 4.6926105302890182 24.9371129473820119 Ru
atom 0.0000356461364130 3.1284758137185431 31.7304794098782779 Ru
atom 3.6497001618355167 4.6927562675505188 23.5518881474772250 O
atom 0.8792484316228661 4.6927698530269550 26.3222777073190244 O
atom 3.1438146713078061 3.1284889697935525 25.8164300947340806 O
atom 1.3852197160598760 3.1284882207850080 24.0578464399903140 O
atom 6.7933664856217213 1.5643121802891369 24.9371723524308209 Ru
atom 4.5289603699759189 0.0000022758124349 22.6726440548804149 Ru
atom 8.1786374156552792 1.5641957975505636 23.5518908424725630 O
atom 5.4082047754862099 1.5641177830274109 26.3223315222988319 O
atom 7.6725875350779900 0.0000754197925011 25.8163748498673229 O
atom 5.9141553799763456 0.0000747807857816 24.0579644049860555 O
atom 6.7933659918071365 4.6926157102891368 24.9371725324322142 Ru
atom 4.5289710061437845 3.1284624137186063 31.7304861548746331 Ru
atom 8.1786004318381540 4.6927319575503912 23.5518892325032816 O
atom 5.4082418516717041 4.6928107530275902 26.3223338322660041 O
atom 7.6726559713562965 3.1283887697935087 25.8164850698104260 O
atom 5.9140472761044647 3.1283894007848727 24.0578968050782578 O
atom 2.2645731705009164 1.5643119892419672 29.4659621673162135 Ru
atom 0.0000394149677614 0.0000023547655543 27.2015672498735981 Ru
atom 3.6497280906480456 1.5641136465037391 28.0808146974564536 O
atom 0.8793073604575985 1.5641920619804821 30.8512308872716616 O
atom 3.1437762923361534 6.2568408687453223 30.3451754947687746 O
atom 1.3853579272247725 6.2568402497385893 28.5867535198758631 O
atom 2.2645724566855816 4.6926166992419605 29.4659614673177757 Ru
atom 0.0000421911533120 3.1284623947655752 27.2015684098712214 Ru
atom 3.6497462468493289 4.6928149265039538 28.0808357474395436 O
atom 0.8792894866241627 4.6927363419802699 30.8512100072861912 O
atom 3.1438829362054448 3.1285519287462060 30.3452401646776408 O
atom 1.3852898209477709 3.1285525597375954 28.5866449799323092 O
atom 6.7934435305517846 1.5643198292420728 29.4660205223673231 Ru
atom 4.5289819973470449 6.2569166747656704 27.2015773148637479 Ru
atom 8.1786905706907085 1.5641616265041902 28.0808635524295056 O
atom 5.4082345704629065 1.5641755519804927 30.8512351722749187 O
atom 7.6726400800025667 0.0000600887452866 30.3452164098246513 O
atom 5.9142099148869862 0.0000606097384704 28.5867894649416954 O
atom 6.7934444267379321 4.6926083592420840 29.4660214923676307 Ru
atom 4.5289779311619176 3.1284762047656494 27.2015767548670837 Ru
atom 8.1786469568476683 4.6927668765037946 28.0808316224653893 O
atom 5.4082776166737512 4.6927529119808860 30.8512668922377813 O
atom 7.6727174862476835 3.1284043587460841 30.3452874897599898 O
atom 5.9141255209988559 3.1284038297375445 28.5867027750136984 O
atom 2.2645097255567754 1.5643180481952357 33.9949592773713718 Ru
atom 3.6496756556088936 1.5641723454563374 32.6096995875019715 O
atom 3.1437498274073503 6.2569039776988724 34.8741910647923348 O
atom 1.3853086622922832 6.2569043586920099 33.1157647299186735 O
atom 2.2645098317421790 4.6926106081952366 33.9949593873723259 Ru
atom 3.6497154618224763 4.6927563454567371 32.6097345874675355 O
atom 3.1438299712947662 3.1284890476997709 34.8742765347243946 O
atom 1.3852350160468354 3.1284882986912264 33.1156928799806209 O
atom 6.7933817856086813 1.5643122581953555 33.9950187924211349 Ru
atom 4.5289756699628789 0.0000023537186534 31.7304904948707147 Ru
atom 8.1786527156422402 1.5641958754567824 32.6097372824628664 O
atom 7.6726028350649500 0.0000754976987197 34.8742212898576369 O
atom 5.9141706799633056 0.0000748586920001 33.1158108449763589 O
atom 6.7933812917940948 4.6926157881953543 33.9950189724225282 Ru
atom 8.1786157318251149 4.6927320354566096 32.6097356724935921 O
atom 7.6726712713432565 3.1283888476997275 34.8743315098007400 O
atom 5.9140625760914247 3.1283894786910911 33.1157432450685647 O
