#===============================================================================
# Created using the Atomic Simulation Environment (ASE)

# Mon Mar 23 14:01:25 2026

#=======================================================
lattice_vector 11.0088023998619828 0.0000000000000000 0.0000000000000000 
lattice_vector 3.5561804958640981 10.4186176412040616 0.0000000000000000 
lattice_vector 0.0000000000000000 0.0000000000000000 40.9394640746152589 
atom 11.9828925002877043 8.5715977522955367 16.9880051239566754 Ru
atom 7.4526465116545753 5.3310355332856538 18.1068510375993696 Ru
atom 10.8432102648118658 10.1649443758704052 16.9878545688131872 O
atom 13.1226991019662886 6.9783569735605759 16.9878884368219154 O
atom 13.5954145276547500 9.7250707088404642 16.7379028208242993 O
atom 12.1486099933190879 8.6901328590218387 15.0001344839084751 O
atom 9.2307158983660109 6.6029220272642721 15.8690139338204546 Ru
atom 10.3704397026284649 7.4181744299584862 17.2379503173708031 O
atom 7.4526401220603242 1.3936217631968442 15.8690171334448138 Ru
atom 8.5924177525016017 2.2088159577947946 17.2380471081507380 O
atom 10.2049458888790880 3.3622882156378369 16.9878863529225335 Ru
atom 5.6745549149477137 0.1217255870514656 18.1068632989373342 Ru
atom 9.0650953464918178 4.9555945345736641 16.9879453620277587 O
atom 11.3445191281198383 1.7689854962324636 16.9880442344865727 O
atom 11.8174688698675858 4.5157349033176848 16.7379309521752084 O
atom 10.3705309602069278 3.4806967789340044 15.0000000000000000 O
atom 3.7263291267591989 6.6029326045871928 15.8690183034830596 Ru
atom 4.8660889103100500 7.4183380835898927 17.2379267318928271 O
atom 6.4785239097279153 8.5717471703963124 16.9878847939844242 Ru
atom 5.3387564274201447 10.1649231766765205 16.9880503405679342 O
atom 7.6182117824791682 6.9783125194166225 16.9879533661734250 O
atom 8.0909268773543381 9.7251552530559735 16.7380388050730247 O
atom 6.6439832740519904 8.6901326172006286 15.0001121320022008 O
atom 4.7003872361015162 3.3623016962496850 16.9880039453260210 Ru
atom 3.5607966213283677 4.9556950703464917 16.9879352835036102 O
atom 5.8401972255523420 1.7690482047691813 16.9879035544239620 O
atom 6.3128328815874744 4.5157132515639287 16.7379212764981204 O
atom 4.8660277657924711 3.4807850794477622 15.0001581736705774 O
atom 1.9482411266383670 1.3936237704838617 15.8690337889540771 Ru
atom 3.0879412093238954 2.2088902157676484 17.2378406735354481 O
atom 8.4267246980142936 6.0278077204764431 21.4637119909803360 Ru
atom 3.8964787093811699 2.7872455014665567 22.5825579046230303 Ru
atom 7.2870424625384587 7.6211543440513108 21.4635614358368514 O
atom 9.5665312996928868 4.4345669417414815 21.4635953038455796 O
atom 10.0392467253813429 7.1812806770213689 21.2136096878479634 O
atom 8.5924421910456736 6.1463428272027443 19.4758413509321358 O
atom 10.2049061543287127 7.2997725714987238 19.2257360291429791 Ru
atom 5.6745480960925976 4.0591319954451768 20.3447208008441152 Ru
atom 9.0650869838354797 8.8930254248495864 19.2258308036181695 O
atom 11.3445025420160164 5.7063773715517572 19.2258098058293392 O
atom 11.8173730349211876 8.4532013425214636 18.9758731895163493 O
atom 6.8142719003550543 4.8743843981393891 21.7136571843944708 O
atom 8.4267706098448034 2.0903283658255938 19.2258547295830056 Ru
atom 7.4526528156510086 9.2684493725818129 20.3447240004684744 Ru
atom 7.2870537571134415 3.6837604832201474 19.2257662488079504 O
atom 9.5665634374182176 0.4971519106233730 19.2257144201502683 O
atom 10.0392086330981662 3.2437500222395124 18.9758038710027606 O
atom 8.5924304460922958 10.0836435671797595 21.7137539751744058 O
atom 6.6487780866056827 0.8184981838187416 21.4635932199462012 Ru
atom 5.6745676085384069 7.9965531964364320 22.5825701659609948 Ru
atom 5.5089275442184107 2.4118045027545683 21.4636522290514158 O
atom 11.3445318217105324 9.6438131056174310 21.4637511015102334 O
atom 8.2613010675941769 1.9719448714985899 21.2136378191988726 O
atom 6.8143631579335198 0.9369067471149100 19.4757068670236606 O
atom 4.7003500254031669 7.2997877444476567 19.2258528701037648 Ru
atom 11.1789637243477724 4.0591425727680948 20.3447251705067238 Ru
atom 3.5607900408391360 8.8931146813591990 19.2257146708475233 O
atom 5.8401906631573670 5.7064597434527924 19.2257685236297071 O
atom 6.3128892889425350 8.4532569291806343 18.9756823637288150 O
atom 12.3187235078986212 4.8745480517707982 21.7136335989164877 O
atom 2.9223561074545148 6.0279571385772153 21.4635916610080884 Ru
atom 1.9482484563209348 5.3310413602324278 18.1068708486328767 Ru
atom 12.7913910250087213 7.6211331448574251 21.4637572075915948 O
atom 4.0620439802057584 4.4345224875975262 21.4636602331970892 O
atom 4.5347590750809328 7.1813652212368773 21.2137456720966888 O
atom 3.0878154717785780 6.1463425853815323 19.4758189990258650 O
atom 1.1442194338281140 0.8185116644305898 21.4637108123496851 Ru
atom 0.1701710852749351 0.1217417724433057 18.1068726762328254 Ru
atom 11.0134312189169439 2.4119050385273968 21.4636421505272708 O
atom 5.8402099191430352 9.6438758141541463 21.4636104214476262 O
atom 2.7566650793140615 1.9719232197448335 21.2136281435217811 O
atom 1.3098599635190693 0.9369950476286676 19.4758650406942415 O
atom 2.9224038882137919 2.0904785991703161 19.2257327830766442 Ru
atom 12.9570562200910420 9.2684513798688286 20.3447406559777377 Ru
atom 1.7826061938994666 3.6837137519180123 19.2258524273263944 O
atom 4.0620750197420712 0.4971356912593841 19.2258750197352910 O
atom 4.5348755388021198 3.2439143206024146 18.9757624346529354 O
atom 14.0967563027765692 10.0837178251526147 21.7135475405591052 O
atom 4.8705568957408909 3.4840176886573468 25.9394188580040002 Ru
atom 3.7308746602650507 5.0773643122322154 25.9392683028605155 O
atom 6.0103634974194886 1.8907769099223835 25.9393021708692366 O
atom 6.4830789231079304 4.6374906452022753 25.6893165548716240 O
atom 5.0362743887722754 3.6025527953836480 23.9515482179558035 O
atom 6.6487383520553065 4.7559825396796294 23.7014428961666432 Ru
atom 2.1183802938191993 1.5153419636260796 24.8204276678677829 Ru
atom 5.5089191815620628 6.3492353930304919 23.7015376706418301 O
atom 7.7883347397426128 3.1625873397326618 23.7015166728530033 O
atom 8.2612052326477787 5.9094113107023665 23.4515800565400134 O
atom 8.4267833034354993 9.9651559752105587 23.7015615966066697 Ru
atom 3.8964850133776059 6.7246593407627175 24.8204308674921350 Ru
atom 3.7308859548400339 1.1399704514010520 23.7014731158316110 O
atom 9.5665761310089135 8.3719795200083382 23.7014212871739289 O
atom 6.4830408308247547 0.6999599904204162 23.4515107380264247 O
atom 6.6487907801963733 8.6933257932037069 25.9393000869698547 Ru
atom 5.5089402378090968 10.2866321121395341 25.9393590960750799 O
atom 7.7883640194371244 7.1000230737983339 25.9394579685338975 O
atom 8.2613137611848710 9.8467724808835531 25.6893446862225403 O
atom 6.8143758515242103 8.8117343564998762 23.9514137340473283 O
atom 12.1529846229917524 4.7559977126285613 23.7015597371274325 Ru
atom 7.6227959220743617 1.5153525409490016 24.8204320375303880 Ru
atom 11.0134246384277077 6.3493246495401046 23.7014215378711874 O
atom 2.2840228608839603 3.1626697116336979 23.7014753906533713 O
atom 2.7567214866691314 5.9094668973615381 23.4513892307524756 O
atom 10.3749907050430856 3.4841671067581208 25.9392985280317525 Ru
atom 9.4008830539095172 2.7872513284133351 22.5825777156565408 Ru
atom 9.2352232227353213 5.0773431130383280 25.9394640746152589 O
atom 11.5146785777943332 1.8907324557784304 25.9393671002207498 O
atom 11.9873936726695067 4.6375751894177810 25.6894525391203530 O
atom 10.5404500693671537 3.6025525535624379 23.9515258660495221 O
atom 12.1530345272807825 8.6933392738155568 25.9394176793733493 Ru
atom 11.1789861787276035 7.9965693818282721 22.5825795432564895 Ru
atom 11.0134439125076380 10.2867326479123609 25.9393490175509349 O
atom 13.2928445167316109 7.1000857823350527 25.9393172884712904 O
atom 13.7654801727667433 9.8467508291297996 25.6893350105454452 O
atom 12.3186750569717436 8.8118226570136340 23.9515719077179021 O
atom 13.9312189816664702 9.9653062085552815 23.7014396501003120 Ru
atom 9.4008884178176384 6.7246613480497306 24.8204475230014054 Ru
atom 9.2352407914880423 1.1399237200989174 23.7015592943500621 O
atom 4.0620877133327662 8.3719633006443495 23.7015818867589552 O
atom 0.9787077365287160 0.7001242887833167 23.4514693016765960 O
