#===============================================================================
# Created using the Atomic Simulation Environment (ASE)

# Mon Mar 23 14:01:25 2026

#=======================================================
lattice_vector 9.0578464400032317 0.0000000000000000 0.0000000000000000 
lattice_vector 0.0000153000130401 9.0578618799903108 0.0000000000000000 
lattice_vector 0.0000000000000000 0.0000000000000000 47.2067589511167398 
atom 9.0578526538224846 9.0578509023670968 15.0000761869408734 Ru
atom 3.1437063988951981 3.1436986172850987 15.0000636738822539 O
atom 1.3852770937675847 1.3852604224039482 15.0000640699995564 O
atom 7.6725372689254874 3.1437327323633739 15.0000006038826079 O
atom 5.9141123238171298 1.3853173374785452 15.0000000000000000 O
atom 4.5289414288344387 4.5289437473553491 15.0000764369409332 Ru
atom 2.2644731397689193 2.2644598729520178 16.5644058419408609 Ru
atom 9.0578527076378865 9.0578507747361137 21.2570042769408687 Ru
atom 0.8792157896419061 3.6496281429021940 16.5642601511165317 O
atom 3.6496710398614494 0.8792515730533983 16.5642466527651422 O
atom 3.1437064527106013 3.1436984896541142 21.2569917638822510 O
atom 1.3852771475829875 1.3852602947729635 21.2569921599995553 O
atom 2.2644732766763846 2.2644599791371904 19.6926984019408593 Ru
atom 9.0578512007307967 9.0578514985527541 18.1285636269408812 Ru
atom 0.8792508165835453 3.6496679490566120 19.6928441511166277 O
atom 3.6496356967357193 0.8792115392671295 19.6928577127650399 O
atom 3.1437918958706410 3.1437786333972046 18.1285768338824198 O
atom 1.3852052706131390 1.3851866486489268 18.1285760999993890 O
atom 2.2645403047256973 6.7933319328969342 16.5644000519404671 Ru
atom 0.0000081688209393 4.5289296423637690 15.0000901669408933 Ru
atom 0.8792611346874294 8.1786052028654090 16.5642836811166489 O
atom 3.6496971348555234 5.4081678830331557 16.5642056427650353 O
atom 3.1437442738360111 7.6725514972542870 15.0001632838818431 O
atom 1.3853308587160047 5.9141223123597202 15.0001626599991482 O
atom 2.2645405116326818 6.7933314390819968 19.6927035819404672 Ru
atom 9.0578502957279792 4.5289249785519594 18.1285502269408809 Ru
atom 0.8792595515641085 8.1785682190509572 19.6928198411164885 O
atom 3.6496994717950977 5.4082049592147019 19.6928986127651910 O
atom 3.1438545208012330 7.6726199333463700 18.1284766338818990 O
atom 1.3852632855321287 5.9140142086019818 18.1284772799988190 O
atom 6.7933224698305654 2.2645309680144492 16.5643998219413362 Ru
atom 4.5289237138180081 0.0000010373686344 15.0000902069409037 Ru
atom 5.4081773396941379 3.6496882278700800 16.5642014911167124 O
atom 8.1785888498726376 0.8792628180578207 16.5642798827652022 O
atom 7.6725373227408893 3.1437326047323895 21.2569286938826068 O
atom 5.9141123776325326 1.3853172098475606 21.2569280900000024 O
atom 6.7933217967373665 2.2645302542002521 19.6927045319413381 Ru
atom 4.5289249007280992 0.0000038135521801 18.1285502469409145 Ru
atom 5.4081984166177515 3.6497063840357629 19.6929027711167457 O
atom 8.1785679967654747 0.8792449442596090 19.6928241627651701 O
atom 7.6726019659235902 3.1438392484924895 18.1286397538829362 O
atom 5.9140038106676434 1.3852491037539438 18.1286403999999379 O
atom 6.7933884747859397 6.7934013279602850 16.5644076619409404 Ru
atom 4.5289414826498415 4.5289436197243642 21.2570045269409320 Ru
atom 5.4082338447274028 8.1786507078237616 16.5642494711167423 O
atom 8.1786007848759699 5.4081900280494297 16.5642633727651756 O
atom 7.6725858338755097 7.6725963923233227 15.0001479138822198 O
atom 5.9141559187571868 5.9141691974426864 15.0001484499995712 O
atom 6.7933894716940637 6.7934022241447485 19.6926961919409393 Ru
atom 4.5289408957387023 4.5289395535402264 18.1285640569409168 Ru
atom 5.4082019415986347 8.1786070940346107 19.6928547211166176 O
atom 8.1786325318203303 5.4082330742066471 19.6928407327652977 O
atom 7.6726569408483769 7.6726737984483284 18.1284921838824040 O
atom 5.9140692555933985 5.9140848037009430 18.1284916699993914 O
atom 2.2644731935843216 2.2644597453210329 22.8213339319408561 Ru
atom 9.0578527614532902 9.0578506471051270 27.5139323669408640 Ru
atom 0.8792158434573089 3.6496280152712091 22.8211882411165305 O
atom 3.6496710936768522 0.8792514454224138 22.8211747427651375 O
atom 3.1437065065260037 3.1436983620231302 27.5139198538822498 O
atom 1.3852772013983905 1.3852601671419793 27.5139202499995505 O
atom 2.2644733304917875 2.2644598515062055 25.9496264919408617 Ru
atom 9.0578512545461987 9.0578513709217674 24.3854917169408765 Ru
atom 0.8792508703989481 3.6496678214256266 25.9497722411166265 O
atom 3.6496357505511217 0.8792114116361449 25.9497858027650423 O
atom 3.1437919496860443 3.1437785057662198 24.3855049238824151 O
atom 1.3852053244285418 1.3851865210179424 24.3855041899993878 O
atom 2.2645403585411001 6.7933318052659502 22.8213281419404623 Ru
atom 0.0000082226363421 4.5289295147327850 21.2570182569408885 Ru
atom 0.8792611885028323 8.1786050752344224 22.8212117711166513 O
atom 3.6496971886709262 5.4081677554021725 22.8211337327650341 O
atom 3.1437443276514134 7.6725513696233030 21.2570913738818419 O
atom 1.3853309125314075 5.9141221847287362 21.2570907499991506 O
atom 2.2645405654480841 6.7933313114510137 25.9496316719404660 Ru
atom 9.0578503495433793 4.5289248509209754 24.3854783169408833 Ru
atom 0.8792596053795113 8.1785680914199723 25.9497479311164909 O
atom 3.6496995256105000 5.4082048315837188 25.9498267027651863 O
atom 3.1438545746166353 7.6726198057153869 24.3854047238818978 O
atom 1.3852633393475315 5.9140140809709969 24.3854053699988178 O
atom 6.7933225236459691 2.2645308403834643 22.8213279119413315 Ru
atom 4.5289237676334109 0.0000009097376499 21.2570182969408989 Ru
atom 5.4081773935095416 3.6496881002390955 22.8211295811167076 O
atom 8.1785889036880395 0.8792626904268361 22.8212079727652011 O
atom 7.6725373765562930 3.1437324771014050 27.5138567838826020 O
atom 5.9141124314479354 1.3853170822165763 27.5138561799999977 O
atom 6.7933218505527693 2.2645301265692677 25.9496326219413334 Ru
atom 4.5289249545435029 0.0000036859211956 24.3854783369409134 Ru
atom 5.4081984704331543 3.6497062564047780 25.9498308611167445 O
atom 8.1785680505808767 0.8792448166286245 25.9497522527651654 O
atom 7.6726020197389939 3.1438391208615046 24.3855678438829351 O
atom 5.9140038644830479 1.3852489761229594 24.3855684899999403 O
atom 6.7933885286013425 6.7934012003293001 22.8213357519409357 Ru
atom 4.5289415364652443 4.5289434920933802 27.5139326169409273 Ru
atom 5.4082338985428065 8.1786505801927749 22.8211775611167411 O
atom 8.1786008386913718 5.4081899004184457 22.8211914627651744 O
atom 7.6725858876909117 7.6725962646923378 21.2570760038822186 O
atom 5.9141559725725905 5.9141690698117024 21.2570765399995736 O
atom 6.7933895255094674 6.7934020965137645 25.9496242819409417 Ru
atom 4.5289409495541060 4.5289394259092433 24.3854921469409121 Ru
atom 5.4082019954140383 8.1786069664036258 25.9497828111166200 O
atom 8.1786325856357340 5.4082329465756631 25.9497688227652930 O
atom 7.6726569946637788 7.6726736708173435 24.3854202738824029 O
atom 5.9140693094088022 5.9140846760699590 24.3854197599993903 O
atom 2.2644732473997249 2.2644596176900489 29.0782620219408514 Ru
atom 0.8792158972727117 3.6496278876402251 29.0781163311165258 O
atom 3.6496711474922554 0.8792513177914294 29.0781028327651327 O
atom 2.2644733843071903 2.2644597238752211 32.2065545819408570 Ru
atom 9.0578513083616023 9.0578512432907843 30.6424198069408718 Ru
atom 0.8792509242143509 3.6496676937946422 32.2067003311166289 O
atom 3.6496358043665245 0.8792112840051605 32.2067138927650376 O
atom 3.1437920035014466 3.1437783781352353 30.6424330138824104 O
atom 1.3852053782439444 1.3851863933869577 30.6424322799993902 O
atom 2.2645404123565034 6.7933316776349653 29.0782562319404647 Ru
atom 0.0000082764517449 4.5289293871018002 27.5139463469408909 Ru
atom 0.8792612423182351 8.1786049476034393 29.0781398611166537 O
atom 3.6496972424863294 5.4081676277711868 29.0780618227650294 O
atom 3.1437443814668167 7.6725512419923190 27.5140194638818372 O
atom 1.3853309663468105 5.9141220570977513 27.5140188399991459 O
atom 2.2645406192634878 6.7933311838200279 32.2065597619404613 Ru
atom 9.0578504033587830 4.5289247232899905 30.6424064069408786 Ru
atom 0.8792596591949141 8.1785679637889874 32.2066760211164862 O
atom 3.6496995794259033 5.4082047039527330 32.2067547927651958 O
atom 3.1438546284320381 7.6726196780844012 30.6423328138818931 O
atom 1.3852633931629341 5.9140139533400120 30.6423334599988166 O
atom 6.7933225774613728 2.2645307127524803 29.0782560019413339 Ru
atom 4.5289238214488137 0.0000007821066654 27.5139463869409013 Ru
atom 5.4081774473249435 3.6496879726081111 29.0780576711167100 O
atom 8.1785889575034432 0.8792625627958518 29.0781360627652035 O
atom 6.7933219043681721 2.2645299989382828 32.2065607119413286 Ru
atom 4.5289250083589065 0.0000035582902112 30.6424064269409087 Ru
atom 5.4081985242485571 3.6497061287737935 32.2067589511167398 O
atom 8.1785681043962786 0.8792446889976401 32.2066803427651678 O
atom 7.6726020735543958 3.1438389932305206 30.6424959338829268 O
atom 5.9140039182984498 1.3852488484919749 30.6424965799999356 O
atom 6.7933885824167453 6.7934010726983152 29.0782638419409381 Ru
atom 5.4082339523582093 8.1786504525617918 29.0781056511167435 O
atom 8.1786008925067737 5.4081897727874608 29.0781195527651732 O
atom 7.6725859415063153 7.6725961370613529 27.5140040938822210 O
atom 5.9141560263879924 5.9141689421807184 27.5140046299995689 O
atom 6.7933895793248702 6.7934019688827796 32.2065523719409370 Ru
atom 4.5289410033695097 4.5289392982782584 30.6424202369409073 Ru
atom 5.4082020492294411 8.1786068387726427 32.2067109011166153 O
atom 8.1786326394511359 5.4082328189446782 32.2066969127652882 O
atom 7.6726570484791825 7.6726735431863586 30.6423483638824052 O
atom 5.9140693632242050 5.9140845484389750 30.6423478499993820 O
