#===============================================================================
# Created using the Atomic Simulation Environment (ASE)

# Mon Mar 23 14:01:25 2026

#=======================================================
lattice_vector 11.0088023998619828 0.0000000000000000 0.0000000000000000 
lattice_vector 3.5561804958640981 10.4186176412040616 0.0000000000000000 
lattice_vector 0.0000000000000000 0.0000000000000000 43.1773302681034750 
atom 11.0088143139279833 7.8748255651047483 15.8690103640639180 Ru
atom 13.9266075049018685 9.9619644617775798 15.0001096438353567 O
atom 12.1485855547750106 4.7526059896138895 15.0002064346152935 O
atom 9.2307227172211235 2.6655156188705611 15.8690226254018860 Ru
atom 8.4222567125834580 9.9621281154089871 15.0000860583573790 O
atom 6.6441090115973056 4.7526802475867438 15.0000000000000000 O
atom 11.9828925002877043 8.5715977522955367 19.2258713174448914 Ru
atom 7.4526465116545753 5.3310355332856538 20.3447172310875857 Ru
atom 10.8432102648118658 10.1649443758704052 19.2257207623014033 O
atom 13.1226991019662886 6.9783569735605759 19.2257546303101314 O
atom 13.5954145276547500 9.7250707088404642 18.9757690143125153 O
atom 12.1486099933190879 8.6901328590218387 17.2380006773966912 O
atom 13.7610739566021198 9.8435626033178210 16.9878953556075309 Ru
atom 9.2307158983660109 6.6029220272642721 18.1068801273086706 Ru
atom 9.0650742902447767 1.0181978154646212 16.9879901300827214 O
atom 3.8918679444274469 8.2501674033708525 16.9879691322938946 O
atom 0.8085579414685062 0.5783737331364976 16.7380325159809047 O
atom 10.3704397026284649 7.4181744299584862 19.4758165108590191 O
atom 11.9829384121182141 4.6341183976446887 16.9880140560475610 Ru
atom 7.4526401220603242 1.3936217631968442 18.1068833269330298 Ru
atom 10.8432215593868442 6.2275505150392441 16.9879255752724987 O
atom 2.1139288398296445 3.0409419424424677 16.9878737466148202 O
atom 2.5865740355095888 5.7875400540586064 16.7379631974673160 O
atom 8.5924177525016017 2.2088159577947946 19.4759133016389541 O
atom 10.2049458888790880 3.3622882156378369 19.2257525464107495 Ru
atom 5.6745549149477137 0.1217255870514656 20.3447294924255502 Ru
atom 9.0650953464918178 4.9555945345736641 19.2258115555159748 O
atom 11.3445191281198383 1.7689854962324636 19.2259104279747888 O
atom 11.8174688698675858 4.5157349033176848 18.9757971456634245 O
atom 10.3705309602069278 3.4806967789340044 17.2378661934882160 O
atom 8.2565178276765749 9.8435777762667538 16.9880121965683166 Ru
atom 3.7263291267591989 6.6029326045871928 18.1068844969712757 Ru
atom 3.5607773472484432 1.0182870719742338 16.9878739973120716 O
atom 9.3963584654307759 8.2502497752718877 16.9879278500942590 O
atom 6.3128765953518391 0.5784293197956683 16.7378416901933633 O
atom 4.8660889103100500 7.4183380835898927 19.4757929253810431 O
atom 6.4785239097279153 8.5717471703963124 19.2257509874726402 Ru
atom 5.5044162585943424 7.8748313920515249 15.8690301750974285 Ru
atom 5.3387564274201447 10.1649231766765205 19.2259165340561502 O
atom 7.6182117824791682 6.9783125194166225 19.2258195596616410 O
atom 8.0909268773543381 9.7251552530559735 18.9759049985612407 O
atom 6.6439832740519904 8.6901326172006286 17.2379783254904169 O
atom 4.7003872361015162 3.3623016962496850 19.2258701388142370 Ru
atom 3.7263388875483376 2.6655318042624012 15.8690320026973808 Ru
atom 3.5607966213283677 4.9556950703464917 19.2258014769918262 O
atom 5.8401972255523420 1.7690482047691813 19.2257697479121781 O
atom 6.3128328815874744 4.5157132515639287 18.9757874699863365 O
atom 4.8660277657924711 3.4807850794477622 17.2380243671587934 O
atom 6.4785716904871986 4.6342686309894114 16.9878921095411961 Ru
atom 1.9482411266383670 1.3936237704838617 18.1068999824422932 Ru
atom 5.3387739961728720 6.2275037837371086 16.9880117537909499 O
atom 7.6182428220154739 3.0409257230784794 16.9880343461998429 O
atom 8.0910433410755260 5.7877043524215086 16.7379217611174873 O
atom 3.0879412093238954 2.2088902157676484 19.4757068670236642 O
atom 8.4267246980142936 6.0278077204764431 23.7015781844685520 Ru
atom 3.8964787093811699 2.7872455014665567 24.8204240981112463 Ru
atom 7.2870424625384587 7.6211543440513108 23.7014276293250674 O
atom 9.5665312996928868 4.4345669417414815 23.7014614973337956 O
atom 10.0392467253813429 7.1812806770213689 23.4514758813361794 O
atom 8.5924421910456736 6.1463428272027443 21.7137075444203518 O
atom 10.2049061543287127 7.2997725714987238 21.4636022226311951 Ru
atom 5.6745480960925976 4.0591319954451768 22.5825869943323312 Ru
atom 9.0650869838354797 8.8930254248495864 21.4636969971063856 O
atom 11.3445025420160164 5.7063773715517572 21.4636759993175552 O
atom 11.8173730349211876 8.4532013425214636 21.2137393830045653 O
atom 6.8142719003550543 4.8743843981393891 23.9515233778826868 O
atom 8.4267706098448034 2.0903283658255938 21.4637209230712216 Ru
atom 7.4526528156510086 9.2684493725818129 22.5825901939566904 Ru
atom 7.2870537571134415 3.6837604832201474 21.4636324422961664 O
atom 9.5665634374182176 0.4971519106233730 21.4635806136384844 O
atom 10.0392086330981662 3.2437500222395124 21.2136700644909766 O
atom 8.5924304460922958 10.0836435671797595 23.9516201686626218 O
atom 6.6487780866056827 0.8184981838187416 23.7014594134344172 Ru
atom 5.6745676085384069 7.9965531964364320 24.8204363594492108 Ru
atom 5.5089275442184107 2.4118045027545683 23.7015184225396318 O
atom 11.3445318217105324 9.6438131056174310 23.7016172949984494 O
atom 8.2613010675941769 1.9719448714985899 23.4515040126870886 O
atom 6.8143631579335198 0.9369067471149100 21.7135730605118766 O
atom 4.7003500254031669 7.2997877444476567 21.4637190635919808 Ru
atom 11.1789637243477724 4.0591425727680948 22.5825913639949398 Ru
atom 3.5607900408391360 8.8931146813591990 21.4635808643357393 O
atom 5.8401906631573670 5.7064597434527924 21.4636347171179231 O
atom 6.3128892889425350 8.4532569291806343 21.2135485572170310 O
atom 12.3187235078986212 4.8745480517707982 23.9514997924047037 O
atom 2.9223561074545148 6.0279571385772153 23.7014578544963044 Ru
atom 1.9482484563209348 5.3310413602324278 20.3447370421210927 Ru
atom 12.7913910250087213 7.6211331448574251 23.7016234010798108 O
atom 4.0620439802057584 4.4345224875975262 23.7015264266853052 O
atom 4.5347590750809328 7.1813652212368773 23.4516118655849048 O
atom 3.0878154717785780 6.1463425853815323 21.7136851925140810 O
atom 1.1442194338281140 0.8185116644305898 23.7015770058379012 Ru
atom 0.1701710852749351 0.1217417724433057 20.3447388697210414 Ru
atom 11.0134312189169439 2.4119050385273968 23.7015083440154868 O
atom 5.8402099191430352 9.6438758141541463 23.7014766149358422 O
atom 2.7566650793140615 1.9719232197448335 23.4514943370099971 O
atom 1.3098599635190693 0.9369950476286676 21.7137312341824575 O
atom 2.9224038882137919 2.0904785991703161 21.4635989765648603 Ru
atom 12.9570562200910420 9.2684513798688286 22.5826068494659538 Ru
atom 1.7826061938994666 3.6837137519180123 21.4637186208146105 O
atom 4.0620750197420712 0.4971356912593841 21.4637412132235070 O
atom 4.5348755388021198 3.2439143206024146 21.2136286281411515 O
atom 14.0967563027765692 10.0837178251526147 23.9514137340473212 O
atom 4.8705568957408909 3.4840176886573468 28.1772850514922162 Ru
atom 3.7308746602650507 5.0773643122322154 28.1771344963487316 O
atom 6.0103634974194886 1.8907769099223835 28.1771683643574526 O
atom 6.4830789231079304 4.6374906452022753 27.9271827483598400 O
atom 5.0362743887722754 3.6025527953836480 26.1894144114440195 O
atom 6.6487383520553065 4.7559825396796294 25.9393090896548593 Ru
atom 2.1183802938191993 1.5153419636260796 27.0582938613559989 Ru
atom 5.5089191815620628 6.3492353930304919 25.9394038641300462 O
atom 7.7883347397426128 3.1625873397326618 25.9393828663412194 O
atom 8.2612052326477787 5.9094113107023665 25.6894462500282295 O
atom 8.4267833034354993 9.9651559752105587 25.9394277900948858 Ru
atom 3.8964850133776059 6.7246593407627175 27.0582970609803510 Ru
atom 3.7308859548400339 1.1399704514010520 25.9393393093198270 O
atom 9.5665761310089135 8.3719795200083382 25.9392874806621450 O
atom 6.4830408308247547 0.6999599904204162 25.6893769315146407 O
atom 6.6487907801963733 8.6933257932037069 28.1771662804580707 Ru
atom 5.5089402378090968 10.2866321121395341 28.1772252895632960 O
atom 7.7883640194371244 7.1000230737983339 28.1773241620221135 O
atom 8.2613137611848710 9.8467724808835531 27.9272108797107563 O
atom 6.8143758515242103 8.8117343564998762 26.1892799275355443 O
atom 12.1529846229917524 4.7559977126285613 25.9394259306156485 Ru
atom 7.6227959220743617 1.5153525409490016 27.0582982310186040 Ru
atom 11.0134246384277077 6.3493246495401046 25.9392877313594035 O
atom 2.2840228608839603 3.1626697116336979 25.9393415841415873 O
atom 2.7567214866691314 5.9094668973615381 25.6892554242406916 O
atom 10.3749907050430856 3.4841671067581208 28.1771647215199685 Ru
atom 9.4008830539095172 2.7872513284133351 24.8204439091447568 Ru
atom 9.2352232227353213 5.0773431130383280 28.1773302681034750 O
atom 11.5146785777943332 1.8907324557784304 28.1772332937089658 O
atom 11.9873936726695067 4.6375751894177810 27.9273187326085690 O
atom 10.5404500693671537 3.6025525535624379 26.1893920595377381 O
atom 12.1530345272807825 8.6933392738155568 28.1772838728615653 Ru
atom 11.1789861787276035 7.9965693818282721 24.8204457367447056 Ru
atom 11.0134439125076380 10.2867326479123609 28.1772152110391509 O
atom 13.2928445167316109 7.1000857823350527 28.1771834819595064 O
atom 13.7654801727667433 9.8467508291297996 27.9272012040336612 O
atom 12.3186750569717436 8.8118226570136340 26.1894381012061181 O
atom 13.9312189816664702 9.9653062085552815 25.9393058435885280 Ru
atom 9.4008884178176384 6.7246613480497306 27.0583137164896215 Ru
atom 9.2352407914880423 1.1399237200989174 25.9394254878382782 O
atom 4.0620877133327662 8.3719633006443495 25.9394480802471712 O
atom 0.9787077365287160 0.7001242887833167 25.6893354951648121 O
