#===============================================================================
# Created using the Atomic Simulation Environment (ASE)

# Mon Mar 23 14:01:26 2026

#=======================================================
lattice_vector 9.0578618800032320 0.0000000000000000 0.0000000000000000 
lattice_vector -0.0000001276308936 6.2569280899999997 0.0000000000000000 
lattice_vector 0.0000000000000000 0.0000000000000000 40.8164850698104260 
atom 2.2644944255698150 1.5643179702890166 15.8792663973907473 Ru
atom 0.0000349223223183 6.2569164637185475 22.6726344498886689 Ru
atom 0.8792884654688345 1.5641587930273571 17.2644666372958966 O
atom 3.1437345274203903 6.2569038997926532 16.7584981848117138 O
atom 1.3852933623053232 6.2569042807857915 15.0000718499380525 O
atom 2.2644945317552194 4.6926105302890182 15.8792665073916979 Ru
atom 0.0000356461364130 3.1284758137185431 22.6726329698879638 Ru
atom 0.8792484316228661 4.6927698530269550 17.2644312673287104 O
atom 3.1438146713078061 3.1284889697935525 16.7585836547437665 O
atom 1.3852197160598760 3.1284882207850080 15.0000000000000000 O
atom 6.7933664856217213 1.5643121802891369 15.8793259124405068 Ru
atom 5.4082047754862099 1.5641177830274109 17.2644850823085179 O
atom 7.6725875350779900 0.0000754197925011 16.7585284098770089 O
atom 5.9141553799763456 0.0000747807857816 15.0001179649957415 O
atom 6.7933659918071365 4.6926157102891368 15.8793260924419002 Ru
atom 4.5289710061437845 3.1284624137186063 22.6726397148843191 Ru
atom 5.4082418516717041 4.6928107530275902 17.2644873922756901 O
atom 7.6726559713562965 3.1283887697935087 16.7586386298201120 O
atom 5.9140472761044647 3.1283894007848727 15.0000503650879438 O
atom 2.2645731705009164 1.5643119892419672 20.4081157273258995 Ru
atom 0.0000394149677614 0.0000023547655543 18.1437208098832841 Ru
atom 3.6497280906480456 1.5641136465037391 19.0229682574661396 O
atom 0.8793073604575985 1.5641920619804821 21.7933844472813476 O
atom 3.1437762923361534 6.2568408687453223 21.2873290547784606 O
atom 1.3853579272247725 6.2568402497385893 19.5289070798855491 O
atom 2.2645724566855816 4.6926166992419605 20.4081150273274616 Ru
atom 0.0000421911533120 3.1284623947655752 18.1437219698809074 Ru
atom 3.6497462468493289 4.6928149265039538 19.0229893074492296 O
atom 0.8792894866241627 4.6927363419802699 21.7933635672958772 O
atom 3.1438829362054448 3.1285519287462060 21.2873937246873268 O
atom 1.3852898209477709 3.1285525597375954 19.5287985399419952 O
atom 6.7934435305517846 1.5643198292420728 20.4081740823770090 Ru
atom 4.5289819973470449 6.2569166747656704 18.1437308748734338 Ru
atom 8.1786905706907085 1.5641616265041902 19.0230171124391916 O
atom 5.4082345704629065 1.5641755519804927 21.7933887322846047 O
atom 7.6726400800025667 0.0000600887452866 21.2873699698343373 O
atom 5.9142099148869862 0.0000606097384704 19.5289430249513813 O
atom 6.7934444267379321 4.6926083592420840 20.4081750523773167 Ru
atom 4.5289779311619176 3.1284762047656494 18.1437303148767697 Ru
atom 8.1786469568476683 4.6927668765037946 19.0229851824750753 O
atom 5.4082776166737512 4.6927529119808860 21.7934204522474673 O
atom 7.6727174862476835 3.1284043587460841 21.2874410497696758 O
atom 5.9141255209988559 3.1284038297375445 19.5288563350233844 O
atom 2.2645097255567754 1.5643180481952357 24.9371128373810578 Ru
atom 3.6496756556088936 1.5641723454563374 23.5518531475116575 O
atom 3.1437498274073503 6.2569039776988724 25.8163446248020207 O
atom 1.3853086622922832 6.2569043586920099 24.0579182899283595 O
atom 2.2645098317421790 4.6926106081952366 24.9371129473820119 Ru
atom 3.6497154618224763 4.6927563454567371 23.5518881474772215 O
atom 3.1438299712947662 3.1284890476997709 25.8164300947340806 O
atom 1.3852350160468354 3.1284882986912264 24.0578464399903069 O
atom 6.7933817856086813 1.5643122581953555 24.9371723524308209 Ru
atom 4.5289756699628789 0.0000023537186534 22.6726440548804007 Ru
atom 8.1786527156422402 1.5641958754567824 23.5518908424725524 O
atom 7.6726028350649500 0.0000754976987197 25.8163748498673229 O
atom 5.9141706799633056 0.0000748586920001 24.0579644049860448 O
atom 6.7933812917940948 4.6926157881953543 24.9371725324322142 Ru
atom 8.1786157318251149 4.6927320354566096 23.5518892325032780 O
atom 7.6726712713432565 3.1283888476997275 25.8164850698104260 O
atom 5.9140625760914247 3.1283894786910911 24.0578968050782507 O
