#===============================================================================
# Created using the Atomic Simulation Environment (ASE)

# Mon Mar 23 14:01:25 2026

#=======================================================
lattice_vector 11.0088023998619828 0.0000000000000000 0.0000000000000000 
lattice_vector 3.5561804958640981 10.4186176412040616 0.0000000000000000 
lattice_vector 0.0000000000000000 0.0000000000000000 36.7137496544649906 
atom 8.4267246980142936 6.0278077204764431 17.2379975708300677 Ru
atom 3.8964787093811699 2.7872455014665567 18.3568434844727619 Ru
atom 7.2870424625384587 7.6211543440513108 17.2378470156865831 O
atom 9.5665312996928868 4.4345669417414815 17.2378808836953112 O
atom 10.0392467253813429 7.1812806770213689 16.9878952676976951 O
atom 8.5924421910456736 6.1463428272027443 15.2501269307818674 O
atom 10.2049061543287127 7.2997725714987238 15.0000216089927108 Ru
atom 5.6745480960925976 4.0591319954451768 16.1190063806938468 Ru
atom 9.0650869838354797 8.8930254248495864 15.0001163834679012 O
atom 11.3445025420160164 5.7063773715517572 15.0000953856790709 O
atom 6.8142719003550543 4.8743843981393891 17.4879427642442025 O
atom 8.4267706098448034 2.0903283658255938 15.0001403094327372 Ru
atom 7.4526528156510086 9.2684493725818129 16.1190095803182061 Ru
atom 7.2870537571134415 3.6837604832201474 15.0000518286576821 O
atom 9.5665634374182176 0.4971519106233730 15.0000000000000000 O
atom 8.5924304460922958 10.0836435671797595 17.4880395550241374 O
atom 6.6487780866056827 0.8184981838187416 17.2378787997959328 Ru
atom 5.6745676085384069 7.9965531964364320 18.3568557458107264 Ru
atom 5.5089275442184107 2.4118045027545683 17.2379378089011475 O
atom 11.3445318217105324 9.6438131056174310 17.2380366813599650 O
atom 8.2613010675941769 1.9719448714985899 16.9879233990486043 O
atom 6.8143631579335198 0.9369067471149100 15.2499924468733923 O
atom 4.7003500254031669 7.2997877444476567 15.0001384499534964 Ru
atom 11.1789637243477724 4.0591425727680948 16.1190107503564555 Ru
atom 3.5607900408391360 8.8931146813591990 15.0000002506972550 O
atom 5.8401906631573670 5.7064597434527924 15.0000541034794388 O
atom 12.3187235078986212 4.8745480517707982 17.4879191787662194 O
atom 2.9223561074545148 6.0279571385772153 17.2378772408578200 Ru
atom 12.7913910250087213 7.6211331448574251 17.2380427874413265 O
atom 4.0620439802057584 4.4345224875975262 17.2379458130468208 O
atom 4.5347590750809328 7.1813652212368773 16.9880312519464205 O
atom 3.0878154717785780 6.1463425853815323 15.2501045788755967 O
atom 1.1442194338281140 0.8185116644305898 17.2379963921994168 Ru
atom 11.0134312189169439 2.4119050385273968 17.2379277303770024 O
atom 5.8402099191430352 9.6438758141541463 17.2378960012973579 O
atom 2.7566650793140615 1.9719232197448335 16.9879137233715127 O
atom 1.3098599635190693 0.9369950476286676 15.2501506205439732 O
atom 2.9224038882137919 2.0904785991703161 15.0000183629263759 Ru
atom 12.9570562200910420 9.2684513798688286 16.1190262358274694 Ru
atom 1.7826061938994666 3.6837137519180123 15.0001380071761261 O
atom 4.0620750197420712 0.4971356912593841 15.0001605995850227 O
atom 14.0967563027765692 10.0837178251526147 17.4878331204088369 O
atom 4.8705568957408909 3.4840176886573468 21.7137044378537318 Ru
atom 3.7308746602650507 5.0773643122322154 21.7135538827102472 O
atom 6.0103634974194886 1.8907769099223835 21.7135877507189683 O
atom 6.4830789231079304 4.6374906452022753 21.4636021347213557 O
atom 5.0362743887722754 3.6025527953836480 19.7258337978055351 O
atom 6.6487383520553065 4.7559825396796294 19.4757284760163749 Ru
atom 2.1183802938191993 1.5153419636260796 20.5947132477175145 Ru
atom 5.5089191815620628 6.3492353930304919 19.4758232504915618 O
atom 7.7883347397426128 3.1625873397326618 19.4758022527027350 O
atom 8.2612052326477787 5.9094113107023665 19.2258656363897451 O
atom 8.4267833034354993 9.9651559752105587 19.4758471764564014 Ru
atom 3.8964850133776059 6.7246593407627175 20.5947164473418667 Ru
atom 3.7308859548400339 1.1399704514010520 19.4757586956813427 O
atom 9.5665761310089135 8.3719795200083382 19.4757068670236606 O
atom 6.4830408308247547 0.6999599904204162 19.2257963178761564 O
atom 6.6487907801963733 8.6933257932037069 21.7135856668195864 Ru
atom 5.5089402378090968 10.2866321121395341 21.7136446759248116 O
atom 7.7883640194371244 7.1000230737983339 21.7137435483836292 O
atom 8.2613137611848710 9.8467724808835531 21.4636302660722720 O
atom 6.8143758515242103 8.8117343564998762 19.7256993138970600 O
atom 12.1529846229917524 4.7559977126285613 19.4758453169771641 Ru
atom 7.6227959220743617 1.5153525409490016 20.5947176173801196 Ru
atom 11.0134246384277077 6.3493246495401046 19.4757071177209191 O
atom 2.2840228608839603 3.1626697116336979 19.4757609705031030 O
atom 2.7567214866691314 5.9094668973615381 19.2256748106022073 O
atom 10.3749907050430856 3.4841671067581208 21.7135841078814842 Ru
atom 9.4008830539095172 2.7872513284133351 18.3568632955062725 Ru
atom 9.2352232227353213 5.0773431130383280 21.7137496544649906 O
atom 11.5146785777943332 1.8907324557784304 21.7136526800704814 O
atom 11.9873936726695067 4.6375751894177810 21.4637381189700847 O
atom 10.5404500693671537 3.6025525535624379 19.7258114458992537 O
atom 12.1530345272807825 8.6933392738155568 21.7137032592230810 Ru
atom 11.1789861787276035 7.9965693818282721 18.3568651231062212 Ru
atom 11.0134439125076380 10.2867326479123609 21.7136345974006666 O
atom 13.2928445167316109 7.1000857823350527 21.7136028683210220 O
atom 13.7654801727667433 9.8467508291297996 21.4636205903951769 O
atom 12.3186750569717436 8.8118226570136340 19.7258574875676338 O
atom 13.9312189816664702 9.9653062085552815 19.4757252299500436 Ru
atom 9.4008884178176384 6.7246613480497306 20.5947331028511371 Ru
atom 9.2352407914880423 1.1399237200989174 19.4758448741997938 O
atom 4.0620877133327662 8.3719633006443495 19.4758674666086868 O
atom 0.9787077365287160 0.7001242887833167 19.2257548815263277 O
