#===============================================================================
# Created using the Atomic Simulation Environment (ASE)

# Mon Mar 23 14:01:25 2026

#=======================================================
lattice_vector 11.0088023998619828 0.0000000000000000 0.0000000000000000 
lattice_vector 3.5561804958640981 10.4186176412040616 0.0000000000000000 
lattice_vector 0.0000000000000000 0.0000000000000000 32.2380427874413300 
atom 4.8705568957408909 3.4840176886573468 17.2379975708300712 Ru
atom 3.7308746602650507 5.0773643122322154 17.2378470156865866 O
atom 6.0103634974194886 1.8907769099223835 17.2378808836953077 O
atom 6.4830789231079304 4.6374906452022753 16.9878952676976951 O
atom 5.0362743887722754 3.6025527953836480 15.2501269307818745 O
atom 6.6487383520553065 4.7559825396796294 15.0000216089927143 Ru
atom 2.1183802938191993 1.5153419636260796 16.1190063806938539 Ru
atom 5.5089191815620628 6.3492353930304919 15.0001163834679012 O
atom 7.7883347397426128 3.1625873397326618 15.0000953856790744 O
atom 8.4267833034354993 9.9651559752105587 15.0001403094327408 Ru
atom 3.8964850133776059 6.7246593407627175 16.1190095803182061 Ru
atom 3.7308859548400339 1.1399704514010520 15.0000518286576821 O
atom 9.5665761310089135 8.3719795200083382 15.0000000000000000 O
atom 6.6487907801963733 8.6933257932037069 17.2378787997959257 Ru
atom 5.5089402378090968 10.2866321121395341 17.2379378089011510 O
atom 7.7883640194371244 7.1000230737983339 17.2380366813599686 O
atom 8.2613137611848710 9.8467724808835531 16.9879233990486114 O
atom 6.8143758515242103 8.8117343564998762 15.2499924468733994 O
atom 12.1529846229917524 4.7559977126285613 15.0001384499535035 Ru
atom 7.6227959220743617 1.5153525409490016 16.1190107503564590 Ru
atom 11.0134246384277077 6.3493246495401046 15.0000002506972585 O
atom 2.2840228608839603 3.1626697116336979 15.0000541034794423 O
atom 10.3749907050430856 3.4841671067581208 17.2378772408578236 Ru
atom 9.2352232227353213 5.0773431130383280 17.2380427874413300 O
atom 11.5146785777943332 1.8907324557784304 17.2379458130468208 O
atom 11.9873936726695067 4.6375751894177810 16.9880312519464240 O
atom 10.5404500693671537 3.6025525535624379 15.2501045788755931 O
atom 12.1530345272807825 8.6933392738155568 17.2379963921994204 Ru
atom 11.0134439125076380 10.2867326479123609 17.2379277303770060 O
atom 13.2928445167316109 7.1000857823350527 17.2378960012973614 O
atom 13.7654801727667433 9.8467508291297996 16.9879137233715163 O
atom 12.3186750569717436 8.8118226570136340 15.2501506205439732 O
atom 13.9312189816664702 9.9653062085552815 15.0000183629263830 Ru
atom 9.4008884178176384 6.7246613480497306 16.1190262358274765 Ru
atom 9.2352407914880423 1.1399237200989174 15.0001380071761332 O
atom 4.0620877133327662 8.3719633006443495 15.0001605995850262 O
