#===============================================================================
# Created using the Atomic Simulation Environment (ASE)

# Mon Mar 23 14:01:25 2026

#=======================================================
lattice_vector 9.0578464400032317 0.0000000000000000 0.0000000000000000 
lattice_vector 0.0000153000130401 9.0578618799903108 0.0000000000000000 
lattice_vector 0.0000000000000000 0.0000000000000000 36.2571346691757981 
atom 9.0578527614532902 9.0578506471051270 16.5643080849999222 Ru
atom 3.1437065065260037 3.1436983620231302 16.5642955719413081 O
atom 1.3852772013983905 1.3852601671419793 16.5642959680586088 O
atom 2.2644733304917875 2.2644598515062055 15.0000022099999200 Ru
atom 0.8792508703989481 3.6496678214256266 15.0001479591756848 O
atom 3.6496357505511217 0.8792114116361449 15.0001615208241006 O
atom 2.2645405654480841 6.7933313114510137 15.0000073899995243 Ru
atom 0.8792596053795113 8.1785680914199723 15.0001236491755492 O
atom 3.6496995256105000 5.4082048315837188 15.0002024208242446 O
atom 7.6725373765562930 3.1437324771014050 16.5642325019416603 O
atom 5.9141124314479354 1.3853170822165763 16.5642318980590559 O
atom 6.7933218505527693 2.2645301265692677 15.0000083400003916 Ru
atom 5.4081984704331543 3.6497062564047780 15.0002065791758028 O
atom 8.1785680505808767 0.8792448166286245 15.0001279708242237 O
atom 4.5289415364652443 4.5289434920933802 16.5643083349999856 Ru
atom 6.7933895255094674 6.7934020965137645 15.0000000000000000 Ru
atom 5.4082019954140383 8.1786069664036258 15.0001585291756783 O
atom 8.1786325856357340 5.4082329465756631 15.0001445408243512 O
atom 2.2644732473997249 2.2644596176900489 18.1286377399999097 Ru
atom 0.8792158972727117 3.6496278876402251 18.1284920491755841 O
atom 3.6496711474922554 0.8792513177914294 18.1284785508241910 O
atom 2.2644733843071903 2.2644597238752211 21.2569302999999152 Ru
atom 9.0578513083616023 9.0578512432907843 19.6927955249999300 Ru
atom 0.8792509242143509 3.6496676937946422 21.2570760491756872 O
atom 3.6496358043665245 0.8792112840051605 21.2570896108240959 O
atom 3.1437920035014466 3.1437783781352353 19.6928087319414686 O
atom 1.3852053782439444 1.3851863933869577 19.6928079980584485 O
atom 2.2645404123565034 6.7933316776349653 18.1286319499995230 Ru
atom 0.0000082764517449 4.5289293871018002 16.5643220649999492 Ru
atom 0.8792612423182351 8.1786049476034393 18.1285155791757120 O
atom 3.6496972424863294 5.4081676277711868 18.1284375408240876 O
atom 3.1437443814668167 7.6725512419923190 16.5643951819408954 O
atom 1.3853309663468105 5.9141220570977513 16.5643945580582042 O
atom 2.2645406192634878 6.7933311838200279 21.2569354799995196 Ru
atom 9.0578504033587830 4.5289247232899905 19.6927821249999369 Ru
atom 0.8792596591949141 8.1785679637889874 21.2570517391755445 O
atom 3.6496995794259033 5.4082047039527330 21.2571305108242541 O
atom 3.1438546284320381 7.6726196780844012 19.6927085319409514 O
atom 1.3852633931629341 5.9140139533400120 19.6927091780578749 O
atom 6.7933225774613728 2.2645307127524803 18.1286317200003921 Ru
atom 4.5289238214488137 0.0000007821066654 16.5643221049999596 Ru
atom 5.4081774473249435 3.6496879726081111 18.1284333891757683 O
atom 8.1785889575034432 0.8792625627958518 18.1285117808242617 O
atom 6.7933219043681721 2.2645299989382828 21.2569364300003869 Ru
atom 4.5289250083589065 0.0000035582902112 19.6927821449999669 Ru
atom 5.4081985242485571 3.6497061287737935 21.2571346691757981 O
atom 8.1785681043962786 0.8792446889976401 21.2570560608242261 O
atom 7.6726020735543958 3.1438389932305206 19.6928716519419851 O
atom 5.9140039182984498 1.3852488484919749 19.6928722980589939 O
atom 6.7933885824167453 6.7934010726983152 18.1286395599999963 Ru
atom 5.4082339523582093 8.1786504525617918 18.1284813691758018 O
atom 8.1786008925067737 5.4081897727874608 18.1284952708242315 O
atom 7.6725859415063153 7.6725961370613529 16.5643798119412793 O
atom 5.9141560263879924 5.9141689421807184 16.5643803480586271 O
atom 6.7933895793248702 6.7934019688827796 21.2569280899999953 Ru
atom 4.5289410033695097 4.5289392982782584 19.6927959549999656 Ru
atom 5.4082020492294411 8.1786068387726427 21.2570866191756735 O
atom 8.1786326394511359 5.4082328189446782 21.2570726308243465 O
atom 7.6726570484791825 7.6726735431863586 19.6927240819414635 O
atom 5.9140693632242050 5.9140845484389750 19.6927235680584403 O
