#===============================================================================
# Created using the Atomic Simulation Environment (ASE)

# Mon Mar 23 14:01:27 2026

#=======================================================
lattice_vector 12.8097293803404586 0.0000000000000000 0.0000000000000000 
lattice_vector -0.0000001283020594 6.2569280899999997 0.0000000000000000 
lattice_vector 0.0000000000000000 0.0000000000000000 32.4870403338310680 
atom 6.4048331461210459 0.0000120202882828 16.2435046282482674 Ru
atom 6.4048315687621136 3.1284526702882713 16.2435040484195810 Ru
atom 7.6482807311904191 4.6927326161125755 16.2435132717584381 O
atom 9.6073593824247414 6.2568536268577830 15.0001307088694702 O
atom 7.6483057633054541 1.5641964561125068 16.2434860269559209 O
atom 9.6073880420791493 3.1285390068570758 15.0000065126577837 O
atom 3.2023062211900313 4.6926164752879336 16.2435183425043874 Ru
atom 3.2023109233001268 0.0000881968568836 15.0001249528624356 O
atom 3.2023062499857935 1.5643117652879259 16.2435173879091224 Ru
atom 5.1613678682198127 1.5641921344638872 16.2434930573012508 O
atom 3.2022823133556688 3.1283758868559017 15.0000000000000000 O
atom 9.6073571491422296 4.6926162452888223 16.2435207680393745 Ru
atom 11.5662698294542263 4.6928106544642390 16.2435189869376870 O
atom 9.6073440117590057 6.2568530237198319 17.4869139596830152 O
atom 9.6073576446277933 1.5643127152888219 16.2435205912619551 Ru
atom 11.5662452650533663 1.5641176844643121 16.2435468822807678 O
atom 9.6073735762965313 3.1285396737208262 17.4870403338310680 O
atom 1.2434066152776202 4.6928148061126018 16.2435235955088544 O
atom 5.1613699748629012 4.6927364144640826 16.2435204152639159 O
atom 3.2023134565794629 0.0000876137190039 17.4869066056299047 O
atom 1.2434086805182865 1.5641135261127985 16.2435513635954649 O
atom 3.2022837574808451 3.1283765537196859 17.4870276976421124 O
atom 12.8096949088430367 0.0000117702884773 16.2435353378932845 Ru
atom 12.8096973690661518 3.1284522402884667 16.2435320215647963 Ru
