#===============================================================================
# Created using the Atomic Simulation Environment (ASE)

# Mon Mar 23 14:01:25 2026

#=======================================================
lattice_vector 9.0578464400032317 0.0000000000000000 0.0000000000000000 
lattice_vector 0.0000153000130401 9.0578618799903108 0.0000000000000000 
lattice_vector 0.0000000000000000 0.0000000000000000 40.9498308611167374 
atom 9.0578527076378865 9.0578507747361137 15.0000761869408663 Ru
atom 3.1437064527106013 3.1436984896541142 15.0000636738822486 O
atom 1.3852771475829875 1.3852602947729635 15.0000640699995529 O
atom 7.6725373227408893 3.1437326047323895 15.0000006038826044 O
atom 5.9141123776325326 1.3853172098475606 15.0000000000000000 O
atom 4.5289414826498415 4.5289436197243642 15.0000764369409296 Ru
atom 2.2644731935843216 2.2644597453210329 16.5644058419408537 Ru
atom 9.0578527614532902 9.0578506471051270 21.2570042769408616 Ru
atom 0.8792158434573089 3.6496280152712091 16.5642601511165282 O
atom 3.6496710936768522 0.8792514454224138 16.5642466527651351 O
atom 3.1437065065260037 3.1436983620231302 21.2569917638822474 O
atom 1.3852772013983905 1.3852601671419793 21.2569921599995482 O
atom 2.2644733304917875 2.2644598515062055 19.6926984019408593 Ru
atom 9.0578512545461987 9.0578513709217674 18.1285636269408741 Ru
atom 0.8792508703989481 3.6496678214256266 19.6928441511166241 O
atom 3.6496357505511217 0.8792114116361449 19.6928577127650399 O
atom 3.1437919496860443 3.1437785057662198 18.1285768338824127 O
atom 1.3852053244285418 1.3851865210179424 18.1285760999993855 O
atom 2.2645403585411001 6.7933318052659502 16.5644000519404599 Ru
atom 0.0000082226363421 4.5289295147327850 15.0000901669408861 Ru
atom 0.8792611885028323 8.1786050752344224 16.5642836811166489 O
atom 3.6496971886709262 5.4081677554021725 16.5642056427650317 O
atom 3.1437443276514134 7.6725513696233030 15.0001632838818395 O
atom 1.3853309125314075 5.9141221847287362 15.0001626599991482 O
atom 2.2645405654480841 6.7933313114510137 19.6927035819404637 Ru
atom 9.0578503495433793 4.5289248509209754 18.1285502269408809 Ru
atom 0.8792596053795113 8.1785680914199723 19.6928198411164885 O
atom 3.6496995256105000 5.4082048315837188 19.6928986127651839 O
atom 3.1438545746166353 7.6726198057153869 18.1284766338818955 O
atom 1.3852633393475315 5.9140140809709969 18.1284772799988154 O
atom 6.7933225236459691 2.2645308403834643 16.5643998219413291 Ru
atom 4.5289237676334109 0.0000009097376499 15.0000902069408966 Ru
atom 5.4081773935095416 3.6496881002390955 16.5642014911167053 O
atom 8.1785889036880395 0.8792626904268361 16.5642798827651987 O
atom 7.6725373765562930 3.1437324771014050 21.2569286938825996 O
atom 5.9141124314479354 1.3853170822165763 21.2569280899999953 O
atom 6.7933218505527693 2.2645301265692677 19.6927045319413310 Ru
atom 4.5289249545435029 0.0000036859211956 18.1285502469409110 Ru
atom 5.4081984704331543 3.6497062564047780 19.6929027711167421 O
atom 8.1785680505808767 0.8792448166286245 19.6928241627651630 O
atom 7.6726020197389939 3.1438391208615046 18.1286397538829327 O
atom 5.9140038644830479 1.3852489761229594 18.1286403999999379 O
atom 6.7933885286013425 6.7934012003293001 16.5644076619409333 Ru
atom 4.5289415364652443 4.5289434920933802 21.2570045269409249 Ru
atom 5.4082338985428065 8.1786505801927749 16.5642494711167387 O
atom 8.1786008386913718 5.4081899004184457 16.5642633727651720 O
atom 7.6725858876909117 7.6725962646923378 15.0001479138822162 O
atom 5.9141559725725905 5.9141690698117024 15.0001484499995712 O
atom 6.7933895255094674 6.7934020965137645 19.6926961919409393 Ru
atom 4.5289409495541060 4.5289394259092433 18.1285640569409097 Ru
atom 5.4082019954140383 8.1786069664036258 19.6928547211166176 O
atom 8.1786325856357340 5.4082329465756631 19.6928407327652906 O
atom 7.6726569946637788 7.6726736708173435 18.1284921838824005 O
atom 5.9140693094088022 5.9140846760699590 18.1284916699993879 O
atom 2.2644732473997249 2.2644596176900489 22.8213339319408490 Ru
atom 0.8792158972727117 3.6496278876402251 22.8211882411165234 O
atom 3.6496711474922554 0.8792513177914294 22.8211747427651304 O
atom 2.2644733843071903 2.2644597238752211 25.9496264919408546 Ru
atom 9.0578513083616023 9.0578512432907843 24.3854917169408694 Ru
atom 0.8792509242143509 3.6496676937946422 25.9497722411166265 O
atom 3.6496358043665245 0.8792112840051605 25.9497858027650352 O
atom 3.1437920035014466 3.1437783781352353 24.3855049238824080 O
atom 1.3852053782439444 1.3851863933869577 24.3855041899993878 O
atom 2.2645404123565034 6.7933316776349653 22.8213281419404623 Ru
atom 0.0000082764517449 4.5289293871018002 21.2570182569408885 Ru
atom 0.8792612423182351 8.1786049476034393 22.8212117711166513 O
atom 3.6496972424863294 5.4081676277711868 22.8211337327650270 O
atom 3.1437443814668167 7.6725512419923190 21.2570913738818348 O
atom 1.3853309663468105 5.9141220570977513 21.2570907499991435 O
atom 2.2645406192634878 6.7933311838200279 25.9496316719404589 Ru
atom 9.0578504033587830 4.5289247232899905 24.3854783169408762 Ru
atom 0.8792596591949141 8.1785679637889874 25.9497479311164838 O
atom 3.6496995794259033 5.4082047039527330 25.9498267027651934 O
atom 3.1438546284320381 7.6726196780844012 24.3854047238818907 O
atom 1.3852633931629341 5.9140139533400120 24.3854053699988143 O
atom 6.7933225774613728 2.2645307127524803 22.8213279119413315 Ru
atom 4.5289238214488137 0.0000007821066654 21.2570182969408989 Ru
atom 5.4081774473249435 3.6496879726081111 22.8211295811167076 O
atom 8.1785889575034432 0.8792625627958518 22.8212079727652011 O
atom 6.7933219043681721 2.2645299989382828 25.9496326219413262 Ru
atom 4.5289250083589065 0.0000035582902112 24.3854783369409063 Ru
atom 5.4081985242485571 3.6497061287737935 25.9498308611167374 O
atom 8.1785681043962786 0.8792446889976401 25.9497522527651654 O
atom 7.6726020735543958 3.1438389932305206 24.3855678438829244 O
atom 5.9140039182984498 1.3852488484919749 24.3855684899999332 O
atom 6.7933885824167453 6.7934010726983152 22.8213357519409357 Ru
atom 5.4082339523582093 8.1786504525617918 22.8211775611167411 O
atom 8.1786008925067737 5.4081897727874608 22.8211914627651709 O
atom 7.6725859415063153 7.6725961370613529 21.2570760038822186 O
atom 5.9141560263879924 5.9141689421807184 21.2570765399995665 O
atom 6.7933895793248702 6.7934019688827796 25.9496242819409346 Ru
atom 4.5289410033695097 4.5289392982782584 24.3854921469409049 Ru
atom 5.4082020492294411 8.1786068387726427 25.9497828111166129 O
atom 8.1786326394511359 5.4082328189446782 25.9497688227652858 O
atom 7.6726570484791825 7.6726735431863586 24.3854202738824029 O
atom 5.9140693632242050 5.9140845484389750 24.3854197599993796 O
