#===============================================================================
# Created using the Atomic Simulation Environment (ASE)

# Mon Mar 23 14:01:25 2026

#=======================================================
lattice_vector 11.0088023998619828 0.0000000000000000 0.0000000000000000 
lattice_vector 3.5561804958640981 10.4186176412040616 0.0000000000000000 
lattice_vector 0.0000000000000000 0.0000000000000000 30.0001957717547434 
atom 4.8705568957408909 3.4840176886573468 15.0001505551434846 Ru
atom 3.7308746602650507 5.0773643122322154 15.0000000000000000 O
atom 6.0103634974194886 1.8907769099223835 15.0000338680087211 O
atom 6.6487907801963733 8.6933257932037069 15.0000317841093391 Ru
atom 5.5089402378090968 10.2866321121395341 15.0000907932145644 O
atom 7.7883640194371244 7.1000230737983339 15.0001896656733820 O
atom 10.3749907050430856 3.4841671067581208 15.0000302251712370 Ru
atom 9.2352232227353213 5.0773431130383280 15.0001957717547434 O
atom 11.5146785777943332 1.8907324557784304 15.0000987973602342 O
atom 12.1530345272807825 8.6933392738155568 15.0001493765128338 Ru
atom 11.0134439125076380 10.2867326479123609 15.0000807146904194 O
atom 13.2928445167316109 7.1000857823350527 15.0000489856107748 O
