#===============================================================================
# Created using the Atomic Simulation Environment (ASE)

# Mon Mar 23 14:01:26 2026

#=======================================================
lattice_vector 11.0088023998619828 0.0000000000000000 0.0000000000000000 
lattice_vector 0.0000126935906902 9.0578618799943378 0.0000000000000000 
lattice_vector 0.0000000000000000 0.0000000000000000 39.2969146727931502 
atom 3.8964787093811668 9.0578607418769668 15.7874099783774895 Ru
atom 6.6487256584646115 2.2644699143175080 15.7873588119801553 Ru
atom 5.5089064879713741 3.6496771417295508 15.0001767486566102 O
atom 8.2611925390570882 3.1437877941771299 15.0001933690086702 O
atom 6.6487780866056747 6.7933413743003985 15.7873969395620755 Ru
atom 5.5089275442184045 8.1785774117071313 15.0001573635036749 O
atom 8.2613010675941716 7.6726290940779753 15.0001421716941863 O
atom 0.0046095449750337 3.6496973565870485 15.0000316800367663 O
atom 2.7567087930784346 3.1437418291431225 15.0000000000000000 O
atom 9.4008703603188142 0.0000137168872491 15.7874243226862987 Ru
atom 0.0046288190549569 8.1786598366071495 15.0000989241836606 O
atom 2.7566650793140628 7.6726054892443498 15.0001444583943133 O
atom 4.8705442021501906 2.2644721724256716 18.3615443118990846 Ru
atom 0.3402982135170707 0.0000037178272301 20.9354989136505942 Ru
atom 3.7308619666743530 3.6496396996176359 17.5741026269869991 O
atom 6.0103508038287785 0.8792646150105581 19.1487013581865071 O
atom 6.4830662295172354 3.1437101421368929 17.5741488482782309 O
atom 5.0362616951815777 1.3852710045564880 16.5747355477864531 O
atom 3.0925578561911964 2.2644747702621095 20.9354477472532636 Ru
atom 2.1183676002285021 0.0000019498739162 18.3614728538346341 Ru
atom 1.9527386856979680 3.6496819976741524 20.1482656839297150 O
atom 7.7883220461519258 0.8792222171656142 16.5747577491094908 O
atom 4.7050247367836802 3.1437926501217319 20.1482823042817785 O
atom 3.2580914044909508 1.3851997225889603 19.1487786602223906 O
atom 4.8706028075713981 6.7933442323998943 18.3615733737752649 Ru
atom 3.8964723197869144 4.5289394818879076 15.7874269399350879 Ru
atom 3.7308859548400304 8.1786167596218124 17.5741434112404775 O
atom 6.0103956351448096 5.4081809249695549 19.1486780992382037 O
atom 6.4830408308247529 7.6725630222036365 17.5742479842333097 O
atom 5.0362499502281990 5.9141328946175209 16.5748428756895017 O
atom 3.0926102843322689 6.7933462302450014 20.9354858748351838 Ru
atom 2.1183871126743030 4.5289373098583923 18.3614656621181993 Ru
atom 1.9527597419449947 8.1785822676517306 20.1482462987767832 O
atom 7.7883513258464268 5.4082156371778662 16.5748232998980143 O
atom 4.7051332653207654 7.6726339500225773 20.1482311069672946 O
atom 3.2581953556601100 5.9140272824923192 19.1487259782288568 O
atom 1.1441695295390644 2.2645408394713944 15.7874528951935531 Ru
atom 7.6227832284836721 0.0000133048630802 18.3614714262728924 Ru
atom 7.4572441425636056 3.6497022125316505 20.1481206153098746 O
atom 2.2840101672932636 0.8792734320662465 16.5746811567858572 O
atom 10.2093433906670086 3.1437466850877245 20.1480889352731047 O
atom 8.7625430120345271 1.3853303475051832 19.1486772900240823 O
atom 10.3749780114523951 2.2645426173177063 18.3613658669825277 Ru
atom 5.8447025580454088 0.0000185728318511 20.9355132579594070 Ru
atom 9.2352105291446147 3.6497180047407629 17.5742833043056415 O
atom 0.5058634843416547 0.8792580501085402 19.1487797730681493 O
atom 0.9785785792168317 3.1438508372341714 17.5742252964952144 O
atom 10.5404373757764649 1.3852597497060493 16.5747162347200678 O
atom 1.1442194338281071 6.7934111994567727 15.7874925122976784 Ru
atom 7.6228056828635022 4.5289560148462371 18.3614658170682432 Ru
atom 7.4572634166435341 8.1786646925517505 20.1481878594567689 O
atom 2.2840294232789340 5.4082006420490156 16.5746700080629310 O
atom 10.2092996769026350 7.6726103451889527 20.1482333936674181 O
atom 8.7624945611076370 5.9141822076088451 19.1488198616622327 O
atom 10.3750384858023601 6.7934145872897540 18.3613931206261825 Ru
atom 9.4008757242269372 4.5289494568927813 15.7874404282436451 Ru
atom 9.2352407914880406 8.1786187147011429 17.5742414251645194 O
atom 0.5059072174686547 5.4082461801012860 19.1488257375200348 O
atom 0.9787077365287115 7.6726853870998557 17.5741307760624714 O
atom 10.5405758069124627 5.9140954495675837 16.5746267105554956 O
atom 1.3143763998767801 2.2644770283702735 23.5096332471721894 Ru
atom 0.1746941644009474 3.6496445555622379 22.7221915622601109 O
atom 2.4541830015553781 0.8792694709551599 24.2967902934596118 O
atom 2.9268984272438341 3.1437149980814953 22.7222377835513392 O
atom 1.4800938929081748 1.3852758605010898 21.7228244830595578 O
atom 9.5710021978170747 0.0000068058185185 23.5095617891077424 Ru
atom 4.2321542438785107 0.8792270731102162 21.7228466843825956 O
atom 10.7107260020795323 1.3852045785335620 24.2968675954955025 O
atom 1.3144350052979870 6.7933490883444962 23.5096623090483661 Ru
atom 0.3403045175135138 4.5289443378325087 20.9355158752081962 Ru
atom 0.1747181525666197 8.1786216155664153 22.7222323465135787 O
atom 2.4542278328714136 5.4081857809141560 24.2967670345113156 O
atom 2.9268730285513467 7.6725678781482394 22.7223369195064144 O
atom 1.4800821479547928 5.9141377505621229 21.7229318109626064 O
atom 9.5710217102628743 4.5289421658029934 23.5095545973913076 Ru
atom 4.2321835235730285 5.4082204931224682 21.7229122351711226 O
atom 10.7108299532486821 5.9140321384369212 24.2968149135019686 O
atom 8.5968041271276476 2.2645456954159964 20.9355418304666614 Ru
atom 4.0666154262102667 0.0000181608076822 23.5095603615460007 Ru
atom 9.7366447648818397 0.8792782880108484 21.7227700920589619 O
atom 5.2063752097611182 1.3853352034497850 24.2967662252971905 O
atom 6.8188102091789826 2.2645474732623083 23.5094548022556324 Ru
atom 5.6790427268712147 3.6497228606853653 22.7223722395787497 O
atom 7.9584980819302373 0.8792629060531423 24.2968687083412611 O
atom 8.4312131768054090 3.1438556931787738 22.7223142317683191 O
atom 6.9842695735030542 1.3852646056506512 21.7228051699931726 O
atom 8.5968540314166795 6.7934160554013738 20.9355814475707831 Ru
atom 4.0666378805900987 4.5289608707908391 23.5095547523413515 Ru
atom 9.7366640208675115 5.4082054979936185 21.7227589433360393 O
atom 5.2063267588342370 5.9141870635534470 24.2969087969353410 O
atom 6.8188706835289512 6.7934194432343551 23.5094820558992943 Ru
atom 5.8447079219535318 4.5289543128373833 20.9355293635167499 Ru
atom 5.6790729892146352 8.1786235706457457 22.7223303604376241 O
atom 7.9585418150572362 5.4082510360458862 24.2969146727931467 O
atom 8.4313423341172840 7.6726902430444568 22.7222197113355726 O
atom 6.9844080046390600 5.9141003055121857 21.7227156458286004 O
