#===============================================================================
# Created using the Atomic Simulation Environment (ASE)

# Mon Mar 23 14:01:27 2026

#=======================================================
lattice_vector 12.8097293803404586 0.0000000000000000 0.0000000000000000 
lattice_vector -0.0000001283020594 6.2569280899999997 0.0000000000000000 
lattice_vector 0.0000000000000000 0.0000000000000000 45.2967913516204277 
atom 6.4048549815968947 0.0000119134293674 16.2435046282482745 Ru
atom 6.4048534042379570 3.1284525634293558 16.2435040484195810 Ru
atom 7.6483025666662643 4.6927325092536591 16.2435132717584381 O
atom 9.6073812179005831 6.2568535199988675 15.0001307088694755 O
atom 7.6483275987812966 1.5641963492535915 16.2434860269559280 O
atom 9.6074098775549963 3.1285388999981607 15.0000065126577873 O
atom 3.2023280566658743 4.6926163684290181 16.2435183425043874 Ru
atom 3.2023327587759751 0.0000880899979681 15.0001249528624392 O
atom 3.2023280854616334 1.5643116584290104 16.2435173879091224 Ru
atom 5.1613897036956526 1.5641920276049717 16.2434930573012508 O
atom 3.2023041488315145 3.1283757799969862 15.0000000000000000 O
atom 6.4048574627570432 4.6926103751442403 19.4459580734025934 Ru
atom 12.8097087540292023 0.0000119668588251 22.6483801371429507 Ru
atom 4.4458707201372238 4.6927560659680143 19.4458917600558294 O
atom 8.3638304734217002 4.6927695643199243 19.4459540437530016 O
atom 6.4048516024957323 0.0000244635755149 20.6893855385172927 O
atom 6.4048621082818284 0.0000240467133259 18.2025846807407703 O
atom 6.4048574844806954 1.5643178151442407 19.4459582713912944 Ru
atom 12.8097071766702637 3.1284526168588136 22.6483795573142572 Ru
atom 4.4458673406336713 1.5641720659683576 19.4459447011384157 O
atom 8.3638337903100126 1.5641585043195778 19.4459007703318747 O
atom 6.4048553495507186 3.1284393935763273 20.6895026000485025 O
atom 6.4048633594373614 3.1284401067126333 18.2024817542791446 O
atom 9.6073789846180659 4.6926161384299068 16.2435207680393745 Ru
atom 3.2024169962961944 6.2569260501441883 19.4459560192499339 Ru
atom 1.2434269587581150 4.6927325626831173 22.6483887806531179 O
atom 11.5662916649300680 4.6928105476053235 16.2435189869376870 O
atom 9.6073658472348491 6.2568529168609164 17.4869139596830117 O
atom 3.2025056099924347 6.2568535734283257 21.4050062177641536 O
atom 9.6073794801036350 1.5643126084299064 16.2435205912619622 Ru
atom 3.2024172443003596 3.1284659901441465 19.4459496977154416 Ru
atom 1.2434519908731421 1.5641964026830490 22.6483615358506043 O
atom 11.5662671005292079 1.5641175776053966 16.2435468822807643 O
atom 9.6073954117723748 3.1285395668619107 17.4870403338310680 O
atom 3.2025342696468413 3.1285389534276185 21.4048820215524671 O
atom 9.6071818290981810 4.6926164218584763 22.6483938513990637 Ru
atom 9.6072800176930269 6.2569260101441913 19.4459576526651787 Ru
atom 1.2434284507534601 4.6928146992536863 16.2435235955088544 O
atom 5.1613918103387499 4.6927363076051671 16.2435204152639159 O
atom 3.2023352920553028 0.0000875068600885 17.4869066056299083 O
atom 9.6071865312082849 0.0000881434274258 21.4050004617571190 O
atom 9.6071818578939467 1.5643117118584682 22.6483928968037986 Ru
atom 9.6072788939022420 3.1284659701442052 19.4459604810912658 Ru
atom 1.2434305159941208 1.5641134192538830 16.2435513635954649 O
atom 11.5662434761279549 1.5641920810344292 22.6483685661959271 O
atom 3.2023055929566882 3.1283764468607704 17.4870276976421195 O
atom 9.6071579212638216 3.1283758334264444 21.4048755088946798 O
atom 12.8097037327986545 4.6926085551441297 19.4459545237108671 Ru
atom 12.8097167443188820 0.0000116634295619 16.2435353378932845 Ru
atom 10.8507322706455334 4.6927667459688571 19.4460181978166240 O
atom 1.9589596738451054 4.6927528443199273 19.4459585621602358 O
atom 12.8097032455743953 6.2568683135750485 20.6893257172731637 O
atom 12.8097055418444938 6.2568677567128708 18.2025322063290993 O
atom 12.8097038040187670 1.5643200251441387 19.4459558884257682 Ru
atom 12.8097192045419934 3.1284521334295512 16.2435320215647963 Ru
atom 10.8507405514235096 1.5641614959685335 19.4459648254047437 O
atom 1.9589516840053334 1.5641754843202469 19.4460114749545809 O
atom 12.8096987912230063 3.1285240435757391 20.6894307579808441 O
atom 12.8097039373260220 3.1285245367120433 18.2024112769251403 O
atom 12.8097112351893436 4.6926104285736976 25.8508335822972768 Ru
atom 6.4048331461210459 0.0000120202882828 29.0532556460376270 Ru
atom 10.8507244925695279 4.6927561193974725 25.8507672689505057 O
atom 1.9589548655135478 4.6927696177493816 25.8508295526476815 O
atom 12.8097053749280452 0.0000245170049726 27.0942610474119761 O
atom 12.8097158807141369 0.0000241001427836 24.6074601896354466 O
atom 12.8097112569129976 1.5643178685736987 25.8508337802859742 Ru
atom 6.4048315687621136 3.1284526702882713 29.0532550662089406 Ru
atom 10.8507211130659744 1.5641721193978153 25.8508202100330990 O
atom 1.9589581824018600 1.5641585577490356 25.8507762792265581 O
atom 12.8097091219830279 3.1284394470057846 27.0943781089431823 O
atom 12.8097171318696716 3.1284401601420906 24.6073572631738280 O
atom 3.2025033767099158 4.6926161918593641 22.6483962769340543 Ru
atom 9.6072707687285046 6.2569261035736448 25.8508315281446173 Ru
atom 7.6482807311904191 4.6927326161125755 29.0532642895477977 O
atom 5.1614160570219125 4.6928106010347808 22.6483944958323633 O
atom 3.2024902393266972 6.2568529702903737 23.8917894685776879 O
atom 9.6073593824247414 6.2568536268577830 27.8098817266588298 O
atom 3.2025038721954782 1.5643126618593641 22.6483961001566385 Ru
atom 9.6072710167326658 3.1284660435736034 25.8508252066101250 Ru
atom 7.6483057633054541 1.5641964561125068 29.0532370447452806 O
atom 5.1613914926210596 1.5641176310348543 22.6484223911754441 O
atom 3.2025198038642255 3.1285396202913685 23.8919158427257443 O
atom 9.6073880420791493 3.1285390068570758 27.8097575304471434 O
atom 3.2023062211900313 4.6926164752879336 29.0532693602937471 Ru
atom 3.2024044097848776 6.2569260635736486 25.8508331615598550 Ru
atom 7.6482822231857668 4.6928147526831436 22.6483991044035307 O
atom 11.5662455827710566 4.6927363610346253 22.6483959241585957 O
atom 9.6071890644876081 0.0000875602895462 23.8917821145245917 O
atom 3.2023109233001268 0.0000881968568836 27.8098759706517953 O
atom 3.2023062499857935 1.5643117652879259 29.0532684056984820 Ru
atom 3.2024032859940887 3.1284660235736625 25.8508359899859457 Ru
atom 7.6482842884264359 1.5641134726833412 22.6484268724901412 O
atom 5.1613678682198127 1.5641921344638872 29.0532440750906105 O
atom 9.6071593653889931 3.1283765002902282 23.8919032065367958 O
atom 3.2022823133556688 3.1283758868559017 27.8097510177893597 O
atom 6.4048281248905115 4.6926086085735879 25.8508300326055434 Ru
atom 6.4048411364107301 0.0000117168590196 22.6484108467879608 Ru
atom 4.4458566627373797 4.6927667993983144 25.8508937067113038 O
atom 8.3638134462774119 4.6927528977493846 25.8508340710549120 O
atom 6.4048276376662452 6.2568683670045058 27.0942012261678400 O
atom 6.4048299339363393 6.2568678101423290 24.6074077152237791 O
atom 6.4048281961106195 1.5643200785735969 25.8508313973204480 Ru
atom 6.4048435966338388 3.1284521868590089 22.6484075304594725 Ru
atom 4.4458649435153559 1.5641615493979915 25.8508403342994200 O
atom 8.3638054564376425 1.5641755377497046 25.8508869838492572 O
atom 6.4048231833148552 3.1285240970051968 27.0943062668755275 O
atom 6.4048283294178665 3.1285245901415002 24.6072867858198165 O
atom 9.6073571491422296 4.6926162452888223 29.0532717858287342 Ru
atom 11.5662698294542263 4.6928106544642390 29.0532700047270467 O
atom 9.6073440117590057 6.2568530237198319 30.2966649774723749 O
atom 9.6073576446277933 1.5643127152888219 29.0532716090513148 Ru
atom 11.5662452650533663 1.5641176844643121 29.0532979000701275 O
atom 9.6073735762965313 3.1285396737208262 30.2967913516204277 O
atom 1.2434066152776202 4.6928148061126018 29.0532746132982140 O
atom 5.1613699748629012 4.6927364144640826 29.0532714330532755 O
atom 3.2023134565794629 0.0000876137190039 30.2966576234192644 O
atom 1.2434086805182865 1.5641135261127985 29.0533023813848246 O
atom 3.2022837574808451 3.1283765537196859 30.2967787154314721 O
atom 12.8096949088430367 0.0000117702884773 29.0532863556826442 Ru
atom 12.8096973690661518 3.1284522402884667 29.0532830393541559 Ru
