#===============================================================================
# Created using the Atomic Simulation Environment (ASE)

# Mon Mar 23 14:01:25 2026

#=======================================================
lattice_vector 11.0088023998619828 0.0000000000000000 0.0000000000000000 
lattice_vector 3.5561804958640981 10.4186176412040616 0.0000000000000000 
lattice_vector 0.0000000000000000 0.0000000000000000 38.9516095058020682 
atom 11.9828925002877043 8.5715977522955367 15.0001505551434882 Ru
atom 7.4526465116545753 5.3310355332856538 16.1189964687861824 Ru
atom 10.8432102648118658 10.1649443758704052 15.0000000000000000 O
atom 13.1226991019662886 6.9783569735605759 15.0000338680087282 O
atom 10.3704397026284649 7.4181744299584862 15.2500957485576158 O
atom 8.5924177525016017 2.2088159577947946 15.2501925393375508 O
atom 10.2049458888790880 3.3622882156378369 15.0000317841093462 Ru
atom 5.6745549149477137 0.1217255870514656 16.1190087301241469 Ru
atom 9.0650953464918178 4.9555945345736641 15.0000907932145715 O
atom 11.3445191281198383 1.7689854962324636 15.0001896656733855 O
atom 4.8660889103100500 7.4183380835898927 15.2500721630796399 O
atom 6.4785239097279153 8.5717471703963124 15.0000302251712370 Ru
atom 5.3387564274201447 10.1649231766765205 15.0001957717547469 O
atom 7.6182117824791682 6.9783125194166225 15.0000987973602378 O
atom 4.7003872361015162 3.3623016962496850 15.0001493765128338 Ru
atom 3.5607966213283677 4.9556950703464917 15.0000807146904229 O
atom 5.8401972255523420 1.7690482047691813 15.0000489856107748 O
atom 3.0879412093238954 2.2088902157676484 15.2499861047222609 O
atom 8.4267246980142936 6.0278077204764431 19.4758574221671488 Ru
atom 3.8964787093811699 2.7872455014665567 20.5947033358098430 Ru
atom 7.2870424625384587 7.6211543440513108 19.4757068670236642 O
atom 9.5665312996928868 4.4345669417414815 19.4757407350323923 O
atom 10.0392467253813429 7.1812806770213689 19.2257551190347762 O
atom 8.5924421910456736 6.1463428272027443 17.4879867821189485 O
atom 10.2049061543287127 7.2997725714987238 17.2378814603297918 Ru
atom 5.6745480960925976 4.0591319954451768 18.3568662320309279 Ru
atom 9.0650869838354797 8.8930254248495864 17.2379762348049823 O
atom 11.3445025420160164 5.7063773715517572 17.2379552370161520 O
atom 11.8173730349211876 8.4532013425214636 16.9880186207031620 O
atom 6.8142719003550543 4.8743843981393891 19.7258026155812836 O
atom 8.4267706098448034 2.0903283658255938 17.2380001607698183 Ru
atom 7.4526528156510086 9.2684493725818129 18.3568694316552872 Ru
atom 7.2870537571134415 3.6837604832201474 17.2379116799947631 O
atom 9.5665634374182176 0.4971519106233730 17.2378598513370811 O
atom 10.0392086330981662 3.2437500222395124 16.9879493021895733 O
atom 8.5924304460922958 10.0836435671797595 19.7258994063612185 O
atom 6.6487780866056827 0.8184981838187416 19.4757386511330139 Ru
atom 5.6745676085384069 7.9965531964364320 20.5947155971478075 Ru
atom 5.5089275442184107 2.4118045027545683 19.4757976602382286 O
atom 11.3445318217105324 9.6438131056174310 19.4758965326970461 O
atom 8.2613010675941769 1.9719448714985899 19.2257832503856854 O
atom 6.8143631579335198 0.9369067471149100 17.4878522982104734 O
atom 4.7003500254031669 7.2997877444476567 17.2379983012905775 Ru
atom 11.1789637243477724 4.0591425727680948 18.3568706016935366 Ru
atom 3.5607900408391360 8.8931146813591990 17.2378601020343361 O
atom 5.8401906631573670 5.7064597434527924 17.2379139548165199 O
atom 6.3128892889425350 8.4532569291806343 16.9878277949156278 O
atom 12.3187235078986212 4.8745480517707982 19.7257790301033005 O
atom 2.9223561074545148 6.0279571385772153 19.4757370921949011 Ru
atom 1.9482484563209348 5.3310413602324278 16.1190162798196894 Ru
atom 12.7913910250087213 7.6211331448574251 19.4759026387784075 O
atom 4.0620439802057584 4.4345224875975262 19.4758056643839019 O
atom 4.5347590750809328 7.1813652212368773 19.2258911032835016 O
atom 3.0878154717785780 6.1463425853815323 17.4879644302126778 O
atom 1.1442194338281140 0.8185116644305898 19.4758562435364979 Ru
atom 0.1701710852749351 0.1217417724433057 16.1190181074196381 Ru
atom 11.0134312189169439 2.4119050385273968 19.4757875817140835 O
atom 5.8402099191430352 9.6438758141541463 19.4757558526344390 O
atom 2.7566650793140615 1.9719232197448335 19.2257735747085938 O
atom 1.3098599635190693 0.9369950476286676 17.4880104718810543 O
atom 2.9224038882137919 2.0904785991703161 17.2378782142634570 Ru
atom 12.9570562200910420 9.2684513798688286 18.3568860871645505 Ru
atom 1.7826061938994666 3.6837137519180123 17.2379978585132072 O
atom 4.0620750197420712 0.4971356912593841 17.2380204509221038 O
atom 4.5348755388021198 3.2439143206024146 16.9879078658397482 O
atom 14.0967563027765692 10.0837178251526147 19.7256929717459180 O
atom 4.8705568957408909 3.4840176886573468 23.9515642891908129 Ru
atom 3.7308746602650507 5.0773643122322154 23.9514137340473283 O
atom 6.0103634974194886 1.8907769099223835 23.9514476020560494 O
atom 6.4830789231079304 4.6374906452022753 23.7014619860584368 O
atom 5.0362743887722754 3.6025527953836480 21.9636936491426162 O
atom 6.6487383520553065 4.7559825396796294 21.7135883273534560 Ru
atom 2.1183802938191993 1.5153419636260796 22.8325730990545956 Ru
atom 5.5089191815620628 6.3492353930304919 21.7136831018286429 O
atom 7.7883347397426128 3.1625873397326618 21.7136621040398161 O
atom 8.2612052326477787 5.9094113107023665 21.4637254877268262 O
atom 8.4267833034354993 9.9651559752105587 21.7137070277934825 Ru
atom 3.8964850133776059 6.7246593407627175 22.8325762986789478 Ru
atom 3.7308859548400339 1.1399704514010520 21.7136185470184238 O
atom 9.5665761310089135 8.3719795200083382 21.7135667183607417 O
atom 6.4830408308247547 0.6999599904204162 21.4636561692132375 O
atom 6.6487907801963733 8.6933257932037069 23.9514455181566674 Ru
atom 5.5089402378090968 10.2866321121395341 23.9515045272618927 O
atom 7.7883640194371244 7.1000230737983339 23.9516033997207103 O
atom 8.2613137611848710 9.8467724808835531 23.7014901174093531 O
atom 6.8143758515242103 8.8117343564998762 21.9635591652341411 O
atom 12.1529846229917524 4.7559977126285613 21.7137051683142452 Ru
atom 7.6227959220743617 1.5153525409490016 22.8325774687172007 Ru
atom 11.0134246384277077 6.3493246495401046 21.7135669690580002 O
atom 2.2840228608839603 3.1626697116336979 21.7136208218401840 O
atom 2.7567214866691314 5.9094668973615381 21.4635346619392884 O
atom 10.3749907050430856 3.4841671067581208 23.9514439592185653 Ru
atom 9.4008830539095172 2.7872513284133351 20.5947231468433536 Ru
atom 9.2352232227353213 5.0773431130383280 23.9516095058020717 O
atom 11.5146785777943332 1.8907324557784304 23.9515125314075625 O
atom 11.9873936726695067 4.6375751894177810 23.7015979703071658 O
atom 10.5404500693671537 3.6025525535624379 21.9636712972363348 O
atom 12.1530345272807825 8.6933392738155568 23.9515631105601621 Ru
atom 11.1789861787276035 7.9965693818282721 20.5947249744433023 Ru
atom 11.0134439125076380 10.2867326479123609 23.9514944487377477 O
atom 13.2928445167316109 7.1000857823350527 23.9514627196581031 O
atom 13.7654801727667433 9.8467508291297996 23.7014804417322580 O
atom 12.3186750569717436 8.8118226570136340 21.9637173389047149 O
atom 13.9312189816664702 9.9653062085552815 21.7135850812871247 Ru
atom 9.4008884178176384 6.7246613480497306 22.8325929541882182 Ru
atom 9.2352407914880423 1.1399237200989174 21.7137047255368749 O
atom 4.0620877133327662 8.3719633006443495 21.7137273179457679 O
atom 0.9787077365287160 0.7001242887833167 21.4636147328634088 O
