#===============================================================================
# Created using the Atomic Simulation Environment (ASE)

# Mon Mar 23 14:01:25 2026

#=======================================================
lattice_vector 9.0578464400032317 0.0000000000000000 0.0000000000000000 
lattice_vector 0.0000153000130401 9.0578618799903108 0.0000000000000000 
lattice_vector 0.0000000000000000 0.0000000000000000 31.5644261372348467 
atom 2.2644733843071903 2.2644597238752211 16.5642217680589638 Ru
atom 9.0578513083616023 9.0578512432907843 15.0000869930589786 Ru
atom 0.8792509242143509 3.6496676937946422 16.5643675172347358 O
atom 3.6496358043665245 0.8792112840051605 16.5643810788831445 O
atom 3.1437920035014466 3.1437783781352353 15.0001002000005172 O
atom 1.3852053782439444 1.3851863933869577 15.0000994661174971 O
atom 2.2645406192634878 6.7933311838200279 16.5642269480585682 Ru
atom 9.0578504033587830 4.5289247232899905 15.0000735930589855 Ru
atom 0.8792596591949141 8.1785679637889874 16.5643432072345931 O
atom 3.6496995794259033 5.4082047039527330 16.5644219788833027 O
atom 3.1438546284320381 7.6726196780844012 15.0000000000000000 O
atom 1.3852633931629341 5.9140139533400120 15.0000006461169235 O
atom 6.7933219043681721 2.2645299989382828 16.5642278980594355 Ru
atom 4.5289250083589065 0.0000035582902112 15.0000736130590155 Ru
atom 5.4081985242485571 3.6497061287737935 16.5644261372348467 O
atom 8.1785681043962786 0.8792446889976401 16.5643475288832747 O
atom 7.6726020735543958 3.1438389932305206 15.0001631200010337 O
atom 5.9140039182984498 1.3852488484919749 15.0001637661180425 O
atom 6.7933895793248702 6.7934019688827796 16.5642195580590439 Ru
atom 4.5289410033695097 4.5289392982782584 15.0000874230590142 Ru
atom 5.4082020492294411 8.1786068387726427 16.5643780872347222 O
atom 8.1786326394511359 5.4082328189446782 16.5643640988833951 O
atom 7.6726570484791825 7.6726735431863586 15.0000155500005121 O
atom 5.9140693632242050 5.9140845484389750 15.0000150361174889 O
