#===============================================================================
# Created using the Atomic Simulation Environment (ASE)

# Mon Mar 23 14:01:26 2026

#=======================================================
lattice_vector 9.0578618800032320 0.0000000000000000 0.0000000000000000 
lattice_vector -0.0000001276308936 6.2569280899999997 0.0000000000000000 
lattice_vector 0.0000000000000000 0.0000000000000000 54.4033794098490517 
atom 0.0000043223484000 6.2569163079061108 18.1438359099466808 Ru
atom 0.0000050461624947 3.1284756579061059 18.1438344299459757 Ru
atom 4.5289404061698653 3.1284622579061692 18.1438411749423274 Ru
atom 2.2645425705269981 1.5643118334295303 15.8793171873839007 Ru
atom 0.8792767604836789 1.5641919061680449 17.2645859073393524 O
atom 3.1437456923622333 6.2568407129328856 16.7585305148364654 O
atom 1.3853273272508528 6.2568400939261517 15.0001085399435503 O
atom 2.2645418567116629 4.6926165434295237 15.8793164873854664 Ru
atom 0.8792588866502431 4.6927361861678332 17.2645650273538820 O
atom 3.1438523362315256 3.1285517729337693 16.7585951847453316 O
atom 1.3852592209738512 3.1285524039251578 15.0000000000000000 O
atom 6.7934129305778637 1.5643196734296354 15.8793755424350138 Ru
atom 5.4082039704889864 1.5641753961680556 17.2645901923426095 O
atom 7.6726094800286466 0.0000599329328496 16.7585714298923492 O
atom 5.9141793149130653 0.0000604539260333 15.0001444850093897 O
atom 6.7934138267640121 4.6926082034296472 15.8793765124353250 Ru
atom 5.4082470166998320 4.6927527561684492 17.2646219123054756 O
atom 7.6726868862737643 3.1284042029336470 16.7586425098276877 O
atom 5.9140949210249358 3.1284036739251073 15.0000577950813891 O
atom 2.2644791255828558 1.5643178923827983 20.4083142974390626 Ru
atom 0.0000196223353602 6.2569163858123291 27.2016823499369949 Ru
atom 3.6496450556349740 1.5641721896439003 19.0230546075696658 O
atom 0.8792731654818748 1.5641587151211389 21.7935145373442154 O
atom 3.1437192274334311 6.2569038218864348 21.2875460848600326 O
atom 1.3852780623183634 6.2569042028795714 19.5291197499863713 O
atom 2.2644792317682603 4.6926104523827998 20.4083144074400131 Ru
atom 0.0000203461494528 3.1284757358123243 27.2016808699362862 Ru
atom 3.6496848618485571 4.6927561896443004 19.0230896075352263 O
atom 0.8792331316359063 4.6927697751207367 21.7934791673770363 O
atom 3.1437993713208461 3.1284888918873341 21.2876315547920854 O
atom 1.3852044160729158 3.1284881428787887 19.5290479000483117 O
atom 6.7933511856347613 1.5643121023829185 20.4083738124888256 Ru
atom 4.5289450699889580 0.0000021979062163 18.1438455149384161 Ru
atom 8.1786221156683219 1.5641957196443455 19.0230923025305643 O
atom 5.4081894754992490 1.5641177051211925 21.7935329823568296 O
atom 7.6725722350910299 0.0000753418862826 21.2875763099253241 O
atom 5.9141400799893855 0.0000747028795631 19.5291658650440532 O
atom 6.7933506918201765 4.6926156323829185 20.4083739924902190 Ru
atom 4.5289557061568253 3.1284623358123871 27.2016876149326379 Ru
atom 8.1785851318511966 4.6927318796441719 19.0230906925612828 O
atom 5.4082265516847450 4.6928106751213701 21.7935352923240018 O
atom 7.6726406713693365 3.1283886918872903 21.2876865298684308 O
atom 5.9140319761175038 3.1283893228786539 19.5290982651362555 O
atom 2.2645578705139573 1.5643119113357491 24.9371636273742112 Ru
atom 0.0000241149808017 0.0000022768593358 22.6727687099315958 Ru
atom 3.6497127906610864 1.5641135685975205 23.5520161575144513 O
atom 0.8792920604706387 1.5641919840742637 26.3224323473296629 O
atom 3.1437609923491934 6.2568407908391039 25.8163769548267794 O
atom 1.3853426272378124 6.2568401718323701 24.0579549799338608 O
atom 2.2645571566986220 4.6926166213357421 24.9371629273757769 Ru
atom 0.0000268911663523 3.1284623168593564 22.6727698699292262 Ru
atom 3.6497309468623698 4.6928148485977355 23.5520372074975413 O
atom 0.8792741866372029 4.6927362640740515 26.3224114673441925 O
atom 3.1438676362184861 3.1285518508399877 25.8164416247356492 O
atom 1.3852745209608106 3.1285524818313761 24.0578464399903069 O
atom 6.7934282305648237 1.5643197513358544 24.9372219824253243 Ru
atom 4.5289666973600848 6.2569165968594520 22.6727787749217455 Ru
atom 8.1786752707037511 1.5641615485979716 23.5520650124875068 O
atom 5.4082192704759464 1.5641754740742744 26.3224366323329164 O
atom 7.6726247800156067 0.0000600108390681 25.8164178698826596 O
atom 5.9141946149000253 0.0000605318322518 24.0579909249997002 O
atom 6.7934291267509721 4.6926082813358656 24.9372229524256355 Ru
atom 4.5289626311749576 3.1284761268594306 22.6727782149250849 Ru
atom 8.1786316568607109 4.6927667985975763 23.5520330825233870 O
atom 5.4082623166867920 4.6927528340746676 26.3224683522957825 O
atom 7.6727021862607243 3.1284042808398653 25.8164889498179946 O
atom 5.9141102210118959 3.1284037518313257 24.0579042350716961 O
atom 2.2644944255698150 1.5643179702890166 29.4661607374293730 Ru
atom 0.0000349223223183 6.2569164637185475 36.2595287899272947 Ru
atom 3.6496603556219331 1.5641722675501188 28.0809010475599763 O
atom 0.8792884654688345 1.5641587930273571 30.8513609773345223 O
atom 3.1437345274203903 6.2569038997926532 30.3453925248503396 O
atom 1.3852933623053232 6.2569042807857915 28.5869661899766783 O
atom 2.2644945317552194 4.6926105302890182 29.4661608474303236 Ru
atom 0.0000356461364130 3.1284758137185431 36.2595273099265896 Ru
atom 3.6497001618355167 4.6927562675505188 28.0809360475255367 O
atom 0.8792484316228661 4.6927698530269550 30.8513256073673361 O
atom 3.1438146713078061 3.1284889697935525 30.3454779947823923 O
atom 1.3852197160598760 3.1284882207850080 28.5868943400386257 O
atom 6.7933664856217213 1.5643121802891369 29.4662202524791326 Ru
atom 4.5289603699759189 0.0000022758124349 27.2016919549287266 Ru
atom 8.1786374156552792 1.5641957975505636 28.0809387425208747 O
atom 5.4082047754862099 1.5641177830274109 30.8513794223471436 O
atom 7.6725875350779900 0.0000754197925011 30.3454227499156346 O
atom 5.9141553799763456 0.0000747807857816 28.5870123050343672 O
atom 6.7933659918071365 4.6926157102891368 29.4662204324805259 Ru
atom 4.5289710061437845 3.1284624137186063 36.2595340549229448 Ru
atom 8.1786004318381540 4.6927319575503912 28.0809371325515933 O
atom 5.4082418516717041 4.6928107530275902 30.8513817323143158 O
atom 7.6726559713562965 3.1283887697935087 30.3455329698587377 O
atom 5.9140472761044647 3.1283894007848727 28.5869447051265695 O
atom 2.2645731705009164 1.5643119892419672 33.9950100673645252 Ru
atom 0.0000394149677614 0.0000023547655543 31.7306151499219098 Ru
atom 3.6497280906480456 1.5641136465037391 32.6098625975047653 O
atom 0.8793073604575985 1.5641920619804821 35.3802787873199733 O
atom 3.1437762923361534 6.2568408687453223 34.8742233948170863 O
atom 1.3853579272247725 6.2568402497385893 33.1158014199241748 O
atom 2.2645724566855816 4.6926166992419605 33.9950093673660874 Ru
atom 0.0000421911533120 3.1284623947655752 31.7306163099195331 Ru
atom 3.6497462468493289 4.6928149265039538 32.6098836474878553 O
atom 0.8792894866241627 4.6927363419802699 35.3802579073345029 O
atom 3.1438829362054448 3.1285519287462060 34.8742880647259526 O
atom 1.3852898209477709 3.1285525597375954 33.1156928799806209 O
atom 6.7934435305517846 1.5643198292420728 33.9950684224156348 Ru
atom 4.5289819973470449 6.2569166747656704 31.7306252149120596 Ru
atom 8.1786905706907085 1.5641616265041902 32.6099114524778173 O
atom 5.4082345704629065 1.5641755519804927 35.3802830723232304 O
atom 7.6726400800025667 0.0000600887452866 34.8742643098729630 O
atom 5.9142099148869862 0.0000606097384704 33.1158373649900071 O
atom 6.7934444267379321 4.6926083592420840 33.9950693924159424 Ru
atom 4.5289779311619176 3.1284762047656494 31.7306246549153954 Ru
atom 8.1786469568476683 4.6927668765037946 32.6098795225137010 O
atom 5.4082776166737512 4.6927529119808860 35.3803147922860930 O
atom 7.6727174862476835 3.1284043587460841 34.8743353898083015 O
atom 5.9141255209988559 3.1284038297375445 33.1157506750620101 O
atom 2.2645097255567754 1.5643180481952357 38.5240071774196835 Ru
atom 3.6496756556088936 1.5641723454563374 37.1387474875502832 O
atom 3.1437498274073503 6.2569039776988724 39.4032389648406465 O
atom 1.3853086622922832 6.2569043586920099 37.6448126299669852 O
atom 2.2645098317421790 4.6926106081952366 38.5240072874206376 Ru
atom 3.6497154618224763 4.6927563454567371 37.1387824875158472 O
atom 3.1438299712947662 3.1284890476997709 39.4033244347727063 O
atom 1.3852350160468354 3.1284882986912264 37.6447407800289326 O
atom 6.7933817856086813 1.5643122581953555 38.5240666924694466 Ru
atom 4.5289756699628789 0.0000023537186534 36.2595383949190264 Ru
atom 8.1786527156422402 1.5641958754567824 37.1387851825111781 O
atom 7.6726028350649500 0.0000754976987197 39.4032691899059486 O
atom 5.9141706799633056 0.0000748586920001 37.6448587450246706 O
atom 6.7933812917940948 4.6926157881953543 38.5240668724708399 Ru
atom 8.1786157318251149 4.6927320354566096 37.1387835725419038 O
atom 7.6726712713432565 3.1283888476997275 39.4033794098490517 O
atom 5.9140625760914247 3.1283894786910911 37.6447911451168764 O
