#===============================================================================
# Created using the Atomic Simulation Environment (ASE)

# Mon Mar 23 14:01:25 2026

#=======================================================
lattice_vector 11.0088023998619828 0.0000000000000000 0.0000000000000000 
lattice_vector 3.5561804958640981 10.4186176412040616 0.0000000000000000 
lattice_vector 0.0000000000000000 0.0000000000000000 34.4759026387784075 
atom 8.4267246980142936 6.0278077204764431 15.0001505551434846 Ru
atom 3.8964787093811699 2.7872455014665567 16.1189964687861789 Ru
atom 7.2870424625384587 7.6211543440513108 15.0000000000000000 O
atom 9.5665312996928868 4.4345669417414815 15.0000338680087282 O
atom 6.8142719003550543 4.8743843981393891 15.2500957485576194 O
atom 8.5924304460922958 10.0836435671797595 15.2501925393375544 O
atom 6.6487780866056827 0.8184981838187416 15.0000317841093498 Ru
atom 5.6745676085384069 7.9965531964364320 16.1190087301241434 Ru
atom 5.5089275442184107 2.4118045027545683 15.0000907932145644 O
atom 11.3445318217105324 9.6438131056174310 15.0001896656733820 O
atom 12.3187235078986212 4.8745480517707982 15.2500721630796363 O
atom 2.9223561074545148 6.0279571385772153 15.0000302251712370 Ru
atom 12.7913910250087213 7.6211331448574251 15.0001957717547434 O
atom 4.0620439802057584 4.4345224875975262 15.0000987973602378 O
atom 1.1442194338281140 0.8185116644305898 15.0001493765128338 Ru
atom 11.0134312189169439 2.4119050385273968 15.0000807146904194 O
atom 5.8402099191430352 9.6438758141541463 15.0000489856107748 O
atom 14.0967563027765692 10.0837178251526147 15.2499861047222538 O
atom 4.8705568957408909 3.4840176886573468 19.4758574221671488 Ru
atom 3.7308746602650507 5.0773643122322154 19.4757068670236642 O
atom 6.0103634974194886 1.8907769099223835 19.4757407350323852 O
atom 6.4830789231079304 4.6374906452022753 19.2257551190347726 O
atom 5.0362743887722754 3.6025527953836480 17.4879867821189521 O
atom 6.6487383520553065 4.7559825396796294 17.2378814603297918 Ru
atom 2.1183802938191993 1.5153419636260796 18.3568662320309315 Ru
atom 5.5089191815620628 6.3492353930304919 17.2379762348049788 O
atom 7.7883347397426128 3.1625873397326618 17.2379552370161520 O
atom 8.2612052326477787 5.9094113107023665 16.9880186207031620 O
atom 8.4267833034354993 9.9651559752105587 17.2380001607698183 Ru
atom 3.8964850133776059 6.7246593407627175 18.3568694316552836 Ru
atom 3.7308859548400339 1.1399704514010520 17.2379116799947596 O
atom 9.5665761310089135 8.3719795200083382 17.2378598513370775 O
atom 6.4830408308247547 0.6999599904204162 16.9879493021895733 O
atom 6.6487907801963733 8.6933257932037069 19.4757386511330033 Ru
atom 5.5089402378090968 10.2866321121395341 19.4757976602382286 O
atom 7.7883640194371244 7.1000230737983339 19.4758965326970461 O
atom 8.2613137611848710 9.8467724808835531 19.2257832503856889 O
atom 6.8143758515242103 8.8117343564998762 17.4878522982104769 O
atom 12.1529846229917524 4.7559977126285613 17.2379983012905811 Ru
atom 7.6227959220743617 1.5153525409490016 18.3568706016935366 Ru
atom 11.0134246384277077 6.3493246495401046 17.2378601020343361 O
atom 2.2840228608839603 3.1626697116336979 17.2379139548165199 O
atom 2.7567214866691314 5.9094668973615381 16.9878277949156242 O
atom 10.3749907050430856 3.4841671067581208 19.4757370921949011 Ru
atom 9.4008830539095172 2.7872513284133351 16.1190162798196894 Ru
atom 9.2352232227353213 5.0773431130383280 19.4759026387784075 O
atom 11.5146785777943332 1.8907324557784304 19.4758056643838984 O
atom 11.9873936726695067 4.6375751894177810 19.2258911032835016 O
atom 10.5404500693671537 3.6025525535624379 17.4879644302126707 O
atom 12.1530345272807825 8.6933392738155568 19.4758562435364979 Ru
atom 11.1789861787276035 7.9965693818282721 16.1190181074196381 Ru
atom 11.0134439125076380 10.2867326479123609 19.4757875817140835 O
atom 13.2928445167316109 7.1000857823350527 19.4757558526344390 O
atom 13.7654801727667433 9.8467508291297996 19.2257735747085938 O
atom 12.3186750569717436 8.8118226570136340 17.4880104718810507 O
atom 13.9312189816664702 9.9653062085552815 17.2378782142634606 Ru
atom 9.4008884178176384 6.7246613480497306 18.3568860871645541 Ru
atom 9.2352407914880423 1.1399237200989174 17.2379978585132108 O
atom 4.0620877133327662 8.3719633006443495 17.2380204509221038 O
atom 0.9787077365287160 0.7001242887833167 16.9879078658397447 O
