#===============================================================================
# Created using the Atomic Simulation Environment (ASE)

# Mon Mar 23 14:01:26 2026

#=======================================================
lattice_vector 11.0088023998619828 0.0000000000000000 0.0000000000000000 
lattice_vector 0.0000126935906902 9.0578618799943378 0.0000000000000000 
lattice_vector 0.0000000000000000 0.0000000000000000 44.4450036080662585 
atom 7.4526465116545735 9.0578558859323657 15.7874099783774895 Ru
atom 10.2048934607380186 2.2644650583729060 15.7873588119801553 Ru
atom 9.0650742902447803 3.6496722857849484 15.0001767486566138 O
atom 0.8085579414685088 3.1437829382325284 15.0001933690086737 O
atom 10.2049458888790845 6.7933365183557957 15.7873969395620772 Ru
atom 9.0650953464918143 8.1785725557625284 15.0001573635036785 O
atom 0.8086664700055963 7.6726242381333734 15.0001421716941916 O
atom 3.5607773472484419 3.6496925006424465 15.0000316800367699 O
atom 6.3128765953518426 3.1437369731985201 15.0000000000000000 O
atom 1.9482357627302420 0.0000088609426471 15.7874243226863022 Ru
atom 3.5607966213283673 8.1786549806625466 15.0000989241836642 O
atom 6.3128328815874708 7.6726006332997478 15.0001444583943133 O
atom 8.4267120044236048 2.2644673164810700 18.3615443118990882 Ru
atom 3.8964787093811668 9.0578607418769668 20.9354989136505978 Ru
atom 7.2870297689477637 3.6496348436730339 17.5741026269870062 O
atom 9.5665186061021874 0.8792597590659560 19.1487013581865071 O
atom 10.0392340317906452 3.1437052861922914 17.5741488482782344 O
atom 8.5924294974549866 1.3852661486118856 16.5747355477864531 O
atom 6.6487256584646115 2.2644699143175080 20.9354477472532636 Ru
atom 5.6745480960925976 9.0578589739236541 18.3614728538346341 Ru
atom 5.5089064879713741 3.6496771417295508 20.1482656839297185 O
atom 0.3356874485633506 0.8792173612210120 16.5747577491094944 O
atom 8.2611925390570882 3.1437877941771299 20.1482823042817785 O
atom 6.8142592067643584 1.3851948666443579 19.1487786602223906 O
atom 8.4267706098447945 6.7933393764552914 18.3615733737752613 Ru
atom 7.4526401220603180 4.5289346259433056 15.7874269399350879 Ru
atom 7.2870537571134362 8.1786119036772114 17.5741434112404775 O
atom 9.5665634374182158 5.4081760690249521 19.1486780992382073 O
atom 10.0392086330981609 7.6725581662590345 17.5742479842333132 O
atom 8.5924177525016017 5.9141280386729180 16.5748428756895052 O
atom 6.6487780866056747 6.7933413743003985 20.9354858748351838 Ru
atom 5.6745549149477084 4.5289324539137894 18.3614656621182029 Ru
atom 5.5089275442184045 8.1785774117071313 20.1482462987767832 O
atom 0.3357167282578568 5.4082107812332634 16.5748232998980178 O
atom 8.2613010675941716 7.6726290940779753 20.1482311069672946 O
atom 6.8143631579335153 5.9140224265477164 19.1487259782288604 O
atom 4.7003373318124728 2.2645359835267924 15.7874528951935531 Ru
atom 0.1701486308950997 0.0000084489184782 18.3614714262728995 Ru
atom 0.0046095449750337 3.6496973565870485 20.1481206153098746 O
atom 5.8401779695666765 0.8792685761216444 16.5746811567858607 O
atom 2.7567087930784346 3.1437418291431225 20.1480889352731083 O
atom 1.3099084144459519 1.3853254915605808 19.1486772900240823 O
atom 2.9223434138638185 2.2645377613731048 18.3613658669825277 Ru
atom 9.4008703603188142 0.0000137168872491 20.9355132579594070 Ru
atom 1.7825759315560408 3.6497131487961609 17.5742833043056450 O
atom 4.0620312866150678 0.8792531941639383 19.1487797730681564 O
atom 4.5347463814902378 3.1438459812895694 17.5742252964952144 O
atom 3.0878027781878905 1.3852548937614471 16.5747162347200714 O
atom 4.7003872361015127 6.7934063435121699 15.7874925122976819 Ru
atom 0.1701710852749301 4.5289511589016342 18.3614658170682468 Ru
atom 0.0046288190549569 8.1786598366071495 20.1481878594567689 O
atom 5.8401972255523411 5.4081957861044136 16.5746700080629310 O
atom 2.7566650793140628 7.6726054892443498 20.1482333936674216 O
atom 1.3098599635190653 5.9141773516642431 19.1488198616622363 O
atom 2.9224038882137875 6.7934097313451511 18.3613931206261896 Ru
atom 1.9482411266383652 4.5289446009481775 15.7874404282436451 Ru
atom 1.7826061938994660 8.1786138587565418 17.5742414251645229 O
atom 4.0620750197420685 5.4082413241566831 19.1488257375200419 O
atom 4.5348755388021198 7.6726805311552519 17.5741307760624750 O
atom 3.0879412093238905 5.9140905936229808 16.5746267105554992 O
atom 4.8705442021501906 2.2644721724256716 23.5096332471721929 Ru
atom 0.3402982135170707 0.0000037178272301 26.0835878489237025 Ru
atom 3.7308619666743530 3.6496396996176359 22.7221915622601074 O
atom 6.0103508038287785 0.8792646150105581 24.2967902934596154 O
atom 6.4830662295172354 3.1437101421368929 22.7222377835513392 O
atom 5.0362616951815777 1.3852710045564880 21.7228244830595614 O
atom 3.0925578561911964 2.2644747702621095 26.0835366825263719 Ru
atom 2.1183676002285021 0.0000019498739162 23.5095617891077424 Ru
atom 1.9527386856979680 3.6496819976741524 25.2963546192028232 O
atom 7.7883220461519258 0.8792222171656142 21.7228466843825991 O
atom 4.7050247367836802 3.1437926501217319 25.2963712395548868 O
atom 3.2580914044909508 1.3851997225889603 24.2968675954954989 O
atom 4.8706028075713981 6.7933442323998943 23.5096623090483732 Ru
atom 3.8964723197869144 4.5289394818879076 20.9355158752081962 Ru
atom 3.7308859548400304 8.1786167596218124 22.7222323465135858 O
atom 6.0103956351448096 5.4081809249695549 24.2967670345113120 O
atom 6.4830408308247529 7.6725630222036365 22.7223369195064180 O
atom 5.0362499502281990 5.9141328946175209 21.7229318109626099 O
atom 3.0926102843322689 6.7933462302450014 26.0835748101082920 Ru
atom 2.1183871126743030 4.5289373098583923 23.5095545973913076 Ru
atom 1.9527597419449947 8.1785822676517306 25.2963352340498915 O
atom 7.7883513258464268 5.4082156371778662 21.7229122351711226 O
atom 4.7051332653207654 7.6726339500225773 25.2963200422404029 O
atom 3.2581953556601100 5.9140272824923192 24.2968149135019651 O
atom 1.1441695295390644 2.2645408394713944 20.9355418304666614 Ru
atom 7.6227832284836721 0.0000133048630802 23.5095603615460007 Ru
atom 7.4572441425636056 3.6497022125316505 25.2962095505829829 O
atom 2.2840101672932636 0.8792734320662465 21.7227700920589655 O
atom 10.2093433906670086 3.1437466850877245 25.2961778705462130 O
atom 8.7625430120345271 1.3853303475051832 24.2967662252971905 O
atom 10.3749780114523951 2.2645426173177063 23.5094548022556360 Ru
atom 5.8447025580454088 0.0000185728318511 26.0836021932325153 Ru
atom 9.2352105291446147 3.6497180047407629 22.7223722395787497 O
atom 0.5058634843416547 0.8792580501085402 24.2968687083412576 O
atom 0.9785785792168317 3.1438508372341714 22.7223142317683227 O
atom 10.5404373757764649 1.3852597497060493 21.7228051699931761 O
atom 1.1442194338281071 6.7934111994567727 20.9355814475707867 Ru
atom 7.6228056828635022 4.5289560148462371 23.5095547523413515 Ru
atom 7.4572634166435341 8.1786646925517505 25.2962767947298772 O
atom 2.2840294232789340 5.4082006420490156 21.7227589433360393 O
atom 10.2092996769026350 7.6726103451889527 25.2963223289405263 O
atom 8.7624945611076370 5.9141822076088451 24.2969087969353410 O
atom 10.3750384858023601 6.7934145872897540 23.5094820558992907 Ru
atom 9.4008757242269372 4.5289494568927813 20.9355293635167534 Ru
atom 9.2352407914880406 8.1786187147011429 22.7223303604376277 O
atom 0.5059072174686547 5.4082461801012860 24.2969146727931431 O
atom 0.9787077365287115 7.6726853870998557 22.7222197113355797 O
atom 10.5405758069124627 5.9140954495675837 21.7227156458286039 O
atom 1.3143763998767801 2.2644770283702735 28.6577221824452977 Ru
atom 0.1746941644009474 3.6496445555622379 27.8702804975332192 O
atom 2.4541830015553781 0.8792694709551599 29.4448792287327201 O
atom 2.9268984272438341 3.1437149980814953 27.8703267188244475 O
atom 1.4800938929081748 1.3852758605010898 26.8709134183326661 O
atom 9.5710021978170747 0.0000068058185185 28.6576507243808507 Ru
atom 4.2321542438785107 0.8792270731102162 26.8709356196557039 O
atom 10.7107260020795323 1.3852045785335620 29.4449565307686107 O
atom 1.3144350052979870 6.7933490883444962 28.6577512443214744 Ru
atom 0.3403045175135138 4.5289443378325087 26.0836048104813045 Ru
atom 0.1747181525666197 8.1786216155664153 27.8703212817866870 O
atom 2.4542278328714136 5.4081857809141560 29.4448559697844239 O
atom 2.9268730285513467 7.6725678781482394 27.8704258547795227 O
atom 1.4800821479547928 5.9141377505621229 26.8710207462357147 O
atom 9.5710217102628743 4.5289421658029934 28.6576435326644159 Ru
atom 4.2321835235730285 5.4082204931224682 26.8710011704442309 O
atom 10.7108299532486821 5.9140321384369212 29.4449038487750769 O
atom 8.5968041271276476 2.2645456954159964 26.0836307657397697 Ru
atom 4.0666154262102667 0.0000181608076822 28.6576492968191090 Ru
atom 9.7366447648818397 0.8792782880108484 26.8708590273320702 O
atom 5.2063752097611182 1.3853352034497850 29.4448551605702988 O
atom 6.8188102091789826 2.2645474732623083 28.6575437375287407 Ru
atom 5.6790427268712147 3.6497228606853653 27.8704611748518580 O
atom 7.9584980819302373 0.8792629060531423 29.4449576436143694 O
atom 8.4312131768054090 3.1438556931787738 27.8704031670414274 O
atom 6.9842695735030542 1.3852646056506512 26.8708941052662809 O
atom 8.5968540314166795 6.7934160554013738 26.0836703828438914 Ru
atom 4.0666378805900987 4.5289608707908391 28.6576436876144598 Ru
atom 9.7366640208675115 5.4082054979936185 26.8708478786091476 O
atom 5.2063267588342370 5.9141870635534470 29.4449977322084493 O
atom 6.8188706835289512 6.7934194432343551 28.6575709911724026 Ru
atom 5.8447079219535318 4.5289543128373833 26.0836182987898582 Ru
atom 5.6790729892146352 8.1786235706457457 27.8704192957107324 O
atom 7.9585418150572362 5.4082510360458862 29.4450036080662549 O
atom 8.4313423341172840 7.6726902430444568 27.8703086466086809 O
atom 6.9844080046390600 5.9141003055121857 26.8708045811017087 O
