#===============================================================================
# Created using the Atomic Simulation Environment (ASE)

# Mon Mar 23 14:01:26 2026

#=======================================================
lattice_vector 9.0578618800032320 0.0000000000000000 0.0000000000000000 
lattice_vector -0.0000001276308936 6.2569280899999997 0.0000000000000000 
lattice_vector 0.0000000000000000 0.0000000000000000 56.6677466824623295 
atom 0.0000043223484000 6.2569163079061108 20.4082031825599586 Ru
atom 0.8792578654949150 1.5641586372149199 15.0000353699671827 O
atom 0.0000050461624947 3.1284756579061059 20.4082017025592535 Ru
atom 0.8792178316489465 4.6927696972145183 15.0000000000000000 O
atom 5.4081741755122907 1.5641176272149737 15.0000538149798022 O
atom 4.5289404061698653 3.1284622579061692 20.4082084475556051 Ru
atom 5.4082112516977849 4.6928105972151526 15.0000561249469708 O
atom 2.2645425705269981 1.5643118334295303 18.1436844599971785 Ru
atom 0.0000088149938419 0.0000021989531172 15.8792895425545666 Ru
atom 3.6496974906741264 1.5641134906913019 16.7585369901374186 O
atom 0.8792767604836789 1.5641919061680449 19.5289531799526301 O
atom 3.1437456923622333 6.2568407129328856 19.0228977874497431 O
atom 1.3853273272508528 6.2568400939261517 17.2644758125568281 O
atom 2.2645418567116629 4.6926165434295237 18.1436837599987442 Ru
atom 0.0000115911793925 3.1284622389531376 15.8792907025521934 Ru
atom 3.6497156468754097 4.6928147706915171 16.7585580401205121 O
atom 0.8792588866502431 4.6927361861678332 19.5289322999671597 O
atom 3.1438523362315256 3.1285517729337693 19.0229624573586094 O
atom 1.3852592209738512 3.1285524039251578 17.2643672726132777 O
atom 6.7934129305778637 1.5643196734296354 18.1437428150482916 Ru
atom 4.5289513973731248 6.2569165189532336 15.8792996075447128 Ru
atom 8.1786599707167902 1.5641614706917533 16.7585858451104741 O
atom 5.4082039704889864 1.5641753961680556 19.5289574649558872 O
atom 7.6726094800286466 0.0000599329328496 19.0229387025056269 O
atom 5.9141793149130653 0.0000604539260333 17.2645117576226674 O
atom 6.7934138267640121 4.6926082034296472 18.1437437850486027 Ru
atom 4.5289473311879975 3.1284760489532122 15.8792990475480522 Ru
atom 8.1786163568737518 4.6927667206913579 16.7585539151463507 O
atom 5.4082470166998320 4.6927527561684492 19.5289891849187534 O
atom 7.6726868862737643 3.1284042029336470 19.0230097824409654 O
atom 5.9140949210249358 3.1284036739251073 17.2644250676946669 O
atom 2.2644791255828558 1.5643178923827983 22.6726815700523403 Ru
atom 0.0000196223353602 6.2569163858123291 29.4660496225502726 Ru
atom 3.6496450556349740 1.5641721896439003 21.2874218801829436 O
atom 0.8792731654818748 1.5641587151211389 24.0578818099574931 O
atom 3.1437192274334311 6.2569038218864348 23.5519133574733104 O
atom 1.3852780623183634 6.2569042028795714 21.7934870225996491 O
atom 2.2644792317682603 4.6926104523827998 22.6726816800532909 Ru
atom 0.0000203461494528 3.1284757358123243 29.4660481425495639 Ru
atom 3.6496848618485571 4.6927561896443004 21.2874568801485040 O
atom 0.8792331316359063 4.6927697751207367 24.0578464399903140 O
atom 3.1437993713208461 3.1284888918873341 23.5519988274053631 O
atom 1.3852044160729158 3.1284881428787887 21.7934151726615895 O
atom 6.7933511856347613 1.5643121023829185 22.6727410851021034 Ru
atom 4.5289450699889580 0.0000021979062163 20.4082127875516939 Ru
atom 8.1786221156683219 1.5641957196443455 21.2874595751438420 O
atom 5.4081894754992490 1.5641177051211925 24.0579002549701073 O
atom 7.6725722350910299 0.0000753418862826 23.5519435825386019 O
atom 5.9141400799893855 0.0000747028795631 21.7935331376573309 O
atom 6.7933506918201765 4.6926156323829185 22.6727412651034967 Ru
atom 4.5289557061568253 3.1284623358123871 29.4660548875459156 Ru
atom 8.1785851318511966 4.6927318796441719 21.2874579651745606 O
atom 5.4082265516847450 4.6928106751213701 24.0579025649372795 O
atom 7.6726406713693365 3.1283886918872903 23.5520538024817085 O
atom 5.9140319761175038 3.1283893228786539 21.7934655377495332 O
atom 2.2645578705139573 1.5643119113357491 27.2015308999874890 Ru
atom 0.0000241149808017 0.0000022768593358 24.9371359825448735 Ru
atom 3.6497127906610864 1.5641135685975205 25.8163834301277291 O
atom 0.8792920604706387 1.5641919840742637 28.5867996199429406 O
atom 3.1437609923491934 6.2568407908391039 28.0807442274400572 O
atom 1.3853426272378124 6.2568401718323701 26.3223222525471385 O
atom 2.2645571566986220 4.6926166213357421 27.2015301999890546 Ru
atom 0.0000268911663523 3.1284623168593564 24.9371371425425039 Ru
atom 3.6497309468623698 4.6928148485977355 25.8164044801108190 O
atom 0.8792741866372029 4.6927362640740515 28.5867787399574702 O
atom 3.1438676362184861 3.1285518508399877 28.0808088973489269 O
atom 1.3852745209608106 3.1285524818313761 26.3222137126035847 O
atom 6.7934282305648237 1.5643197513358544 27.2015892550386020 Ru
atom 4.5289666973600848 6.2569165968594520 24.9371460475350233 Ru
atom 8.1786752707037511 1.5641615485979716 25.8164322851007846 O
atom 5.4082192704759464 1.5641754740742744 28.5868039049461942 O
atom 7.6726247800156067 0.0000600108390681 28.0807851424959374 O
atom 5.9141946149000253 0.0000605318322518 26.3223581976129779 O
atom 6.7934291267509721 4.6926082813358656 27.2015902250389132 Ru
atom 4.5289626311749576 3.1284761268594306 24.9371454875383627 Ru
atom 8.1786316568607109 4.6927667985975763 25.8164003551366648 O
atom 5.4082623166867920 4.6927528340746676 28.5868356249090603 O
atom 7.6727021862607243 3.1284042808398653 28.0808562224312723 O
atom 5.9141102210118959 3.1284037518313257 26.3222715076849738 O
atom 2.2644944255698150 1.5643179702890166 31.7305280100426508 Ru
atom 0.0000349223223183 6.2569164637185475 38.5238960625405724 Ru
atom 3.6496603556219331 1.5641722675501188 30.3452683201732540 O
atom 0.8792884654688345 1.5641587930273571 33.1157282499478001 O
atom 3.1437345274203903 6.2569038997926532 32.6097597974636173 O
atom 1.3852933623053232 6.2569042807857915 30.8513334625899560 O
atom 2.2644945317552194 4.6926105302890182 31.7305281200436013 Ru
atom 0.0000356461364130 3.1284758137185431 38.5238945825398673 Ru
atom 3.6497001618355167 4.6927562675505188 30.3453033201388145 O
atom 0.8792484316228661 4.6927698530269550 33.1156928799806138 O
atom 3.1438146713078061 3.1284889697935525 32.6098452673956700 O
atom 1.3852197160598760 3.1284882207850080 30.8512616126519035 O
atom 6.7933664856217213 1.5643121802891369 31.7305875250924103 Ru
atom 4.5289603699759189 0.0000022758124349 29.4660592275420044 Ru
atom 8.1786374156552792 1.5641957975505636 30.3453060151341525 O
atom 5.4082047754862099 1.5641177830274109 33.1157466949604213 O
atom 7.6725875350779900 0.0000754197925011 32.6097900225289123 O
atom 5.9141553799763456 0.0000747807857816 30.8513795776476449 O
atom 6.7933659918071365 4.6926157102891368 31.7305877050938037 Ru
atom 4.5289710061437845 3.1284624137186063 38.5239013275362225 Ru
atom 8.1786004318381540 4.6927319575503912 30.3453044051648710 O
atom 5.4082418516717041 4.6928107530275902 33.1157490049275935 O
atom 7.6726559713562965 3.1283887697935087 32.6099002424720155 O
atom 5.9140472761044647 3.1283894007848727 30.8513119777398472 O
atom 2.2645731705009164 1.5643119892419672 36.2593773399778030 Ru
atom 0.0000394149677614 0.0000023547655543 33.9949824225351875 Ru
atom 3.6497280906480456 1.5641136465037391 34.8742298701180431 O
atom 0.8793073604575985 1.5641920619804821 37.6446460599332511 O
atom 3.1437762923361534 6.2568408687453223 37.1385906674303641 O
atom 1.3853579272247725 6.2568402497385893 35.3801686925374526 O
atom 2.2645724566855816 4.6926166992419605 36.2593766399793651 Ru
atom 0.0000421911533120 3.1284623947655752 33.9949835825328108 Ru
atom 3.6497462468493289 4.6928149265039538 34.8742509201011330 O
atom 0.8792894866241627 4.6927363419802699 37.6446251799477807 O
atom 3.1438829362054448 3.1285519287462060 37.1386553373392303 O
atom 1.3852898209477709 3.1285525597375954 35.3800601525938987 O
atom 6.7934435305517846 1.5643198292420728 36.2594356950289125 Ru
atom 4.5289819973470449 6.2569166747656704 33.9949924875253373 Ru
atom 8.1786905706907085 1.5641616265041902 34.8742787250910951 O
atom 5.4082345704629065 1.5641755519804927 37.6446503449365082 O
atom 7.6726400800025667 0.0000600887452866 37.1386315824862407 O
atom 5.9142099148869862 0.0000606097384704 35.3802046376032848 O
atom 6.7934444267379321 4.6926083592420840 36.2594366650292201 Ru
atom 4.5289779311619176 3.1284762047656494 33.9949919275286732 Ru
atom 8.1786469568476683 4.6927668765037946 34.8742467951269788 O
atom 5.4082776166737512 4.6927529119808860 37.6446820648993707 O
atom 7.6727174862476835 3.1284043587460841 37.1387026624215792 O
atom 5.9141255209988559 3.1284038297375445 35.3801179476752878 O
atom 2.2645097255567754 1.5643180481952357 40.7883744500329612 Ru
atom 3.6496756556088936 1.5641723454563374 39.4031147601635610 O
atom 3.1437498274073503 6.2569039776988724 41.6676062374539242 O
atom 1.3853086622922832 6.2569043586920099 39.9091799025802629 O
atom 2.2645098317421790 4.6926106081952366 40.7883745600339154 Ru
atom 3.6497154618224763 4.6927563454567371 39.4031497601291250 O
atom 3.1438299712947662 3.1284890476997709 41.6676917073859840 O
atom 1.3852350160468354 3.1284882986912264 39.9091080526422104 O
atom 6.7933817856086813 1.5643122581953555 40.7884339650827243 Ru
atom 4.5289756699628789 0.0000023537186534 38.5239056675323042 Ru
atom 8.1786527156422402 1.5641958754567824 39.4031524551244559 O
atom 7.6726028350649500 0.0000754976987197 41.6676364625192264 O
atom 5.9141706799633056 0.0000748586920001 39.9092260176379483 O
atom 6.7933812917940948 4.6926157881953543 40.7884341450841177 Ru
atom 8.1786157318251149 4.6927320354566096 39.4031508451551815 O
atom 7.6726712713432565 3.1283888476997275 41.6677466824623295 O
atom 5.9140625760914247 3.1283894786910911 39.9091584177301542 O
