#===============================================================================
# Created using the Atomic Simulation Environment (ASE)

# Mon Mar 23 14:01:25 2026

#=======================================================
lattice_vector 9.0578464400032317 0.0000000000000000 0.0000000000000000 
lattice_vector 0.0000153000130401 9.0578618799903108 0.0000000000000000 
lattice_vector 0.0000000000000000 0.0000000000000000 44.0782823172348373 
atom 9.0578527076378865 9.0578507747361137 18.1285276430589697 Ru
atom 3.1437064527106013 3.1436984896541142 18.1285151300003520 O
atom 1.3852771475829875 1.3852602947729635 18.1285155261176563 O
atom 2.2644732766763846 2.2644599791371904 16.5642217680589603 Ru
atom 9.0578512007307967 9.0578514985527541 15.0000869930589822 Ru
atom 0.8792508165835453 3.6496679490566120 16.5643675172347287 O
atom 3.6496356967357193 0.8792115392671295 16.5643810788831409 O
atom 3.1437918958706410 3.1437786333972046 15.0001002000005208 O
atom 1.3852052706131390 1.3851866486489268 15.0000994661174900 O
atom 2.2645405116326818 6.7933314390819968 16.5642269480585682 Ru
atom 9.0578502957279792 4.5289249785519594 15.0000735930589819 Ru
atom 0.8792595515641085 8.1785682190509572 16.5643432072345895 O
atom 3.6496994717950977 5.4082049592147019 16.5644219788832920 O
atom 3.1438545208012330 7.6726199333463700 15.0000000000000000 O
atom 1.3852632855321287 5.9140142086019818 15.0000006461169200 O
atom 7.6725373227408893 3.1437326047323895 18.1284520600007077 O
atom 5.9141123776325326 1.3853172098475606 18.1284514561181034 O
atom 6.7933217967373665 2.2645302542002521 16.5642278980594391 Ru
atom 4.5289249007280992 0.0000038135521801 15.0000736130590155 Ru
atom 5.4081984166177515 3.6497063840357629 16.5644261372348467 O
atom 8.1785679967654747 0.8792449442596090 16.5643475288832711 O
atom 7.6726019659235902 3.1438392484924895 15.0001631200010372 O
atom 5.9140038106676434 1.3852491037539438 15.0001637661180389 O
atom 4.5289414826498415 4.5289436197243642 18.1285278930590330 Ru
atom 6.7933894716940637 6.7934022241447485 16.5642195580590403 Ru
atom 4.5289408957387023 4.5289395535402264 15.0000874230590178 Ru
atom 5.4082019415986347 8.1786070940346107 16.5643780872347186 O
atom 8.1786325318203303 5.4082330742066471 16.5643640988833987 O
atom 7.6726569408483769 7.6726737984483284 15.0000155500005050 O
atom 5.9140692555933985 5.9140848037009430 15.0000150361174924 O
atom 2.2644731935843216 2.2644597453210329 19.6928572980589571 Ru
atom 9.0578527614532902 9.0578506471051270 24.3854557330589650 Ru
atom 0.8792158434573089 3.6496280152712091 19.6927116072346315 O
atom 3.6496710936768522 0.8792514454224138 19.6926981088832385 O
atom 3.1437065065260037 3.1436983620231302 24.3854432200003508 O
atom 1.3852772013983905 1.3852601671419793 24.3854436161176515 O
atom 2.2644733304917875 2.2644598515062055 22.8211498580589627 Ru
atom 9.0578512545461987 9.0578513709217674 21.2570150830589775 Ru
atom 0.8792508703989481 3.6496678214256266 22.8212956072347275 O
atom 3.6496357505511217 0.8792114116361449 22.8213091688831433 O
atom 3.1437919496860443 3.1437785057662198 21.2570282900005161 O
atom 1.3852053244285418 1.3851865210179424 21.2570275561174888 O
atom 2.2645403585411001 6.7933318052659502 19.6928515080585633 Ru
atom 0.0000082226363421 4.5289295147327850 18.1285416230589895 Ru
atom 0.8792611885028323 8.1786050752344224 19.6927351372347523 O
atom 3.6496971886709262 5.4081677554021725 19.6926570988831351 O
atom 3.1437443276514134 7.6725513696233030 18.1286147399999429 O
atom 1.3853309125314075 5.9141221847287362 18.1286141161172516 O
atom 2.2645405654480841 6.7933313114510137 22.8211550380585670 Ru
atom 9.0578503495433793 4.5289248509209754 21.2570016830589843 Ru
atom 0.8792596053795113 8.1785680914199723 22.8212712972345919 O
atom 3.6496995256105000 5.4082048315837188 22.8213500688832873 O
atom 3.1438545746166353 7.6726198057153869 21.2569280899999988 O
atom 1.3852633393475315 5.9140140809709969 21.2569287361169188 O
atom 6.7933225236459691 2.2645308403834643 19.6928512780594325 Ru
atom 4.5289237676334109 0.0000009097376499 18.1285416630589999 Ru
atom 5.4081773935095416 3.6496881002390955 19.6926529472348086 O
atom 8.1785889036880395 0.8792626904268361 19.6927313388833021 O
atom 7.6725373765562930 3.1437324771014050 24.3853801500007030 O
atom 5.9141124314479354 1.3853170822165763 24.3853795461180987 O
atom 6.7933218505527693 2.2645301265692677 22.8211559880594343 Ru
atom 4.5289249545435029 0.0000036859211956 21.2570017030590144 Ru
atom 5.4081984704331543 3.6497062564047780 22.8213542272348455 O
atom 8.1785680505808767 0.8792448166286245 22.8212756188832664 O
atom 7.6726020197389939 3.1438391208615046 21.2570912100010361 O
atom 5.9140038644830479 1.3852489761229594 21.2570918561180413 O
atom 6.7933885286013425 6.7934012003293001 19.6928591180590367 Ru
atom 4.5289415364652443 4.5289434920933802 24.3854559830590283 Ru
atom 5.4082338985428065 8.1786505801927749 19.6927009272348421 O
atom 8.1786008386913718 5.4081899004184457 19.6927148288832754 O
atom 7.6725858876909117 7.6725962646923378 18.1285993700003196 O
atom 5.9141559725725905 5.9141690698117024 18.1285999061176746 O
atom 6.7933895255094674 6.7934020965137645 22.8211476480590427 Ru
atom 4.5289409495541060 4.5289394259092433 21.2570155130590130 Ru
atom 5.4082019954140383 8.1786069664036258 22.8213061772347210 O
atom 8.1786325856357340 5.4082329465756631 22.8212921888833939 O
atom 7.6726569946637788 7.6726736708173435 21.2569436400005038 O
atom 5.9140693094088022 5.9140846760699590 21.2569431261174913 O
atom 2.2644732473997249 2.2644596176900489 25.9497853880589524 Ru
atom 0.8792158972727117 3.6496278876402251 25.9496396972346268 O
atom 3.6496711474922554 0.8792513177914294 25.9496261988832337 O
atom 2.2644733843071903 2.2644597238752211 29.0780779480589580 Ru
atom 9.0578513083616023 9.0578512432907843 27.5139431730589727 Ru
atom 0.8792509242143509 3.6496676937946422 29.0782236972347299 O
atom 3.6496358043665245 0.8792112840051605 29.0782372588831386 O
atom 3.1437920035014466 3.1437783781352353 27.5139563800005114 O
atom 1.3852053782439444 1.3851863933869577 27.5139556461174912 O
atom 2.2645404123565034 6.7933316776349653 25.9497795980585657 Ru
atom 0.0000082764517449 4.5289293871018002 24.3854697130589919 Ru
atom 0.8792612423182351 8.1786049476034393 25.9496632272347547 O
atom 3.6496972424863294 5.4081676277711868 25.9495851888831304 O
atom 3.1437443814668167 7.6725512419923190 24.3855428299999382 O
atom 1.3853309663468105 5.9141220570977513 24.3855422061172469 O
atom 2.2645406192634878 6.7933311838200279 29.0780831280585623 Ru
atom 9.0578504033587830 4.5289247232899905 27.5139297730589796 Ru
atom 0.8792596591949141 8.1785679637889874 29.0781993872345872 O
atom 3.6496995794259033 5.4082047039527330 29.0782781588832968 O
atom 3.1438546284320381 7.6726196780844012 27.5138561799999941 O
atom 1.3852633931629341 5.9140139533400120 27.5138568261169176 O
atom 6.7933225774613728 2.2645307127524803 25.9497793680594349 Ru
atom 4.5289238214488137 0.0000007821066654 24.3854697530590023 Ru
atom 5.4081774473249435 3.6496879726081111 25.9495810372348110 O
atom 8.1785889575034432 0.8792625627958518 25.9496594288833045 O
atom 6.7933219043681721 2.2645299989382828 29.0780840780594296 Ru
atom 4.5289250083589065 0.0000035582902112 27.5139297930590097 Ru
atom 5.4081985242485571 3.6497061287737935 29.0782823172348408 O
atom 8.1785681043962786 0.8792446889976401 29.0782037088832688 O
atom 7.6726020735543958 3.1438389932305206 27.5140193000010278 O
atom 5.9140039182984498 1.3852488484919749 27.5140199461180366 O
atom 6.7933885824167453 6.7934010726983152 25.9497872080590390 Ru
atom 5.4082339523582093 8.1786504525617918 25.9496290172348445 O
atom 8.1786008925067737 5.4081897727874608 25.9496429188832742 O
atom 7.6725859415063153 7.6725961370613529 24.3855274600003220 O
atom 5.9141560263879924 5.9141689421807184 24.3855279961176699 O
atom 6.7933895793248702 6.7934019688827796 29.0780757380590380 Ru
atom 4.5289410033695097 4.5289392982782584 27.5139436030590083 Ru
atom 5.4082020492294411 8.1786068387726427 29.0782342672347163 O
atom 8.1786326394511359 5.4082328189446782 29.0782202788833892 O
atom 7.6726570484791825 7.6726735431863586 27.5138717300005062 O
atom 5.9140693632242050 5.9140845484389750 27.5138712161174830 O
