#===============================================================================
# Created using the Atomic Simulation Environment (ASE)

# Mon Mar 23 14:01:25 2026

#=======================================================
lattice_vector 11.0088023998619828 0.0000000000000000 0.0000000000000000 
lattice_vector 3.5561804958640981 10.4186176412040616 0.0000000000000000 
lattice_vector 0.0000000000000000 0.0000000000000000 34.2259165340561538 
atom 3.8964787093811699 2.7872455014665567 15.8690103640639251 Ru
atom 6.8142719003550543 4.8743843981393891 15.0001096438353656 O
atom 8.5924304460922958 10.0836435671797595 15.0002064346153006 O
atom 5.6745676085384069 7.9965531964364320 15.8690226254018896 Ru
atom 12.3187235078986212 4.8745480517707982 15.0000860583573825 O
atom 14.0967563027765692 10.0837178251526147 15.0000000000000000 O
atom 4.8705568957408909 3.4840176886573468 19.2258713174448950 Ru
atom 3.7308746602650507 5.0773643122322154 19.2257207623014104 O
atom 6.0103634974194886 1.8907769099223835 19.2257546303101314 O
atom 6.4830789231079304 4.6374906452022753 18.9757690143125188 O
atom 5.0362743887722754 3.6025527953836480 17.2380006773966983 O
atom 6.6487383520553065 4.7559825396796294 16.9878953556075381 Ru
atom 2.1183802938191993 1.5153419636260796 18.1068801273086777 Ru
atom 5.5089191815620628 6.3492353930304919 16.9879901300827250 O
atom 7.7883347397426128 3.1625873397326618 16.9879691322938982 O
atom 8.2612052326477787 5.9094113107023665 16.7380325159809082 O
atom 8.4267833034354993 9.9651559752105587 16.9880140560475645 Ru
atom 3.8964850133776059 6.7246593407627175 18.1068833269330298 Ru
atom 3.7308859548400339 1.1399704514010520 16.9879255752725058 O
atom 9.5665761310089135 8.3719795200083382 16.9878737466148237 O
atom 6.4830408308247547 0.6999599904204162 16.7379631974673195 O
atom 6.6487907801963733 8.6933257932037069 19.2257525464107495 Ru
atom 5.5089402378090968 10.2866321121395341 19.2258115555159748 O
atom 7.7883640194371244 7.1000230737983339 19.2259104279747923 O
atom 8.2613137611848710 9.8467724808835531 18.9757971456634351 O
atom 6.8143758515242103 8.8117343564998762 17.2378661934882231 O
atom 12.1529846229917524 4.7559977126285613 16.9880121965683273 Ru
atom 7.6227959220743617 1.5153525409490016 18.1068844969712828 Ru
atom 11.0134246384277077 6.3493246495401046 16.9878739973120823 O
atom 2.2840228608839603 3.1626697116336979 16.9879278500942661 O
atom 2.7567214866691314 5.9094668973615381 16.7378416901933704 O
atom 10.3749907050430856 3.4841671067581208 19.2257509874726473 Ru
atom 9.4008830539095172 2.7872513284133351 15.8690301750974356 Ru
atom 9.2352232227353213 5.0773431130383280 19.2259165340561538 O
atom 11.5146785777943332 1.8907324557784304 19.2258195596616446 O
atom 11.9873936726695067 4.6375751894177810 18.9759049985612478 O
atom 10.5404500693671537 3.6025525535624379 17.2379783254904169 O
atom 12.1530345272807825 8.6933392738155568 19.2258701388142441 Ru
atom 11.1789861787276035 7.9965693818282721 15.8690320026973843 Ru
atom 11.0134439125076380 10.2867326479123609 19.2258014769918297 O
atom 13.2928445167316109 7.1000857823350527 19.2257697479121852 O
atom 13.7654801727667433 9.8467508291297996 18.9757874699863400 O
atom 12.3186750569717436 8.8118226570136340 17.2380243671587969 O
atom 13.9312189816664702 9.9653062085552815 16.9878921095412068 Ru
atom 9.4008884178176384 6.7246613480497306 18.1068999824423003 Ru
atom 9.2352407914880423 1.1399237200989174 16.9880117537909570 O
atom 4.0620877133327662 8.3719633006443495 16.9880343461998500 O
atom 0.9787077365287160 0.7001242887833167 16.7379217611174909 O
