#===============================================================================
# Created using the Atomic Simulation Environment (ASE)

# Mon Mar 23 14:01:26 2026

#=======================================================
lattice_vector 9.0578618800032320 0.0000000000000000 0.0000000000000000 
lattice_vector -0.0000001276308936 6.2569280899999997 0.0000000000000000 
lattice_vector 0.0000000000000000 0.0000000000000000 34.0231215025145488 
atom 0.0000349223223183 6.2569164637185475 15.8792708825927917 Ru
atom 0.0000356461364130 3.1284758137185431 15.8792694025920866 Ru
atom 4.5289710061437845 3.1284624137186063 15.8792761475884419 Ru
atom 0.8793073604575985 1.5641920619804821 15.0000208799854704 O
atom 0.8792894866241627 4.6927363419802699 15.0000000000000000 O
atom 5.4082345704629065 1.5641755519804927 15.0000251649887275 O
atom 5.4082776166737512 4.6927529119808860 15.0000568849515901 O
atom 2.2645097255567754 1.5643180481952357 18.1437492700851806 Ru
atom 3.6496756556088936 1.5641723454563374 16.7584895802157803 O
atom 3.1437498274073503 6.2569039776988724 19.0229810575061435 O
atom 1.3853086622922832 6.2569043586920099 17.2645547226324823 O
atom 2.2645098317421790 4.6926106081952366 18.1437493800861347 Ru
atom 3.6497154618224763 4.6927563454567371 16.7585245801813443 O
atom 3.1438299712947662 3.1284890476997709 19.0230665274382034 O
atom 1.3852350160468354 3.1284882986912264 17.2644828726944297 O
atom 6.7933817856086813 1.5643122581953555 18.1438087851349437 Ru
atom 4.5289756699628789 0.0000023537186534 15.8792804875845235 Ru
atom 8.1786527156422402 1.5641958754567824 16.7585272751766752 O
atom 7.6726028350649500 0.0000754976987197 19.0230112825714457 O
atom 5.9141706799633056 0.0000748586920001 17.2646008376901676 O
atom 6.7933812917940948 4.6926157881953543 18.1438089651363370 Ru
atom 8.1786157318251149 4.6927320354566096 16.7585256652074008 O
atom 7.6726712713432565 3.1283888476997275 19.0231215025145488 O
atom 5.9140625760914247 3.1283894786910911 17.2645332377823735 O
