#===============================================================================
# Created using the Atomic Simulation Environment (ASE)

# Mon Mar 23 14:01:25 2026

#=======================================================
lattice_vector 9.0578464400032317 0.0000000000000000 0.0000000000000000 
lattice_vector 0.0000153000130401 9.0578618799903108 0.0000000000000000 
lattice_vector 0.0000000000000000 0.0000000000000000 33.1287012800000298 
atom 2.2644732473997249 2.2644596176900489 15.0002043508241414 Ru
atom 0.8792158972727117 3.6496278876402251 15.0000586599998158 O
atom 3.6496711474922554 0.8792513177914294 15.0000451616484227 O
atom 2.2644733843071903 2.2644597238752211 18.1284969108241469 Ru
atom 9.0578513083616023 9.0578512432907843 16.5643621358241617 Ru
atom 0.8792509242143509 3.6496676937946422 18.1286426599999189 O
atom 3.6496358043665245 0.8792112840051605 18.1286562216483276 O
atom 3.1437920035014466 3.1437783781352353 16.5643753427657003 O
atom 1.3852053782439444 1.3851863933869577 16.5643746088826802 O
atom 2.2645404123565034 6.7933316776349653 15.0001985608237547 Ru
atom 0.8792612423182351 8.1786049476034393 15.0000821899999437 O
atom 3.6496972424863294 5.4081676277711868 15.0000041516483194 O
atom 2.2645406192634878 6.7933311838200279 18.1285020908237513 Ru
atom 9.0578504033587830 4.5289247232899905 16.5643487358241686 Ru
atom 0.8792596591949141 8.1785679637889874 18.1286183499997762 O
atom 3.6496995794259033 5.4082047039527330 18.1286971216484858 O
atom 3.1438546284320381 7.6726196780844012 16.5642751427651831 O
atom 1.3852633931629341 5.9140139533400120 16.5642757888821066 O
atom 6.7933225774613728 2.2645307127524803 15.0001983308246238 Ru
atom 5.4081774473249435 3.6496879726081111 15.0000000000000000 O
atom 8.1785889575034432 0.8792625627958518 15.0000783916484934 O
atom 6.7933219043681721 2.2645299989382828 18.1285030408246186 Ru
atom 4.5289250083589065 0.0000035582902112 16.5643487558241986 Ru
atom 5.4081985242485571 3.6497061287737935 18.1287012800000298 O
atom 8.1785681043962786 0.8792446889976401 18.1286226716484578 O
atom 7.6726020735543958 3.1438389932305206 16.5644382627662168 O
atom 5.9140039182984498 1.3852488484919749 16.5644389088832256 O
atom 6.7933885824167453 6.7934010726983152 15.0002061708242280 Ru
atom 5.4082339523582093 8.1786504525617918 15.0000479800000335 O
atom 8.1786008925067737 5.4081897727874608 15.0000618816484632 O
atom 6.7933895793248702 6.7934019688827796 18.1284947008242270 Ru
atom 4.5289410033695097 4.5289392982782584 16.5643625658241973 Ru
atom 5.4082020492294411 8.1786068387726427 18.1286532299999052 O
atom 8.1786326394511359 5.4082328189446782 18.1286392416485782 O
atom 7.6726570484791825 7.6726735431863586 16.5642906927656952 O
atom 5.9140693632242050 5.9140845484389750 16.5642901788826720 O
