#===============================================================================
# Created using the Atomic Simulation Environment (ASE)

# Mon Mar 23 14:01:28 2026

#=======================================================
lattice_vector 9.7251295900000052 0.0000000000000000 0.0000000000000000 
lattice_vector 0.0000006400007604 9.7251526999999847 0.0000000000000000 
lattice_vector 0.0000000000000000 0.0000000000000000 46.4761678499999462 
atom 1.4958396656662445 1.4958380072267812 18.2952340780762057 O
atom 2.4312855181409114 2.4312892181406132 16.6476391099999788 Sn
atom 0.0000071898356908 0.0000242298346811 15.0000000350000064 Sn
atom 3.9271377589206251 0.9354331289204515 16.6476112399999820 O
atom 0.9354266373611427 3.9271418873610506 16.6476110599999707 O
atom 1.4958784890556454 1.4958693606138651 15.0000012480762770 O
atom 3.3666847806148152 3.3667158790560223 15.0000008819236825 O
atom 1.4958365856665223 6.3584112372268864 18.2952340430762028 O
atom 2.4312836081412388 7.2938639581406788 16.6476389249999777 Sn
atom 0.0000042598358302 4.8625932598347807 15.0000000000000000 Sn
atom 3.9271341989208812 5.7980055989205743 16.6476082749999748 O
atom 0.9354191473612704 8.7897104573613074 16.6476075749999524 O
atom 1.4958755190558317 6.3584398406139666 15.0000017130762693 O
atom 3.3666893406148470 8.2292816590558768 15.0000008969236731 O
atom 4.8625700964471488 0.0000188964463823 18.2952329000000020 Sn
atom 7.2938446181408851 2.4312870681408429 16.6475979349999719 Sn
atom 4.8625570498349884 9.7251324898351754 15.0000025999999451 Sn
atom 8.7897074989207660 0.9354379689202686 16.6476309049999927 O
atom 5.7979855273609795 3.9271374673612249 16.6476302749999583 O
atom 6.3584035290545113 1.4958348106151729 15.0000011630762025 O
atom 8.2292846106156556 3.3667413790548686 15.0000016269237406 O
atom 4.8625724564476949 4.8626003164463087 18.2952332850000090 Sn
atom 6.3584462156675832 6.3584434272254109 18.2952342780762791 O
atom 8.2292614272264455 8.2292805856672739 18.2952341719236813 O
atom 7.2938476481413597 7.2938661781407479 16.6475960999999799 Sn
atom 4.8625618198346272 4.8625567098350171 15.0000024749999525 Sn
atom 8.7897170389214541 5.7980235589199616 16.6476282400000102 O
atom 5.7979912073615223 8.7897186873610433 16.6476275299999692 O
atom 6.3584080190549557 6.3584131306150304 15.0000009680762076 O
atom 8.2292967306159870 8.2293162590544728 15.0000010219237545 O
atom 2.4312867147525270 2.4312874347522557 19.9428294099999803 Sn
atom 9.7251273664466051 9.7251318864466345 18.2952347749999511 Sn
atom 3.9271397355321684 0.9354308855320118 19.9428573999999799 O
atom 0.9354284239726974 3.9271399939726157 19.9428574999999739 O
atom 1.4958396388895054 1.4958379804500601 24.8857002680762065 O
atom 3.3667202272275931 3.3667507956664942 18.2952345319237537 O
atom 2.4312854913641724 2.4312891913638914 23.2381052999999831 Sn
atom 0.0000071630589514 0.0000242030579596 21.5904662250000072 Sn
atom 3.9271377321438856 0.9354331021437300 23.2380774299999793 O
atom 0.9354266105844032 3.9271418605843285 23.2380772499999715 O
atom 1.4958784622789063 1.4958693338371436 21.5904674380762778 O
atom 3.3666847538380749 3.3667158522793006 21.5904670719236833 O
atom 2.4312841547528552 7.2938622047523447 19.9428299149999759 Sn
atom 9.7251215064461647 4.8625537764468234 18.2952354699999447 Sn
atom 3.9271355455324266 5.7980036155321493 19.9428605249999720 O
atom 0.9354201139728240 8.7897087239728915 19.9428603349999563 O
atom 1.4958365588897831 6.3584112104501642 24.8857002330762000 O
atom 3.3667166772278092 8.2293221456666146 18.2952348769237432 O
atom 2.4312835813644997 7.2938639313639575 23.2381051149999749 Sn
atom 0.0000042330590908 4.8625932330580603 21.5904661899999972 Sn
atom 3.9271341721441413 5.7980055721438539 23.2380744649999720 O
atom 0.9354191205845310 8.7897104305845843 23.2380737649999567 O
atom 1.4958754922790927 6.3584398138372444 21.5904679030762665 O
atom 3.3666893138381075 8.2292816322791573 21.5904670869236774 O
atom 7.2938436647525204 2.4312884147524714 19.9428711549999740 Sn
atom 4.8625700696704097 0.0000188696696608 24.8856990900000028 Sn
atom 8.7897059255324645 0.9354391855319868 19.9428370649999920 O
atom 5.7979837639726890 3.9271390739729481 19.9428385849999614 O
atom 6.3584430156670653 1.4958628272255119 18.2952347630762731 O
atom 8.2292574272259422 3.3667005356674022 18.2952343069236747 O
atom 7.2938445913641461 2.4312870413641212 23.2380641249999726 Sn
atom 4.8625570230582493 9.7251324630584559 21.5904687899999459 Sn
atom 8.7897074721440269 0.9354379421435470 23.2380970949999934 O
atom 5.7979855005842404 3.9271374405845032 23.2380964649999626 O
atom 6.3584035022777714 1.4958347838384516 21.5904673530762032 O
atom 8.2292845838389148 3.3667413522781473 21.5904678169237414 O
atom 7.2938462447529968 7.2938677747523881 19.9428721899999815 Sn
atom 4.8625724296709567 4.8626002896695875 24.8856994750000098 Sn
atom 8.7897153755331736 5.7980256755316750 19.9428403100000118 O
atom 5.7979893939732552 8.7897211339727637 19.9428410899999697 O
atom 6.3584461888908450 6.3584434004486887 24.8857004680762834 O
atom 8.2292614004497064 8.2292805588905527 24.8857003619236785 O
atom 7.2938476213646206 7.2938661513640275 23.2380622899999807 Sn
atom 4.8625617930578882 4.8625566830582958 21.5904686649999569 Sn
atom 8.7897170121447150 5.7980235321432394 23.2380944300000110 O
atom 5.7979911805847832 8.7897186605843221 23.2380937199999700 O
atom 6.3584079922782166 6.3584131038383092 21.5904671580762084 O
atom 8.2292967038392479 8.2293162322777516 21.5904672119237553 O
atom 2.4312866879757875 2.4312874079755344 26.5332955999999776 Sn
atom 9.7251273396698661 9.7251318596699132 24.8857009649999554 Sn
atom 3.9271397087554294 0.9354308587552904 26.5333235899999842 O
atom 0.9354283971959582 3.9271399671958949 26.5333236899999676 O
atom 1.4958396121127657 1.4958379536733386 31.4761664580762144 O
atom 3.3667202004508536 3.3667507688897729 24.8857007219237545 O
atom 2.4312854645874329 2.4312891645871701 29.8285714899999803 Sn
atom 0.0000071362822121 0.0000241762812381 28.1809324150000080 Sn
atom 3.9271377053671461 0.9354330753670086 29.8285436199999836 O
atom 0.9354265838076640 3.9271418338076076 29.8285434399999723 O
atom 1.4958784355021666 1.4958693070604219 28.1809336280762750 O
atom 3.3666847270613363 3.3667158255025789 28.1809332619236805 O
atom 2.4312841279761157 7.2938621779756234 26.5332961049999732 Sn
atom 9.7251214796694239 4.8625537496701021 24.8857016599999454 Sn
atom 3.9271355187556871 5.7980035887554289 26.5333267149999692 O
atom 0.9354200871960846 8.7897086971961684 26.5333265249999499 O
atom 1.4958365321130436 6.3584111836734420 31.4761664230762008 O
atom 3.3667166504510702 8.2293221188898915 24.8857010669237404 O
atom 2.4312835545877598 7.2938639045872371 29.8285713049999792 Sn
atom 0.0000042062823515 4.8625932062813391 28.1809323800000016 Sn
atom 3.9271341453674018 5.7980055453671326 29.8285406549999763 O
atom 0.9354190938077918 8.7897104038078613 29.8285399549999539 O
atom 1.4958754655023532 6.3584397870605232 28.1809340930762673 O
atom 3.3666892870613685 8.2292816055024343 28.1809332769236747 O
atom 7.2938436379757814 2.4312883879757510 26.5333373449999712 Sn
atom 4.8625700428936707 0.0000188428929393 31.4761652799999965 Sn
atom 8.7897058987557273 0.9354391587552653 26.5333032549999892 O
atom 5.7979837371959491 3.9271390471962264 26.5333047749999587 O
atom 6.3584429888903253 1.4958628004487904 24.8857009530762703 O
atom 8.2292574004492032 3.3667005088906805 24.8857004969236719 O
atom 7.2938445645874062 2.4312870145873999 29.8285303149999734 Sn
atom 4.8625569962815094 9.7251324362817329 28.1809349799999467 Sn
atom 8.7897074453672897 0.9354379153668257 29.8285632849999942 O
atom 5.7979854738075014 3.9271374138077824 29.8285626549999598 O
atom 6.3584034755010324 1.4958347570617299 28.1809335430762040 O
atom 8.2292845570621758 3.3667413255014251 28.1809340069237422 O
atom 7.2938462179762578 7.2938677479756668 26.5333383799999751 Sn
atom 4.8625724028942168 4.8626002628928662 31.4761656650000035 Sn
atom 8.7897153487564363 5.7980256487549537 26.5333065000000090 O
atom 5.7979893671965153 8.7897211071960442 26.5333072799999705 O
atom 6.3584461621141051 6.3584433736719674 31.4761666580762736 O
atom 8.2292613736729656 8.2292805321138296 31.4761665519236828 O
atom 7.2938475945878816 7.2938661245873062 29.8285284799999779 Sn
atom 4.8625617662811482 4.8625566562815763 28.1809348549999505 Sn
atom 8.7897169853679742 5.7980235053665190 29.8285606200000117 O
atom 5.7979911538080442 8.7897186338076008 29.8285599099999708 O
atom 6.3584079655014767 6.3584130770615870 28.1809333480762056 O
atom 8.2292966770625089 8.2293162055010303 28.1809334019237525 O
atom 9.7251273128931270 9.7251318328931919 31.4761671549999491 Sn
atom 3.3667201736741146 3.3667507421130520 31.4761669119237482 O
atom 9.7251214528926848 4.8625537228933799 31.4761678499999462 Sn
atom 3.3667166236743307 8.2293220921131720 31.4761672569237447 O
atom 6.3584429621135854 1.4958627736720691 31.4761671430762746 O
atom 8.2292573736724624 3.3667004821139588 31.4761666869236691 O
