#===============================================================================
# Created using the Atomic Simulation Environment (ASE)

# Mon Mar 23 14:01:28 2026

#=======================================================
lattice_vector 11.7478674943430175 0.0000000000000000 0.0000000000000000 
lattice_vector 3.6972030342828979 11.1509430042465603 0.0000000000000000 
lattice_vector 0.0000000000000000 0.0000000000000000 41.8953861888976320 
atom 12.8362493259363450 9.2674539230112973 17.3790736514750996 Sn
atom 8.0506629629412902 5.8123748906675203 18.5686115130299960 Sn
atom 14.0745319346337290 7.5522806789945616 17.3790939204833919 O
atom 11.5979308941605090 10.9826024201065202 17.3790893401687079 O
atom 12.9861554687873575 9.3756778381172499 15.2741952883829093 O
atom 14.5349091491028215 10.4938661430419948 17.1049125494624050 O
atom 14.6848255577520597 10.6020761111481594 15.0000342143666074 Sn
atom 9.8992734382519174 7.1470497187716902 16.1895666610716695 Sn
atom 4.1752713634502916 8.8869261068594128 15.0000139973766444 O
atom 9.7493350974010600 1.1663045997328998 15.0000091366278276 O
atom 11.1375862066970033 8.0410567661061734 17.6533004093774899 O
atom 12.8362463825248430 5.0266192740590574 15.0000012260180426 Sn
atom 8.0506577109377542 1.5715407378721160 16.1895378352426427 Sn
atom 2.3266586777306784 3.3114436371174367 15.0000215910056767 O
atom 11.5979218836663112 6.7417631379610148 15.0000128285119878 O
atom 9.2889499155344115 2.4655669171022132 17.6532626810708386 O
atom 10.9876210571984245 3.6919662466812402 17.3791028099802283 Sn
atom 12.2259345508945216 1.9768158414773043 17.3790786679979341 O
atom 9.7493308631652589 5.4071352265477790 17.3790696009022305 O
atom 11.1375829463185436 3.8002185044195311 15.2742256555128115 O
atom 12.6862820903292217 4.9183637464008587 17.1048746234318543 O
atom 8.8108869070313940 10.6020776685530702 15.0000298235215190 Sn
atom 4.0253382679444529 7.1470456867913192 16.1895629747804009 Sn
atom 10.0492119912114148 8.8869334161453288 15.0000133745998134 O
atom 3.8753981379894249 1.1663065147969862 15.0000000000000000 O
atom 5.2636520128141164 8.0410509796530505 17.6532973978605625 O
atom 6.9623089538539418 9.2674548306946214 17.3790712567952355 Sn
atom 2.1767241176682655 5.8123765518118526 18.5686097578418448 Sn
atom 8.2005969311221598 7.5522833608034521 17.3791035903559710 O
atom 5.7239874756030087 10.9825999422129943 17.3790885656613234 O
atom 7.1122208383463938 9.3756752250290152 15.2741933854562291 O
atom 8.6609749435185943 10.4938579584845151 17.1049078649665240 O
atom 5.1136854389825785 3.6919701068557331 17.3791037571185392 Sn
atom 6.3520149704984687 1.9768292920682180 17.3790957534245329 O
atom 3.8754014044181080 5.4071428795967638 17.3790778081540687 O
atom 5.2636543930334918 3.8002202352727936 15.2742299281952683 O
atom 6.8123542894103029 4.9183607440138477 17.1048778088325086 O
atom 6.9623119506836808 5.0266233802680773 15.0000020002918681 Sn
atom 2.1767281254142850 1.5715418455760382 16.1895418288753987 Sn
atom 8.2006057826896104 3.3114561111807972 15.0000400901268307 O
atom 5.7239931766612751 6.7417699732141143 15.0000209810491398 O
atom 3.4150216414562058 2.4655667302429407 17.6532668566855548 O
atom 9.1390468436257990 6.5981786326032328 22.1372148673646443 Sn
atom 4.3534604806307451 3.1430996002594558 23.3267527289195407 Sn
atom 10.3773294523231812 4.8830053885864961 22.1372351363729329 O
atom 7.9007284118499621 8.3133271296984557 22.1372305560582490 O
atom 9.2889529864768186 6.7064025477091853 20.0323365042724539 O
atom 10.8377066667922737 7.8245908526339294 21.8630537653519461 O
atom 10.9876230754415101 7.9328008207400948 19.7581754302561485 Sn
atom 6.2020709559413705 4.4777744283636265 20.9477078769612142 Sn
atom 12.2259363754827657 6.2176508164513491 19.7581552132661891 O
atom 9.7493356493734122 9.6479723135713957 19.7581503525173687 O
atom 7.4403837243864590 5.3717814756981088 22.4114416252670310 O
atom 12.6862788647702072 9.1592079916472002 19.4839483175662629 O
atom 9.1390439002142969 2.3573439836509924 19.7581424419075873 Sn
atom 8.0506582629101082 10.0532084517106135 20.9476790511321873 Sn
atom 10.3773236897631467 0.6421683467093725 19.7581628068952178 O
atom 7.9007194013557678 4.0724878475529493 19.7581540444015360 O
atom 9.2889504675067567 10.9472346309407094 22.4114038969603833 O
atom 10.8377029935968512 3.5837535575029165 19.4839790667355679 O
atom 7.2904185748878776 1.0226909562731750 22.1372440258697729 Sn
atom 6.2020680091719713 0.2369350936094680 18.5686320722514253 Sn
atom 12.2259351028668721 10.4584835553157998 22.1372198838874787 O
atom 6.0521283808547075 2.7378599361397149 22.1372108167917716 O
atom 7.4403804640079967 1.1309432140114666 20.0323668714023562 O
atom 8.9890796080186739 2.2490884559927937 21.8630158393213954 O
atom 5.1136844247208426 7.9328023781450083 19.7581710394110566 Sn
atom 12.0760032799769306 4.4777703963832565 20.9477041906699419 Sn
atom 6.3520095089008697 6.2176581257372625 19.7581545904893581 O
atom 3.8753986899617812 9.6479742286354817 19.7581412158895446 O
atom 13.3143170248465896 5.3717756892449859 22.4114386137501036 O
atom 6.8123514432816643 9.1591923294044157 19.4839449034908547 O
atom 3.2651064715433957 6.5981795402865595 22.1372124726847730 Sn
atom 10.2273891297007342 3.1431012614037890 23.3267509737313929 Sn
atom 4.5033944488116111 4.8830080703953893 22.1372448062455121 O
atom 13.7746524876354819 8.3133246518049280 22.1372297815508681 O
atom 3.4150183560358491 6.7063999346209506 20.0323346013457702 O
atom 4.9637724612080500 7.8245826680764496 21.8630490808560687 O
atom 1.4164829566720283 1.0226948164476679 22.1372449730080838 Sn
atom 0.3281369824202729 0.2369402453439819 18.5686373393352966 Sn
atom 6.3520155224708201 10.4584970059067146 22.1372369693140740 O
atom 11.9260664164505759 2.7378675891886983 22.1372190240436133 O
atom 1.5664519107229451 1.1309449448647297 20.0323711440848093 O
atom 3.1151518070997608 2.2490854536057823 21.8630190247220533 O
atom 3.2651094683731285 2.3573480898600123 19.7581432161814128 Sn
atom 13.9245961717296538 10.0532095594145350 20.9476830447649434 Sn
atom 4.5034033003790617 0.6421808207727325 19.7581813060163789 O
atom 2.0267906943507281 4.0724946828060498 19.7581621969386809 O
atom 15.1628896877715764 10.9472344440814364 22.4114080725750959 O
atom 4.9637822929083102 3.5837445353836248 19.4839830902005673 O
atom 5.4418443613152494 3.9289033421951691 26.8953560832541818 Sn
atom 6.6801269700126378 2.2137300981784360 26.8953763522624776 O
atom 4.2035259295394178 5.6440518392903929 26.8953717719477901 O
atom 5.5917505041662690 4.0371272573011208 24.7904777201619986 O
atom 7.1405041844817339 5.1553155622258657 26.6211949812414908 O
atom 7.2904205931309702 5.2635255303320294 24.5163166461456967 Sn
atom 2.5048684736308213 1.8084991379555635 25.7058490928507517 Sn
atom 8.5287338931722143 3.5483755260432850 24.5162964291557302 O
atom 6.0521331670628626 6.9786970231633338 24.5162915684069098 O
atom 8.9890763824596576 6.4899327012391366 24.2420895334558004 O
atom 9.1390444521866492 10.8390116974894894 24.5162836577971284 Sn
atom 4.3534557805995595 7.3839331613025498 25.7058202670217248 Sn
atom 10.3773242417355025 9.1238360605478714 24.5163040227847624 O
atom 4.2035169190452235 1.4032125571448872 24.5162952602910771 O
atom 7.1405005112863034 0.9144782670948531 24.2421202826251125 O
atom 7.2904191268602316 9.5043586701116727 26.8953852417593104 Sn
atom 6.2020685611443200 8.7186028074479651 23.3267732881409628 Sn
atom 8.5287326205563172 7.7892082649077388 26.8953610997770234 O
atom 2.3549258985441628 0.0685846457316507 26.8953520326813127 O
atom 7.4403810159803454 9.6126109278499658 24.7905080872918937 O
atom 8.9890801599910244 10.7307561698312917 26.6211570552109329 O
atom 13.1643494367533211 5.2635270877369429 24.5163122553005977 Sn
atom 8.3788007976663810 1.8084951059751884 25.7058454065594866 Sn
atom 2.6548070265903263 3.5483828353292011 24.5162958063788956 O
atom 11.9260637019942433 6.9786989382274180 24.5162824317790857 O
atom 3.1151489609711094 6.4899170389963512 24.2420861193803994 O
atom 11.3157714835758672 3.9289042498784936 26.8953536885743212 Sn
atom 0.8061919665010668 2.2137327799873252 26.8953860221350531 O
atom 10.0774500053249323 5.6440493613968652 26.8953709974404056 O
atom 11.4656833680683174 4.0371246442128879 24.7904758172353112 O
atom 13.0144374732405232 5.1553073776683860 26.6211902967456062 O
atom 13.1643510029874040 9.5043625302861638 26.8953861888976284 Sn
atom 12.0760050287356382 8.7186079591824779 23.3267785552248377 Sn
atom 2.6548130401602759 7.7892217154986518 26.8953781852036151 O
atom 8.2288639341400369 0.0685922987806362 26.8953602399331508 O
atom 13.3143199570383164 9.6126126587032275 24.7905123599743540 O
atom 14.8630198534151159 10.7307531674442806 26.6211602406115908 O
atom 15.0129775146884992 10.8390158036985103 24.5162844320709503 Sn
atom 10.2273936894191060 7.3839342690064713 25.7058242606544844 Sn
atom 4.5034038523514113 9.1238485346112306 24.5163225219059129 O
atom 10.0774557063832013 1.4032193923979861 24.5163034128282256 O
atom 1.2665798105977666 0.9144692449755618 24.2421243060901084 O
