#===============================================================================
# Created using the Atomic Simulation Environment (ASE)

# Mon Mar 23 14:01:29 2026

#=======================================================
lattice_vector 13.7534260507129780 0.0000000000000000 0.0000000000000000 
lattice_vector -0.0000000000000336 6.5904661899999999 0.0000000000000000 
lattice_vector 0.0000000000000000 0.0000000000000000 36.0841979184612001 
atom 13.7533886606698097 4.9428711637819047 16.3229235949740321 Sn
atom 6.8766766942282214 6.5904658185382008 19.7612611660307316 Sn
atom 2.1154207342459030 4.9428431737819043 16.3229236830955458 O
atom 11.6379296312918310 4.9428430737818756 16.3229169590428924 O
atom 13.7533919578521093 0.0000002981043195 15.0000000000000000 O
atom 13.7533659392639365 6.5904660494594900 17.6458474515546797 O
atom 13.7533865534911470 1.6475952737819062 16.3229239909515087 Sn
atom 2.1154177502551077 1.6476231437819058 16.3229238527975724 O
atom 11.6379270291388242 1.6476233237818763 16.3229170156082830 O
atom 13.7533972398808064 3.2952331281045324 15.0000496035469766 O
atom 13.7533655645565034 3.2952335094592753 17.6457976783079076 O
atom 10.3150230581373687 4.9428706785382701 19.7612771802194054 Sn
atom 10.3150387046680923 6.5904651037817992 16.3228992652053471 Sn
atom 12.4304814723433097 4.9428400685382590 19.7612746732593898 O
atom 8.1995642338302659 4.9428402585382063 19.7612622074995663 O
atom 10.3150270765703151 0.0000003528606780 18.4383521286062511 O
atom 10.3150195137465488 3.2952343837819567 16.3229358933138009 Sn
atom 12.4304791176772369 1.6476261285382603 19.7612751045916433 O
atom 8.1995623246413487 1.6476268285382076 19.7612627307562398 O
atom 10.3150343809266314 3.2952326828608833 18.4383998653937304 O
atom 3.4383047118043693 4.9428294385382623 19.7612754796214567 Sn
atom 3.4383060464455011 0.0000014837819671 16.3229382797986560 Sn
atom 1.3228458874903064 4.9428620085382233 19.7612663617454949 O
atom 3.4383239612566059 6.5904658228608906 18.4384015518465070 O
atom 3.4383063381503391 1.6476364685382612 19.7612751826383608 Sn
atom 3.4383240211442412 3.2952317837818077 16.3229009304398502 Sn
atom 1.3228482704400659 1.6476041285382235 19.7612664536723095 O
atom 3.4383158507985794 3.2952332328606850 18.4383538009159302 O
atom 6.8766688647672343 4.9428283837819009 16.3229224671308586 Sn
atom 8.9921281628278908 4.9428602637819923 16.3229441644367377 O
atom 4.7612102879357074 4.9428594837818780 16.3229174151191891 O
atom 6.8766876758117341 0.0000000981045332 15.0000498545739980 O
atom 6.8766689263997547 0.0000002194592757 17.6457976182233018 O
atom 6.8766709860877739 1.6476382837818984 16.3229223115696982 Sn
atom 13.7533885846777455 3.2952319285382030 19.7612616716107361 Sn
atom 8.9921308356919454 1.6476061437819916 16.3229438250287515 O
atom 4.7612133002111703 1.6476068537818760 16.3229169484323720 O
atom 6.8766820897257128 3.2952334081043255 15.0000014036107103 O
atom 6.8766686647106194 3.2952333694594920 17.6458477874491102 O
atom 6.8766519525156911 3.2952343685383685 19.7613001063717597 Sn
atom 10.3150020550046815 6.5904657242158429 21.0841979184611965 O
atom 10.3150214317908002 1.6475954785382732 19.7612780146036577 Sn
atom 10.3150113535158745 3.2952335142156355 21.0841499412771292 O
atom 5.5537641937245663 4.9428635285383127 19.7612872774326043 O
atom 3.4383042572507123 0.0000001042156332 21.0841491387179722 O
atom 5.5537661665522151 1.6476034985383134 19.7612875107803028 O
atom 3.4382945981149371 3.2952327842158389 21.0841972219676244 O
atom 13.7533652713215897 0.0000011185383676 19.7613000462680439 Sn
