#===============================================================================
# Created using the Atomic Simulation Environment (ASE)

# Mon Mar 23 14:01:28 2026

#=======================================================
lattice_vector 9.7251295900000052 0.0000000000000000 0.0000000000000000 
lattice_vector 0.0000006400007604 9.7251526999999847 0.0000000000000000 
lattice_vector 0.0000000000000000 0.0000000000000000 36.5904687599999434 
atom 1.4958396388895054 1.4958379804500601 15.0000011780762037 O
atom 1.4958365588897831 6.3584112104501642 15.0000011430761973 O
atom 4.8625700696704097 0.0000188696696608 15.0000000000000000 Sn
atom 4.8625724296709567 4.8626002896695875 15.0000003850000070 Sn
atom 6.3584461888908450 6.3584434004486887 15.0000013780762806 O
atom 8.2292614004497064 8.2292805588905527 15.0000012719236757 O
atom 2.4312866879757875 2.4312874079755344 16.6475965099999748 Sn
atom 9.7251273396698661 9.7251318596699132 15.0000018749999526 Sn
atom 3.9271397087554294 0.9354308587552904 16.6476244999999814 O
atom 0.9354283971959582 3.9271399671958949 16.6476245999999648 O
atom 1.4958396121127657 1.4958379536733386 21.5904673680762116 O
atom 3.3667202004508536 3.3667507688897729 15.0000016319237517 O
atom 2.4312854645874329 2.4312891645871701 19.9428723999999775 Sn
atom 0.0000071362822121 0.0000241762812381 18.2952333250000052 Sn
atom 3.9271377053671461 0.9354330753670086 19.9428445299999808 O
atom 0.9354265838076640 3.9271418338076076 19.9428443499999695 O
atom 1.4958784355021666 1.4958693070604219 18.2952345380762722 O
atom 3.3666847270613363 3.3667158255025789 18.2952341719236777 O
atom 2.4312841279761157 7.2938621779756234 16.6475970149999704 Sn
atom 9.7251214796694239 4.8625537496701021 15.0000025699999426 Sn
atom 3.9271355187556871 5.7980035887554289 16.6476276249999664 O
atom 0.9354200871960846 8.7897086971961684 16.6476274349999471 O
atom 1.4958365321130436 6.3584111836734420 21.5904673330761980 O
atom 3.3667166504510702 8.2293221188898915 15.0000019769237376 O
atom 2.4312835545877598 7.2938639045872371 19.9428722149999764 Sn
atom 0.0000042062823515 4.8625932062813391 18.2952332899999988 Sn
atom 3.9271341453674018 5.7980055453671326 19.9428415649999735 O
atom 0.9354190938077918 8.7897104038078613 19.9428408649999511 O
atom 1.4958754655023532 6.3584397870605232 18.2952350030762645 O
atom 3.3666892870613685 8.2292816055024343 18.2952341869236719 O
atom 7.2938436379757814 2.4312883879757510 16.6476382549999684 Sn
atom 4.8625700428936707 0.0000188428929393 21.5904661899999937 Sn
atom 8.7897058987557273 0.9354391587552653 16.6476041649999864 O
atom 5.7979837371959491 3.9271390471962264 16.6476056849999559 O
atom 6.3584429888903253 1.4958628004487904 15.0000018630762675 O
atom 8.2292574004492032 3.3667005088906805 15.0000014069236691 O
atom 7.2938445645874062 2.4312870145873999 19.9428312249999706 Sn
atom 4.8625569962815094 9.7251324362817329 18.2952358899999439 Sn
atom 8.7897074453672897 0.9354379153668257 19.9428641949999914 O
atom 5.7979854738075014 3.9271374138077824 19.9428635649999570 O
atom 6.3584034755010324 1.4958347570617299 18.2952344530762012 O
atom 8.2292845570621758 3.3667413255014251 18.2952349169237394 O
atom 7.2938462179762578 7.2938677479756668 16.6476392899999723 Sn
atom 4.8625724028942168 4.8626002628928662 21.5904665750000007 Sn
atom 8.7897153487564363 5.7980256487549537 16.6476074100000062 O
atom 5.7979893671965153 8.7897211071960442 16.6476081899999677 O
atom 6.3584461621141051 6.3584433736719674 21.5904675680762708 O
atom 8.2292613736729656 8.2292805321138296 21.5904674619236800 O
atom 7.2938475945878816 7.2938661245873062 19.9428293899999751 Sn
atom 4.8625617662811482 4.8625566562815763 18.2952357649999477 Sn
atom 8.7897169853679742 5.7980235053665190 19.9428615300000089 O
atom 5.7979911538080442 8.7897186338076008 19.9428608199999680 O
atom 6.3584079655014767 6.3584130770615870 18.2952342580762028 O
atom 8.2292966770625089 8.2293162055010303 18.2952343119237497 O
atom 9.7251273128931270 9.7251318328931919 21.5904680649999463 Sn
atom 3.3667201736741146 3.3667507421130520 21.5904678219237454 O
atom 9.7251214528926848 4.8625537228933799 21.5904687599999434 Sn
atom 3.3667166236743307 8.2293220921131720 21.5904681669237419 O
atom 6.3584429621135854 1.4958627736720691 21.5904680530762718 O
atom 8.2292573736724624 3.3667004821139588 21.5904675969236663 O
