#===============================================================================
# Created using the Atomic Simulation Environment (ASE)

# Mon Mar 23 14:01:28 2026

#=======================================================
lattice_vector 11.7478674943430175 0.0000000000000000 0.0000000000000000 
lattice_vector 3.6972030342828979 11.1509430042465603 0.0000000000000000 
lattice_vector 0.0000000000000000 0.0000000000000000 44.0002647237163274 
atom 11.7478654452518363 8.4816501810755849 15.9153488319591538 Sn
atom 14.8347886890075511 10.7103320565142379 15.0000377283066477 O
atom 12.9861523978449540 5.1348422075102773 15.0000000000000000 O
atom 8.9608544951246660 10.7103262700611150 15.0000347167897239 O
atom 5.8739265999788097 8.4816518422199163 15.9153470767710061 Sn
atom 7.1122241237667501 5.1348420206510053 15.0000041756147127 O
atom 12.8362493259363450 9.2674539230112973 19.4839521862938021 Sn
atom 8.0506629629412902 5.8123748906675203 20.6734900478486985 Sn
atom 14.0745319346337290 7.5522806789945616 19.4839724553020943 O
atom 11.5979308941605090 10.9826024201065202 19.4839678749874103 O
atom 12.9861554687873575 9.3756778381172499 17.3790738232016118 O
atom 14.5349091491028215 10.4938661430419948 19.2097910842811075 O
atom 14.6848255577520597 10.6020761111481594 17.1049127491853099 Sn
atom 9.8992734382519174 7.1470497187716902 18.2944451958903720 Sn
atom 4.1752713634502916 8.8869261068594128 17.1048925321953469 O
atom 9.7493350974010600 1.1663045997328998 17.1048876714465301 O
atom 11.1375862066970033 8.0410567661061734 19.7581789441961924 O
atom 0.9384108184548335 0.6775402778087042 16.8306856364954207 O
atom 12.8362463825248430 5.0266192740590574 17.1048797608367451 Sn
atom 8.0506577109377542 1.5715407378721160 18.2944163700613451 Sn
atom 2.3266586777306784 3.3114436371174367 17.1049001258243791 O
atom 11.5979218836663112 6.7417631379610148 17.1048913633306903 O
atom 9.2889499155344115 2.4655669171022132 19.7581412158895411 O
atom 2.7870379815643775 6.2530288479109810 16.8307163856647257 O
atom 10.9876210571984245 3.6919662466812402 19.4839813447989307 Sn
atom 9.8992704914825218 2.9062103840175322 15.9153693911805796 Sn
atom 12.2259345508945216 1.9768158414773043 19.4839572028166366 O
atom 9.7493308631652589 5.4071352265477790 19.4839481357209330 O
atom 11.1375829463185436 3.8002185044195311 17.3791041903315140 O
atom 12.6862820903292217 4.9183637464008587 19.2097531582505567 O
atom 8.8108869070313940 10.6020776685530702 17.1049083583402215 Sn
atom 4.0253382679444529 7.1470456867913192 18.2944415095991033 Sn
atom 10.0492119912114148 8.8869334161453288 17.1048919094185159 O
atom 3.8753981379894249 1.1663065147969862 17.1048785348187025 O
atom 5.2636520128141164 8.0410509796530505 19.7581759326792650 O
atom 6.8123508913093076 0.6775246155659181 16.8306822224200126 O
atom 6.9623089538539418 9.2674548306946214 19.4839497916139379 Sn
atom 2.1767241176682655 5.8123765518118526 20.6734882926605472 Sn
atom 8.2005969311221598 7.5522833608034521 19.4839821251746734 O
atom 5.7239874756030087 10.9825999422129943 19.4839671004800259 O
atom 7.1122208383463938 9.3756752250290152 17.3790719202749315 O
atom 8.6609749435185943 10.4938579584845151 19.2097863997852265 O
atom 5.1136854389825785 3.6919701068557331 19.4839822919372416 Sn
atom 4.0253394647308198 2.9062155357520454 15.9153746582644580 Sn
atom 6.3520149704984687 1.9768292920682180 19.4839742882432354 O
atom 3.8754014044181080 5.4071428795967638 19.4839563429727711 O
atom 5.2636543930334918 3.8002202352727936 17.3791084630139707 O
atom 6.8123542894103029 4.9183607440138477 19.2097563436512111 O
atom 6.9623119506836808 5.0266233802680773 17.1048805351105706 Sn
atom 2.1767281254142850 1.5715418455760382 18.2944203636941012 Sn
atom 8.2006057826896104 3.3114561111807972 17.1049186249455332 O
atom 5.7239931766612751 6.7417699732141143 17.1048995158678423 O
atom 3.4150216414562058 2.4655667302429407 19.7581453915042573 O
atom 8.6609847752188607 6.2530198257916885 16.8307204091297287 O
atom 9.1390468436257990 6.5981786326032328 24.2420934021833467 Sn
atom 4.3534604806307451 3.1430996002594558 25.4316312637382431 Sn
atom 10.3773294523231812 4.8830053885864961 24.2421136711916354 O
atom 7.9007284118499621 8.3133271296984557 24.2421090908769514 O
atom 9.2889529864768186 6.7064025477091853 22.1372150390911564 O
atom 10.8377066667922737 7.8245908526339294 23.9679323001706486 O
atom 10.9876230754415101 7.9328008207400948 21.8630539650748510 Sn
atom 6.2020709559413705 4.4777744283636265 23.0525864117799166 Sn
atom 12.2259363754827657 6.2176508164513491 21.8630337480848915 O
atom 9.7493356493734122 9.6479723135713957 21.8630288873360712 O
atom 7.4403837243864590 5.3717814756981088 24.5163201600857334 O
atom 12.6862788647702072 9.1592079916472002 21.5888268523849653 O
atom 9.1390439002142969 2.3573439836509924 21.8630209767262897 Sn
atom 8.0506582629101082 10.0532084517106135 23.0525575859508898 Sn
atom 10.3773236897631467 0.6421683467093725 21.8630413417139202 O
atom 7.9007194013557678 4.0724878475529493 21.8630325792202385 O
atom 9.2889504675067567 10.9472346309407094 24.5162824317790857 O
atom 10.8377029935968512 3.5837535575029165 21.5888576015542704 O
atom 7.2904185748878776 1.0226909562731750 24.2421225606884754 Sn
atom 6.2020680091719713 0.2369350936094680 20.6735106070701278 Sn
atom 12.2259351028668721 10.4584835553157998 24.2420984187061812 O
atom 6.0521283808547075 2.7378599361397149 24.2420893516104741 O
atom 7.4403804640079967 1.1309432140114666 22.1372454062210586 O
atom 8.9890796080186739 2.2490884559927937 23.9678943741400978 O
atom 5.1136844247208426 7.9328023781450083 21.8630495742297590 Sn
atom 12.0760032799769306 4.4777703963832565 23.0525827254886444 Sn
atom 6.3520095089008697 6.2176581257372625 21.8630331253080605 O
atom 3.8753986899617812 9.6479742286354817 21.8630197507082471 O
atom 13.3143170248465896 5.3717756892449859 24.5163171485688061 O
atom 6.8123514432816643 9.1591923294044157 21.5888234383095572 O
atom 3.2651064715433957 6.5981795402865595 24.2420910075034755 Sn
atom 10.2273891297007342 3.1431012614037890 25.4316295085500954 Sn
atom 4.5033944488116111 4.8830080703953893 24.2421233410642145 O
atom 13.7746524876354819 8.3133246518049280 24.2421083163695705 O
atom 3.4150183560358491 6.7063999346209506 22.1372131361644726 O
atom 4.9637724612080500 7.8245826680764496 23.9679276156747711 O
atom 1.4164829566720283 1.0226948164476679 24.2421235078267863 Sn
atom 0.3281369824202729 0.2369402453439819 20.6735158741539991 Sn
atom 6.3520155224708201 10.4584970059067146 24.2421155041327765 O
atom 11.9260664164505759 2.7378675891886983 24.2420975588623158 O
atom 1.5664519107229451 1.1309449448647297 22.1372496789035118 O
atom 3.1151518070997608 2.2490854536057823 23.9678975595407557 O
atom 3.2651094683731285 2.3573480898600123 21.8630217510001152 Sn
atom 13.9245961717296538 10.0532095594145350 23.0525615795836458 Sn
atom 4.5034033003790617 0.6421808207727325 21.8630598408350814 O
atom 2.0267906943507281 4.0724946828060498 21.8630407317573834 O
atom 15.1628896877715764 10.9472344440814364 24.5162866073937984 O
atom 4.9637822929083102 3.5837445353836248 21.5888616250192698 O
atom 5.4418443613152494 3.9289033421951691 29.0002346180728843 Sn
atom 6.6801269700126378 2.2137300981784360 29.0002548870811800 O
atom 4.2035259295394178 5.6440518392903929 29.0002503067664925 O
atom 5.5917505041662690 4.0371272573011208 26.8953562549807010 O
atom 7.1405041844817339 5.1553155622258657 28.7260735160601932 O
atom 7.2904205931309702 5.2635255303320294 26.6211951809643992 Sn
atom 2.5048684736308213 1.8084991379555635 27.8107276276694542 Sn
atom 8.5287338931722143 3.5483755260432850 26.6211749639744326 O
atom 6.0521331670628626 6.9786970231633338 26.6211701032256123 O
atom 8.9890763824596576 6.4899327012391366 26.3469680682745029 O
atom 9.1390444521866492 10.8390116974894894 26.6211621926158308 Sn
atom 4.3534557805995595 7.3839331613025498 27.8106988018404273 Sn
atom 10.3773242417355025 9.1238360605478714 26.6211825576034649 O
atom 4.2035169190452235 1.4032125571448872 26.6211737951097795 O
atom 7.1405005112863034 0.9144782670948531 26.3469988174438150 O
atom 7.2904191268602316 9.5043586701116727 29.0002637765780129 Sn
atom 6.2020685611443200 8.7186028074479651 25.4316518229596653 Sn
atom 8.5287326205563172 7.7892082649077388 29.0002396345957258 O
atom 2.3549258985441628 0.0685846457316507 29.0002305675000152 O
atom 7.4403810159803454 9.6126109278499658 26.8953866221105962 O
atom 8.9890801599910244 10.7307561698312917 28.7260355900296354 O
atom 13.1643494367533211 5.2635270877369429 26.6211907901193001 Sn
atom 8.3788007976663810 1.8084951059751884 27.8107239413781890 Sn
atom 2.6548070265903263 3.5483828353292011 26.6211743411975981 O
atom 11.9260637019942433 6.9786989382274180 26.6211609665977882 O
atom 3.1151489609711094 6.4899170389963512 26.3469646541991018 O
atom 11.3157714835758672 3.9289042498784936 29.0002322233930236 Sn
atom 0.8061919665010668 2.2137327799873252 29.0002645569537556 O
atom 10.0774500053249323 5.6440493613968652 29.0002495322591081 O
atom 11.4656833680683174 4.0371246442128879 26.8953543520540137 O
atom 13.0144374732405232 5.1553073776683860 28.7260688315643087 O
atom 13.1643510029874040 9.5043625302861638 29.0002647237163309 Sn
atom 12.0760050287356382 8.7186079591824779 25.4316570900435401 Sn
atom 2.6548130401602759 7.7892217154986518 29.0002567200223176 O
atom 8.2288639341400369 0.0685922987806362 29.0002387747518533 O
atom 13.3143199570383164 9.6126126587032275 26.8953908947930564 O
atom 14.8630198534151159 10.7307531674442806 28.7260387754302933 O
atom 15.0129775146884992 10.8390158036985103 26.6211629668896528 Sn
atom 10.2273936894191060 7.3839342690064713 27.8107027954731869 Sn
atom 4.5034038523514113 9.1238485346112306 26.6212010567246153 O
atom 10.0774557063832013 1.4032193923979861 26.6211819476469280 O
atom 1.2665798105977666 0.9144692449755618 26.3470028409088108 O
