#===============================================================================
# Created using the Atomic Simulation Environment (ASE)

# Mon Mar 23 14:01:28 2026

#=======================================================
lattice_vector 11.7478674943430175 0.0000000000000000 0.0000000000000000 
lattice_vector 3.6972030342828979 11.1509430042465603 0.0000000000000000 
lattice_vector 0.0000000000000000 0.0000000000000000 36.8630515875518583 
atom 9.1390468436257990 6.5981786326032328 17.1048802660188741 Sn
atom 4.3534604806307451 3.1430996002594558 18.2944181275737705 Sn
atom 10.3773294523231812 4.8830053885864961 17.1049005350271628 O
atom 7.9007284118499621 8.3133271296984557 17.1048959547124788 O
atom 9.2889529864768186 6.7064025477091853 15.0000019029266838 O
atom 10.8377066667922737 7.8245908526339294 16.8307191640061760 O
atom 6.2020709559413705 4.4777744283636265 15.9153732756154440 Sn
atom 7.4403837243864590 5.3717814756981088 17.3791070239212608 O
atom 8.0506582629101082 10.0532084517106135 15.9153444497864172 Sn
atom 9.2889504675067567 10.9472346309407094 17.3790692956146131 O
atom 7.2904185748878776 1.0226909562731750 17.1049094245240028 Sn
atom 12.2259351028668721 10.4584835553157998 17.1048852825417086 O
atom 6.0521283808547075 2.7378599361397149 17.1048762154460015 O
atom 7.4403804640079967 1.1309432140114666 15.0000322700565860 O
atom 8.9890796080186739 2.2490884559927937 16.8306812379756252 O
atom 12.0760032799769306 4.4777703963832565 15.9153695893241718 Sn
atom 13.3143170248465896 5.3717756892449859 17.3791040124043334 O
atom 3.2651064715433957 6.5981795402865595 17.1048778713390028 Sn
atom 10.2273891297007342 3.1431012614037890 18.2944163723856228 Sn
atom 4.5033944488116111 4.8830080703953893 17.1049102048997419 O
atom 13.7746524876354819 8.3133246518049280 17.1048951802050979 O
atom 3.4150183560358491 6.7063999346209506 15.0000000000000000 O
atom 4.9637724612080500 7.8245826680764496 16.8307144795102985 O
atom 1.4164829566720283 1.0226948164476679 17.1049103716623137 Sn
atom 6.3520155224708201 10.4584970059067146 17.1049023679683039 O
atom 11.9260664164505759 2.7378675891886983 17.1048844226978431 O
atom 1.5664519107229451 1.1309449448647297 15.0000365427390392 O
atom 3.1151518070997608 2.2490854536057823 16.8306844233762831 O
atom 13.9245961717296538 10.0532095594145350 15.9153484434191732 Sn
atom 15.1628896877715764 10.9472344440814364 17.3790734712293258 O
atom 5.4418443613152494 3.9289033421951691 21.8630214819084117 Sn
atom 6.6801269700126378 2.2137300981784360 21.8630417509167074 O
atom 4.2035259295394178 5.6440518392903929 21.8630371706020199 O
atom 5.5917505041662690 4.0371272573011208 19.7581431188162284 O
atom 7.1405041844817339 5.1553155622258657 21.5888603798957206 O
atom 7.2904205931309702 5.2635255303320294 19.4839820447999266 Sn
atom 2.5048684736308213 1.8084991379555635 20.6735144915049815 Sn
atom 8.5287338931722143 3.5483755260432850 19.4839618278099600 O
atom 6.0521331670628626 6.9786970231633338 19.4839569670611397 O
atom 8.9890763824596576 6.4899327012391366 19.2097549321100303 O
atom 9.1390444521866492 10.8390116974894894 19.4839490564513582 Sn
atom 4.3534557805995595 7.3839331613025498 20.6734856656759547 Sn
atom 10.3773242417355025 9.1238360605478714 19.4839694214389922 O
atom 4.2035169190452235 1.4032125571448872 19.4839606589453069 O
atom 7.1405005112863034 0.9144782670948531 19.2097856812793424 O
atom 7.2904191268602316 9.5043586701116727 21.8630506404135403 Sn
atom 6.2020685611443200 8.7186028074479651 18.2944386867951927 Sn
atom 8.5287326205563172 7.7892082649077388 21.8630264984312532 O
atom 2.3549258985441628 0.0685846457316507 21.8630174313355425 O
atom 7.4403810159803454 9.6126109278499658 19.7581734859461235 O
atom 8.9890801599910244 10.7307561698312917 21.5888224538651627 O
atom 13.1643494367533211 5.2635270877369429 19.4839776539548275 Sn
atom 8.3788007976663810 1.8084951059751884 20.6735108052137164 Sn
atom 2.6548070265903263 3.5483828353292011 19.4839612050331255 O
atom 11.9260637019942433 6.9786989382274180 19.4839478304333156 O
atom 3.1151489609711094 6.4899170389963512 19.2097515180346292 O
atom 11.3157714835758672 3.9289042498784936 21.8630190872285510 Sn
atom 0.8061919665010668 2.2137327799873252 21.8630514207892830 O
atom 10.0774500053249323 5.6440493613968652 21.8630363960946354 O
atom 11.4656833680683174 4.0371246442128879 19.7581412158895411 O
atom 13.0144374732405232 5.1553073776683860 21.5888556953998361 O
atom 13.1643510029874040 9.5043625302861638 21.8630515875518583 Sn
atom 12.0760050287356382 8.7186079591824779 18.2944439538790675 Sn
atom 2.6548130401602759 7.7892217154986518 21.8630435838578450 O
atom 8.2288639341400369 0.0685922987806362 21.8630256385873807 O
atom 13.3143199570383164 9.6126126587032275 19.7581777586285838 O
atom 14.8630198534151159 10.7307531674442806 21.5888256392658207 O
atom 15.0129775146884992 10.8390158036985103 19.4839498307251802 Sn
atom 10.2273936894191060 7.3839342690064713 20.6734896593087143 Sn
atom 4.5034038523514113 9.1238485346112306 19.4839879205601427 O
atom 10.0774557063832013 1.4032193923979861 19.4839688114824554 O
atom 1.2665798105977666 0.9144692449755618 19.2097897047443382 O
