#===============================================================================
# Created using the Atomic Simulation Environment (ASE)

# Mon Mar 23 14:01:28 2026

#=======================================================
lattice_vector 9.7251295900000052 0.0000000000000000 0.0000000000000000 
lattice_vector 0.0000006400007604 9.7251526999999847 0.0000000000000000 
lattice_vector 0.0000000000000000 0.0000000000000000 30.0000025699999497 
atom 1.4958396121127657 1.4958379536733386 15.0000011780762179 O
atom 1.4958365321130436 6.3584111836734420 15.0000011430762044 O
atom 4.8625700428936707 0.0000188428929393 15.0000000000000000 Sn
atom 4.8625724028942168 4.8626002628928662 15.0000003850000070 Sn
atom 6.3584461621141051 6.3584433736719674 15.0000013780762771 O
atom 8.2292613736729656 8.2292805321138296 15.0000012719236864 O
atom 9.7251273128931270 9.7251318328931919 15.0000018749999526 Sn
atom 3.3667201736741146 3.3667507421130520 15.0000016319237517 O
atom 9.7251214528926848 4.8625537228933799 15.0000025699999497 Sn
atom 3.3667166236743307 8.2293220921131720 15.0000019769237483 O
atom 6.3584429621135854 1.4958627736720691 15.0000018630762781 O
atom 8.2292573736724624 3.3667004821139588 15.0000014069236727 O
