#===============================================================================
# Created using the Atomic Simulation Environment (ASE)

# Mon Mar 23 14:01:28 2026

#=======================================================
lattice_vector 9.7251295900000052 0.0000000000000000 0.0000000000000000 
lattice_vector 0.0000006400007604 9.7251526999999847 0.0000000000000000 
lattice_vector 0.0000000000000000 0.0000000000000000 44.8285717499999663 
atom 1.4958396656662445 1.4958380072267812 16.6476379780762258 O
atom 2.4312855181409114 2.4312892181406132 15.0000430099999988 Sn
atom 3.9271377589206251 0.9354331289204515 15.0000151400000021 O
atom 0.9354266373611427 3.9271418873610506 15.0000149599999908 O
atom 1.4958365856665223 6.3584112372268864 16.6476379430762229 O
atom 2.4312836081412388 7.2938639581406788 15.0000428249999977 Sn
atom 3.9271341989208812 5.7980055989205743 15.0000121749999948 O
atom 0.9354191473612704 8.7897104573613074 15.0000114749999724 O
atom 4.8625700964471488 0.0000188964463823 16.6476368000000221 Sn
atom 7.2938446181408851 2.4312870681408429 15.0000018349999920 Sn
atom 8.7897074989207660 0.9354379689202686 15.0000348050000127 O
atom 5.7979855273609795 3.9271374673612249 15.0000341749999784 O
atom 4.8625724564476949 4.8626003164463087 16.6476371850000291 Sn
atom 6.3584462156675832 6.3584434272254109 16.6476381780762992 O
atom 8.2292614272264455 8.2292805856672739 16.6476380719237014 O
atom 7.2938476481413597 7.2938661781407479 15.0000000000000000 Sn
atom 8.7897170389214541 5.7980235589199616 15.0000321400000303 O
atom 5.7979912073615223 8.7897186873610433 15.0000314299999893 O
atom 2.4312867147525270 2.4312874347522557 18.2952333100000004 Sn
atom 9.7251273664466051 9.7251318864466345 16.6476386749999712 Sn
atom 3.9271397355321684 0.9354308855320118 18.2952612999999999 O
atom 0.9354284239726974 3.9271399939726157 18.2952613999999940 O
atom 1.4958396388895054 1.4958379804500601 23.2381041680762266 O
atom 3.3667202272275931 3.3667507956664942 16.6476384319237738 O
atom 2.4312854913641724 2.4312891913638914 21.5905092000000032 Sn
atom 0.0000071630589514 0.0000242030579596 19.9428701250000273 Sn
atom 3.9271377321438856 0.9354331021437300 21.5904813299999994 O
atom 0.9354266105844032 3.9271418605843285 21.5904811499999916 O
atom 1.4958784622789063 1.4958693338371436 19.9428713380762979 O
atom 3.3666847538380749 3.3667158522793006 19.9428709719237034 O
atom 2.4312841547528552 7.2938622047523447 18.2952338149999960 Sn
atom 9.7251215064461647 4.8625537764468234 16.6476393699999647 Sn
atom 3.9271355455324266 5.7980036155321493 18.2952644249999921 O
atom 0.9354201139728240 8.7897087239728915 18.2952642349999763 O
atom 1.4958365588897831 6.3584112104501642 23.2381041330762201 O
atom 3.3667166772278092 8.2293221456666146 16.6476387769237633 O
atom 2.4312835813644997 7.2938639313639575 21.5905090149999950 Sn
atom 0.0000042330590908 4.8625932330580603 19.9428700900000173 Sn
atom 3.9271341721441413 5.7980055721438539 21.5904783649999921 O
atom 0.9354191205845310 8.7897104305845843 21.5904776649999768 O
atom 1.4958754922790927 6.3584398138372444 19.9428718030762866 O
atom 3.3666893138381075 8.2292816322791573 19.9428709869236975 O
atom 7.2938436647525204 2.4312884147524714 18.2952750549999941 Sn
atom 4.8625700696704097 0.0000188696696608 23.2381029900000229 Sn
atom 8.7897059255324645 0.9354391855319868 18.2952409650000121 O
atom 5.7979837639726890 3.9271390739729481 18.2952424849999815 O
atom 6.3584430156670653 1.4958628272255119 16.6476386630762931 O
atom 8.2292574272259422 3.3667005356674022 16.6476382069236948 O
atom 7.2938445913641461 2.4312870413641212 21.5904680249999927 Sn
atom 4.8625570230582493 9.7251324630584559 19.9428726899999660 Sn
atom 8.7897074721440269 0.9354379421435470 21.5905009950000135 O
atom 5.7979855005842404 3.9271374405845032 21.5905003649999827 O
atom 6.3584035022777714 1.4958347838384516 19.9428712530762233 O
atom 8.2292845838389148 3.3667413522781473 19.9428717169237615 O
atom 7.2938462447529968 7.2938677747523881 18.2952760900000015 Sn
atom 4.8625724296709567 4.8626002896695875 23.2381033750000299 Sn
atom 8.7897153755331736 5.7980256755316750 18.2952442100000319 O
atom 5.7979893939732552 8.7897211339727637 18.2952449899999898 O
atom 6.3584461888908450 6.3584434004486887 23.2381043680763035 O
atom 8.2292614004497064 8.2292805588905527 23.2381042619236986 O
atom 7.2938476213646206 7.2938661513640275 21.5904661900000008 Sn
atom 4.8625617930578882 4.8625566830582958 19.9428725649999770 Sn
atom 8.7897170121447150 5.7980235321432394 21.5904983300000310 O
atom 5.7979911805847832 8.7897186605843221 21.5904976199999901 O
atom 6.3584079922782166 6.3584131038383092 19.9428710580762285 O
atom 8.2292967038392479 8.2293162322777516 19.9428711119237754 O
atom 2.4312866879757875 2.4312874079755344 24.8856994999999976 Sn
atom 9.7251273396698661 9.7251318596699132 23.2381048649999755 Sn
atom 3.9271397087554294 0.9354308587552904 24.8857274900000043 O
atom 0.9354283971959582 3.9271399671958949 24.8857275899999877 O
atom 1.4958396121127657 1.4958379536733386 29.8285703580762345 O
atom 3.3667202004508536 3.3667507688897729 23.2381046219237746 O
atom 2.4312854645874329 2.4312891645871701 28.1809753900000004 Sn
atom 0.0000071362822121 0.0000241762812381 26.5333363150000281 Sn
atom 3.9271377053671461 0.9354330753670086 28.1809475200000037 O
atom 0.9354265838076640 3.9271418338076076 28.1809473399999924 O
atom 1.4958784355021666 1.4958693070604219 26.5333375280762951 O
atom 3.3666847270613363 3.3667158255025789 26.5333371619237006 O
atom 2.4312841279761157 7.2938621779756234 24.8857000049999932 Sn
atom 9.7251214796694239 4.8625537496701021 23.2381055599999655 Sn
atom 3.9271355187556871 5.7980035887554289 24.8857306149999893 O
atom 0.9354200871960846 8.7897086971961684 24.8857304249999700 O
atom 1.4958365321130436 6.3584111836734420 29.8285703230762209 O
atom 3.3667166504510702 8.2293221188898915 23.2381049669237605 O
atom 2.4312835545877598 7.2938639045872371 28.1809752049999993 Sn
atom 0.0000042062823515 4.8625932062813391 26.5333362800000216 Sn
atom 3.9271341453674018 5.7980055453671326 28.1809445549999964 O
atom 0.9354190938077918 8.7897104038078613 28.1809438549999740 O
atom 1.4958754655023532 6.3584397870605232 26.5333379930762874 O
atom 3.3666892870613685 8.2292816055024343 26.5333371769236948 O
atom 7.2938436379757814 2.4312883879757510 24.8857412449999913 Sn
atom 4.8625700428936707 0.0000188428929393 29.8285691800000166 Sn
atom 8.7897058987557273 0.9354391587552653 24.8857071550000093 O
atom 5.7979837371959491 3.9271390471962264 24.8857086749999787 O
atom 6.3584429888903253 1.4958628004487904 23.2381048530762904 O
atom 8.2292574004492032 3.3667005088906805 23.2381043969236920 O
atom 7.2938445645874062 2.4312870145873999 28.1809342149999935 Sn
atom 4.8625569962815094 9.7251324362817329 26.5333388799999668 Sn
atom 8.7897074453672897 0.9354379153668257 28.1809671850000143 O
atom 5.7979854738075014 3.9271374138077824 28.1809665549999799 O
atom 6.3584034755010324 1.4958347570617299 26.5333374430762241 O
atom 8.2292845570621758 3.3667413255014251 26.5333379069237623 O
atom 7.2938462179762578 7.2938677479756668 24.8857422799999952 Sn
atom 4.8625724028942168 4.8626002628928662 29.8285695650000235 Sn
atom 8.7897153487564363 5.7980256487549537 24.8857104000000291 O
atom 5.7979893671965153 8.7897211071960442 24.8857111799999906 O
atom 6.3584461621141051 6.3584433736719674 29.8285705580762937 O
atom 8.2292613736729656 8.2292805321138296 29.8285704519237029 O
atom 7.2938475945878816 7.2938661245873062 28.1809323799999980 Sn
atom 4.8625617662811482 4.8625566562815763 26.5333387549999706 Sn
atom 8.7897169853679742 5.7980235053665190 28.1809645200000318 O
atom 5.7979911538080442 8.7897186338076008 28.1809638099999908 O
atom 6.3584079655014767 6.3584130770615870 26.5333372480762257 O
atom 8.2292966770625089 8.2293162055010303 26.5333373019237726 O
atom 9.7251273128931270 9.7251318328931919 29.8285710549999692 Sn
atom 3.3667201736741146 3.3667507421130520 29.8285708119237682 O
atom 9.7251214528926848 4.8625537228933799 29.8285717499999663 Sn
atom 3.3667166236743307 8.2293220921131720 29.8285711569237648 O
atom 6.3584429621135854 1.4958627736720691 29.8285710430762947 O
atom 8.2292573736724624 3.3667004821139588 29.8285705869236892 O
