#===============================================================================
# Created using the Atomic Simulation Environment (ASE)

# Mon Mar 23 14:01:29 2026

#=======================================================
lattice_vector 13.7534260507129780 0.0000000000000000 0.0000000000000000 
lattice_vector -0.0000000000000336 6.5904661899999999 0.0000000000000000 
lattice_vector 0.0000000000000000 0.0000000000000000 49.8376248742320200 
atom 13.7534213431463161 4.9428710847563906 16.3229235949740321 Sn
atom 6.8767093767047278 6.5904657395126858 19.7612611660307280 Sn
atom 2.1154534167224148 4.9428430947563902 16.3229236830955458 O
atom 11.6379623137683357 4.9428429947563606 16.3229169590428924 O
atom 13.7534246403286140 0.0000002190788049 15.0000000000000000 O
atom 13.7533986217404429 6.5904659704339759 17.6458474515546797 O
atom 13.7534192359676517 1.6475951947563916 16.3229239909515123 Sn
atom 2.1154504327316133 1.6476230647563908 16.3229238527975724 O
atom 11.6379597116153306 1.6476232447563612 16.3229170156082866 O
atom 0.0000038716443340 3.2952330490790178 15.0000496035469748 O
atom 13.7533982470330045 3.2952334304337612 17.6457976783079076 O
atom 10.3150557406138752 4.9428705995127560 19.7612771802194054 Sn
atom 10.3150713871445987 6.5904650247562850 16.3228992652053471 Sn
atom 12.4305141548198161 4.9428399895127448 19.7612746732593862 O
atom 8.1995969163067670 4.9428401795126913 19.7612622074995663 O
atom 10.3150597590468198 0.0000002738351634 18.4383521286062546 O
atom 10.3150521962230517 3.2952343047564421 16.3229358933138009 Sn
atom 12.4305118001537416 1.6476260495127457 19.7612751045916433 O
atom 8.1995950071178534 1.6476267495126928 19.7612627307562327 O
atom 10.3150670634031343 3.2952326038353688 18.4383998653937340 O
atom 3.4383373942808779 4.9428293595127473 19.7612754796214531 Sn
atom 3.4383387289220098 0.0000014047564525 16.3229382797986595 Sn
atom 1.3228785699668120 4.9428619295127083 19.7612663617454913 O
atom 3.4383566437331146 6.5904657438353755 18.4384015518465070 O
atom 3.4383390206268447 1.6476363895127462 19.7612751826383608 Sn
atom 3.4383567036207454 3.2952317047562931 16.3229009304398467 Sn
atom 1.3228809529165715 1.6476040495127087 19.7612664536723095 O
atom 3.4383485332750849 3.2952331538351705 18.4383538009159338 O
atom 6.8767015472437372 4.9428283047563859 16.3229224671308550 Sn
atom 8.9921608453043973 4.9428601847564781 16.3229441644367377 O
atom 4.7612429704122139 4.9428594047563639 16.3229174151191891 O
atom 6.8767203582882379 0.0000000190790186 15.0000498545739944 O
atom 6.8767016088762576 0.0000001404337611 17.6457976182233018 O
atom 6.8767036685642822 1.6476382047563833 16.3229223115697017 Sn
atom 13.7534212671542466 3.2952318495126884 19.7612616716107325 Sn
atom 8.9921635181684501 1.6476060647564768 16.3229438250287515 O
atom 4.7612459826876758 1.6476067747563612 16.3229169484323755 O
atom 6.8767147722022166 3.2952333290788114 15.0000014036107086 O
atom 6.8767013471871250 3.2952332904339774 17.6458477874491138 O
atom 6.8766919765515730 4.9428711242691472 23.1996370728594421 Sn
atom 13.7534060608229627 6.5904657790254433 26.6379746439161416 Sn
atom 8.9921501008406501 4.9428431342691477 23.1996371609809593 O
atom 4.7612329471735961 4.9428430342691181 23.1996304369283095 O
atom 6.8766952737338745 0.0000002585915622 21.8767134778854100 O
atom 6.8766692551457016 6.5904660099467334 24.5225609294400932 O
atom 6.8766898693729104 1.6475952342691487 23.1996374688369222 Sn
atom 6.8766846349922019 3.2952342895128539 19.7613001063717633 Sn
atom 8.9921471168498481 1.6476231042691480 23.1996373306829824 O
atom 4.7612303450205902 1.6476232842691185 23.1996304934937001 O
atom 6.8767005557625742 3.2952330885917753 21.8767630814323901 O
atom 6.8766688804382641 3.2952334699465182 24.5225111561933211 O
atom 3.4383263740191339 4.9428706390255126 26.6379906581048189 Sn
atom 3.4383420205498516 6.5904650642690425 23.1996127430907606 Sn
atom 5.5537847882250784 4.9428400290255015 26.6379881511447998 O
atom 1.3228675497120248 4.9428402190254488 26.6379756853849798 O
atom 3.4383303924520798 0.0000003133479207 25.3150656064916681 O
atom 10.3150347374811862 6.5904656451903287 21.0841979184611894 O
atom 10.3150541142673049 1.6475953995127586 19.7612780146036542 Sn
atom 3.4383228296283139 3.2952343442691991 23.1996493711992144 Sn
atom 5.5537824335589967 1.6476260890255030 26.6379885824770568 O
atom 1.3228656405231143 1.6476267890254501 26.6379762086416463 O
atom 3.4383376968083903 3.2952326433481263 25.3151133432791475 O
atom 10.3150440359923792 3.2952334351901209 21.0841499412771327 O
atom 10.3150340783991155 4.9428293990255048 26.6379889575068631 Sn
atom 10.3150354130402473 0.0000014442692098 23.1996517576840766 Sn
atom 5.5537968762010657 4.9428634495127977 19.7612872774326078 O
atom 8.1995752540850475 4.9428619690254658 26.6379798396309013 O
atom 10.3150533278513521 6.5904657833481330 25.3151150297319205 O
atom 3.4383369397272179 0.0000000251901187 21.0841491387179794 O
atom 10.3150357047450818 1.6476364290255034 26.6379886605237743 Sn
atom 10.3150533877389812 3.2952317442690502 23.1996144083252602 Sn
atom 5.5537988490287207 1.6476034195127987 19.7612875107803028 O
atom 8.1995776370348050 1.6476040890254660 26.6379799315577230 O
atom 10.3150452173933207 3.2952331933479280 25.3150672788013438 O
atom 3.4383272805914458 3.2952327051903243 21.0841972219676244 O
atom 13.7533982313619738 4.9428283442691434 23.1996359450162686 Sn
atom 13.7533979537980962 0.0000010395128530 19.7613000462680404 Sn
atom 2.1154314787096551 4.9428602242692357 23.1996576423221512 O
atom 11.6379396545304505 4.9428594442691205 23.1996308930046027 O
atom 13.7534170424064754 0.0000000585917759 21.8767633324594115 O
atom 13.7533982929944969 0.0000001799465184 24.5225110961087154 O
atom 13.7534003526825188 1.6476382442691406 23.1996357894551117 Sn
atom 6.8766919005595044 3.2952318890254459 26.6379751494961461 Sn
atom 2.1154341515737074 1.6476061042692340 23.1996573029141615 O
atom 11.6379426668059125 1.6476068142691185 23.1996304263177855 O
atom 13.7534114563204533 3.2952333685915693 21.8767148814961239 O
atom 13.7533980313053625 3.2952333299467345 24.5225612653345237 O
atom 13.7533886606698097 4.9428711637819047 30.0763505507448556 Sn
atom 6.8766766942282214 6.5904658185382008 33.5146881218015551 Sn
atom 2.1154207342459030 4.9428431737819043 30.0763506388663693 O
atom 11.6379296312918310 4.9428430737818756 30.0763439148137159 O
atom 13.7533919578521093 0.0000002981043195 28.7534269557708235 O
atom 13.7533659392639365 6.5904660494594900 31.3992744073255032 O
atom 13.7533865534911470 1.6475952737819062 30.0763509467223322 Sn
atom 13.7533813191104404 3.2952343290256101 26.6380135842571804 Sn
atom 2.1154177502551077 1.6476231437819058 30.0763508085683959 O
atom 11.6379270291388242 1.6476233237818763 30.0763439713791065 O
atom 13.7533972398808064 3.2952331281045324 28.7534765593178001 O
atom 13.7533655645565034 3.2952335094592753 31.3992246340787311 O
atom 10.3150230581373687 4.9428706785382701 33.5147041359902289 Sn
atom 10.3150387046680923 6.5904651037817992 30.0763262209761706 Sn
atom 12.4304814723433097 4.9428400685382590 33.5147016290302133 O
atom 8.1995642338302659 4.9428402585382063 33.5146891632703898 O
atom 10.3150270765703151 0.0000003528606780 32.1917790843770746 O
atom 3.4383053708864413 6.5904656847030862 27.9609113963466029 O
atom 3.4383247476725622 1.6475954390255159 26.6379914924890713 Sn
atom 10.3150195137465488 3.2952343837819567 30.0763628490846244 Sn
atom 12.4304791176772369 1.6476261285382603 33.5147020603624668 O
atom 8.1995623246413487 1.6476268285382076 33.5146896865270634 O
atom 10.3150343809266314 3.2952326828608833 32.1918268211645540 O
atom 3.4383146693976383 3.2952334747028793 27.9608634191625463 O
atom 3.4383047118043693 4.9428294385382623 33.5147024353922802 Sn
atom 3.4383060464455011 0.0000014837819671 30.0763652355694795 Sn
atom 12.4304935603193041 4.9428634890255552 26.6380007553180178 O
atom 1.3228458874903064 4.9428620085382233 33.5146933175163184 O
atom 3.4383239612566059 6.5904658228608906 32.1918285076173305 O
atom 10.3150336238454550 0.0000000647028759 27.9608626166033929 O
atom 3.4383063381503391 1.6476364685382612 33.5147021384091843 Sn
atom 3.4383240211442412 3.2952317837818077 30.0763278862106738 Sn
atom 12.4304955331469547 1.6476034590255562 26.6380009886657163 O
atom 1.3228482704400659 1.6476041285382235 33.5146934094431330 O
atom 3.4383158507985794 3.2952332328606850 32.1917807566867538 O
atom 10.3150239647096882 3.2952327447030814 27.9609106998530379 O
atom 6.8766688647672343 4.9428283837819009 30.0763494229016821 Sn
atom 6.8766685872033522 0.0000010790256103 26.6380135241534504 Sn
atom 8.9921281628278908 4.9428602637819923 30.0763711202075612 O
atom 4.7612102879357074 4.9428594837818780 30.0763443708900127 O
atom 6.8766876758117341 0.0000000981045332 28.7534768103448215 O
atom 6.8766689263997547 0.0000002194592757 31.3992245739941254 O
atom 6.8766709860877739 1.6476382837818984 30.0763492673405217 Sn
atom 13.7533885846777455 3.2952319285382030 33.5146886273815596 Sn
atom 8.9921308356919454 1.6476061437819916 30.0763707807995750 O
atom 4.7612133002111703 1.6476068537818760 30.0763439042031955 O
atom 6.8766820897257128 3.2952334081043255 28.7534283593815339 O
atom 6.8766686647106194 3.2952333694594920 31.3992747432199337 O
atom 6.8766519525156911 3.2952343685383685 33.5147270621425832 Sn
atom 10.3150020550046815 6.5904657242158429 34.8376248742320200 O
atom 10.3150214317908002 1.6475954785382732 33.5147049703744813 Sn
atom 10.3150113535158745 3.2952335142156355 34.8375768970479527 O
atom 5.5537641937245663 4.9428635285383127 33.5147142332034278 O
atom 3.4383042572507123 0.0000001042156332 34.8375760944887958 O
atom 5.5537661665522151 1.6476034985383134 33.5147144665511263 O
atom 3.4382945981149371 3.2952327842158389 34.8376241777384479 O
atom 13.7533652713215897 0.0000011185383676 33.5147270020388675 Sn
