#===============================================================================
# Created using the Atomic Simulation Environment (ASE)

# Mon Mar 23 14:01:29 2026

#=======================================================
lattice_vector 11.7478674943430175 0.0000000000000000 0.0000000000000000 
lattice_vector 0.0000005519723523 9.7251526999999900 0.0000000000000000 
lattice_vector 0.0000000000000000 0.0000000000000000 37.1340658035673243 
atom 4.3534604806307442 9.7251323061322541 15.8391773244062541 Sn
atom 6.0521326150905121 3.9271422721942786 15.0000089053600689 O
atom 8.9890758304873017 3.3667162571948164 15.0000005885847649 O
atom 4.3534552286272001 4.8625541961323586 15.8391747918430177 Sn
atom 6.0521283808547128 8.7897108421942782 15.0000016390527016 O
atom 8.9890796080186686 8.2292820371947499 15.0000029796106986 O
atom 0.1781956556788808 3.9271394721942148 15.0000000000000000 O
atom 3.1151484089987576 3.3667009271947155 15.0000052739723593 O
atom 10.2273891297007378 9.7251328961323598 15.8391749809076288 Sn
atom 0.1781989221075605 8.7897215321942124 15.0000050525615833 O
atom 3.1151518070997550 8.2292809771946533 15.0000072266690800 O
atom 10.2273931374467537 4.8625571161322902 15.8391777328821171 Sn
atom 5.4418438093429016 2.4312879526645412 18.5670257706164001 Sn
atom 0.6562579983201977 9.7251324891983604 21.2949026113254796 Sn
atom 6.6801264180402855 0.9354314316031671 19.4062114031196522 O
atom 4.2035253775670620 3.9271404837277171 17.7278836058755083 O
atom 5.5917499521939131 1.4958384550701549 16.6783332131404798 O
atom 7.1405036325093834 3.3667512787273872 17.7278835842803311 O
atom 7.2904200411586126 2.4312896311328243 15.8391978749488764 Sn
atom 2.5048679216584784 0.0000247276651260 18.5670442384650336 Sn
atom 8.5287333411998709 0.9354335700697402 16.6783368278054596 O
atom 2.3549301327799714 3.9271424552603844 20.4557341922792908 O
atom 3.7431806901035589 1.4958698866026696 19.4062178480931244 O
atom 5.2918733481767610 3.3667164402609222 20.4557258755039904 O
atom 5.4418414179037544 7.2938627226645902 18.5670245730073908 Sn
atom 0.6562527463166546 4.8625543791984649 21.2949000787622431 Sn
atom 6.6801212074526042 5.7980041616033207 19.4062114599834352 O
atom 4.2035169190452280 8.7897092137279209 17.7278811113819934 O
atom 5.5917474332238628 6.3584116850701946 16.6783312767921181 O
atom 7.1405005112863060 8.2293226287274468 17.7278816988374182 O
atom 7.2904185748878794 7.2938643711328446 15.8391964707886537 Sn
atom 2.5048655268614248 4.8625937576651648 18.5670423862656300 Sn
atom 8.5287320685839685 5.7980060400696960 16.6783321966656075 O
atom 2.3549258985441672 8.7897110252603809 20.4557269259719270 O
atom 3.7431779816974471 6.3584403666027232 19.4062163873644060 O
atom 5.2918771257081341 8.2292822202608562 20.4557282665299240 O
atom 1.4164813904379496 2.4312888411328863 15.8391932835514027 Sn
atom 8.3788002456940305 0.0000194076651453 18.5670429962052879 Sn
atom 2.6548064746179714 0.9354396400694683 16.6783327085076003 O
atom 8.2288606677113538 3.9271396552603197 20.4557252869192254 O
atom 9.6171139905636895 1.4958633666026857 19.4062180527248849 O
atom 11.1658134210312401 3.3667011102608213 20.4557305608915847 O
atom 11.3157709316035167 2.4312875726646888 18.5670232380325864 Sn
atom 6.5301866473901882 9.7251330791984625 21.2949002678268577 Sn
atom 0.8061914145287148 0.9354385016033290 19.4062185244701091 O
atom 10.0774494533525854 3.9271379437280065 17.7278841427362828 O
atom 11.4656828160959670 1.4958352450701733 16.6783328320103301 O
atom 1.2665694269251500 3.3667418487273983 17.7278835031446214 O
atom 1.4164829566720307 7.2938682011328790 15.8391954081890951 Sn
atom 8.3788019944527399 4.8626008276651236 18.5670444593410373 Sn
atom 2.6548124881879192 5.7980261300694318 16.6783405166480954 O
atom 8.2288639341400316 8.7897217152603151 20.4557303394808088 O
atom 9.6171169227554216 6.3584439666026222 19.4062192668902576 O
atom 11.1658168191322282 8.2292811602607578 20.4557325135883055 O
atom 11.3157744804056009 7.2938666826645875 18.5670232392711050 Sn
atom 6.5301906551362121 4.8625572991983956 21.2949030198013425 Sn
atom 0.8062008180685238 5.7980240916031116 19.4062214906787496 O
atom 10.0774557063831995 8.7897191637278382 17.7278848772880693 O
atom 11.4656866534886781 6.3584135650701041 16.6783350099241794 O
atom 1.2665798105977664 8.2293167287272038 17.7278896220251845 O
atom 1.8945474698833642 1.4958386381362601 22.1340585000597052 O
atom 3.5932175588480697 2.4312898141989292 21.2949231618680948 Sn
atom 4.8315308588893222 0.9354337531358455 22.1340621147246814 O
atom 1.8945449509133165 6.3584118681363000 22.1340565637113365 O
atom 3.5932160925773364 7.2938645541989500 21.2949217577078720 Sn
atom 4.8315295862734216 5.7980062231358023 22.1340574835848365 O
atom 9.4671464024704264 2.4312890241989908 21.2949185704706245 Sn
atom 10.7054714866504366 0.9354398231355738 22.1340579954268257 O
atom 7.7684803337854191 1.4958354281362785 22.1340581189295484 O
atom 9.4671479687045021 7.2938683841989853 21.2949206951083205 Sn
atom 10.7054775002203897 5.7980263131355381 22.1340658035673208 O
atom 7.7684841711781312 6.3584137481362095 22.1340602968434048 O
