#===============================================================================
# Created using the Atomic Simulation Environment (ASE)

# Mon Mar 23 14:01:28 2026

#=======================================================
lattice_vector 9.7251527000000060 0.0000000000000000 0.0000000000000000 
lattice_vector -0.0000000267767232 6.5904661899999999 0.0000000000000000 
lattice_vector 0.0000000000000000 0.0000000000000000 56.1836735215599248 
atom 9.7251325799991513 0.0000004504872675 15.9354208557807659 Sn
atom 4.8625544699989662 0.0000011454872825 15.9354153157808227 Sn
atom 0.9354398175255491 1.6476027442878740 15.0000000000000000 O
atom 0.9354385741372109 4.9428627742878692 15.0000015600001220 O
atom 5.7980263075258440 1.6476059892878570 15.0000091299996789 O
atom 5.7980241641375185 4.9428601092878495 15.0000107799998119 O
atom 2.4312882883050300 1.6475950756090869 18.3667102807800298 Sn
atom 9.7251332199983906 0.0000004109745479 25.6605504457807463 Sn
atom 0.9354318375251020 1.6476230595315107 19.8625634000003295 O
atom 3.9271407490847272 1.6476231716866758 16.8708518915600365 O
atom 1.4958387724421738 6.5904659374859893 17.4312632865604691 O
atom 3.3667517107790346 0.0000001937322406 19.3021437249992651 O
atom 2.4312900449165844 4.9428709656090923 18.3667090707801037 Sn
atom 0.0000248966111171 3.2952319004872832 15.9354308957792767 Sn
atom 0.9354340541366882 4.9428430895315181 19.8625614100002146 O
atom 3.9271426156963209 4.9428429216866832 16.8708500915599338 O
atom 1.4958701258318121 3.2952331074859025 17.4313020965594383 O
atom 3.3667167673895069 3.2952327337323131 19.3021082650004168 O
atom 7.2938630583049351 1.6475955806090943 18.3667074007800899 Sn
atom 4.8625551099982056 0.0000011059745629 25.6605449057808066 Sn
atom 5.7980045675249512 1.6476261845315197 19.8625588900004573 O
atom 8.7897094790844434 1.6476260066866948 16.8708432615602923 O
atom 6.3584120024420621 6.5904659024859962 17.4312598865605715 O
atom 8.2293230607789116 0.0000005387322472 19.3021398549994352 O
atom 7.2938647849165124 4.9428707806090983 18.3667068407801573 Sn
atom 4.8625939266110123 3.2952318654872861 15.9354276457795159 Sn
atom 5.7980065241365635 4.9428401245315268 19.8625575300003341 O
atom 8.7897111856960706 4.9428394366866986 16.8708422815601793 O
atom 6.3584406058317047 3.2952335724859076 17.4312988065596315 O
atom 8.2292825473896460 3.2952327487322894 19.3021125050007605 O
atom 2.4312895883043493 1.6476368008527522 23.2292672307801169 Sn
atom 0.0000198832223138 6.5904647457309231 20.7979938157794386 Sn
atom 0.9354404575247887 1.6476027047751545 24.7251295899999839 O
atom 3.9271401490840558 1.6476042369303441 21.7334072315600046 O
atom 1.4958639392197850 0.0000004127295374 22.2938666365596454 O
atom 3.3667017440010234 6.5904661389759127 24.1646809250009120 O
atom 2.4312882149160595 4.9428297708527476 23.2292681707800419 Sn
atom 9.7251334766102246 3.2952344457309248 20.7979801157807351 Sn
atom 0.9354392141364506 4.9428627347751499 24.7251311500001094 O
atom 3.9271385156957259 4.9428621169303364 21.7334089815601281 O
atom 1.4958358958301239 3.2952330027296282 22.2938271365605694 O
atom 3.3667425873902790 3.2952334589758725 24.1647080949995683 O
atom 7.2938689483044223 1.6476378358527481 23.2292694907800232 Sn
atom 4.8626013032223820 6.5904651307309230 20.7979958557792770 Sn
atom 5.7980269475250834 1.6476059497751372 24.7251387199996628 O
atom 8.7897222090842302 1.6476067419303335 21.7334125415598187 O
atom 6.3584445124431577 6.5904661177295338 22.2938695165595000 O
atom 8.2292817940011442 6.5904660039759051 24.1646846050007866 O
atom 7.2938673249161532 4.9428279358527432 23.2292708807799499 Sn
atom 4.8625576966103905 3.2952343207309100 20.7979852057807157 Sn
atom 5.7980248041367588 4.9428600697751301 24.7251403699997994 O
atom 8.7897197356959058 4.9428593719303260 21.7334143415599605 O
atom 6.3584142158302628 3.2952328077296178 22.2938313065604987 O
atom 8.2293174673906684 3.2952328539758353 24.1647198949996138 O
atom 2.4312889283042693 1.6475950360963671 28.0918398707800172 Sn
atom 9.7251338599976282 0.0000003714618282 35.3856800357807231 Sn
atom 0.9354324775243416 1.6476230200187907 29.5876929900003098 O
atom 3.9271413890839666 1.6476231321739561 26.5959814815600204 O
atom 1.4958394124414134 6.5904658979732691 27.1563928765604494 O
atom 3.3667523507782748 0.0000001542195210 29.0272733149992526 O
atom 2.4312906849158247 4.9428709260963730 28.0918386607800841 Sn
atom 0.0000255366103566 3.2952318609745639 25.6605604857792606 Sn
atom 0.9354346941359277 4.9428430500187988 29.5876910000002020 O
atom 3.9271432556955608 4.9428428821739638 26.5959796815599177 O
atom 1.4958707658310517 3.2952330679731827 27.1564316865594222 O
atom 3.3667174073887471 3.2952326942195933 29.0272378550003936 O
atom 7.2938636983041754 1.6475955410963745 28.0918369907800702 Sn
atom 4.8625557499974450 0.0000010664618432 35.3856744957807905 Sn
atom 5.7980052075241897 1.6476261450188001 29.5876884800004412 O
atom 8.7897101190836811 1.6476259671739750 26.5959728515602798 O
atom 6.3584126424413023 6.5904658629732769 27.1563894765605518 O
atom 8.2293237007781510 0.0000004992195276 29.0272694449994120 O
atom 7.2938654249157526 4.9428707410963781 28.0918364307801411 Sn
atom 4.8625945666102508 3.2952318259745663 25.6605572357795033 Sn
atom 5.7980071641358020 4.9428400850188066 29.5876871200003144 O
atom 8.7897118256953082 4.9428393971739792 26.5959718715601632 O
atom 6.3584412458309449 3.2952335329731874 27.1564283965596154 O
atom 8.2292831873888854 3.2952327092195701 29.0272420950007444 O
atom 2.4312902283035891 1.6476367613400327 32.9543968207801043 Sn
atom 0.0000205232215534 6.5904647062182038 30.5231234057794261 Sn
atom 0.9354410975240280 1.6476026652624347 34.4502591799999749 O
atom 3.9271407890832961 1.6476041974176243 31.4585368215599850 O
atom 1.4958645792190244 0.0000003732168177 32.0189962265596364 O
atom 3.3667023840002632 6.5904660994631934 33.8898105150009030 O
atom 2.4312888549152993 4.9428297313400282 32.9543977607800258 Sn
atom 9.7251341166094658 3.2952344062182060 30.5231097057807226 Sn
atom 0.9354398541356902 4.9428626952624297 34.4502607400000898 O
atom 3.9271391556949662 4.9428620774176171 31.4585385715601156 O
atom 1.4958365358293637 3.2952329632169088 32.0189567265605604 O
atom 3.3667432273895193 3.2952334194631523 33.8898376849995486 O
atom 7.2938695883036626 1.6476377963400286 32.9543990807800071 Sn
atom 4.8626019432216223 6.5904650912182028 30.5231254457792538 Sn
atom 5.7980275875243237 1.6476059102624174 34.4502683099996432 O
atom 8.7897228490834696 1.6476067024176138 31.4585421315598062 O
atom 6.3584451524423971 6.5904660782168145 32.0189991065594910 O
atom 8.2292824340003836 6.5904659644631858 33.8898141950007670 O
atom 7.2938679649153926 4.9428278963400230 32.9544004707799303 Sn
atom 4.8625583366096308 3.2952342812181903 30.5231147957807032 Sn
atom 5.7980254441359973 4.9428600302624099 34.4502699599997726 O
atom 8.7897203756951434 4.9428593324176067 31.4585439315599409 O
atom 6.3584148558295022 3.2952327682168985 32.0189608965604862 O
atom 8.2293181073899078 3.2952328144631156 33.8898494849996013 O
atom 2.4312895683035092 1.6475949965836474 37.8169694607800011 Sn
atom 0.9354331175235812 1.6476229805060711 39.3128225800003008 O
atom 3.9271420290832064 1.6476230926612363 36.3211110715599972 O
atom 1.4958400524406530 6.5904658584605498 36.8815224665604404 O
atom 3.3667529907775147 0.0000001147068013 38.7524029049992293 O
atom 2.4312913249150636 4.9428708865836537 37.8169682507800786 Sn
atom 0.0000261766095962 3.2952318214618441 35.3856900757792516 Sn
atom 0.9354353341351674 4.9428430105060794 39.3128205900001859 O
atom 3.9271438956947997 4.9428428426612445 36.3211092715599051 O
atom 1.4958714058302913 3.2952330284604634 36.8815612765594096 O
atom 3.3667180473879861 3.2952326547068735 38.7523674450003881 O
atom 7.2938643383034156 1.6475955015836548 37.8169665807800470 Sn
atom 5.7980058475234300 1.6476261055060806 39.3128180700004322 O
atom 8.7897107590829222 1.6476259276612553 36.3211024415602708 O
atom 6.3584132824405426 6.5904658234605575 36.8815190665605428 O
atom 8.2293243407773904 0.0000004597068079 38.7523990349993994 O
atom 7.2938660649149929 4.9428707015836588 37.8169660207801286 Sn
atom 4.8625952066094911 3.2952317864618466 35.3856868257794872 Sn
atom 5.7980078041350431 4.9428400455060872 39.3128167100003054 O
atom 8.7897124656945493 4.9428393576612599 36.3211014615601471 O
atom 6.3584418858301852 3.2952334934604681 36.8815579865595993 O
atom 8.2292838273881248 3.2952326697068504 38.7523716850007389 O
atom 0.0000211632207930 6.5904646667054845 40.2482529957794100 Sn
atom 3.9271414290825351 1.6476041579049048 41.1836664115599689 O
atom 9.7251347566087052 3.2952343667054858 40.2482392957807065 Sn
atom 3.9271397956942051 4.9428620379048978 41.1836681615601066 O
atom 4.8626025832208626 6.5904650517054835 40.2482550357792519 Sn
atom 8.7897234890827090 1.6476066629048942 41.1836717215597901 O
atom 4.8625589766088710 3.2952342417054710 40.2482443857806800 Sn
atom 8.7897210156943846 4.9428592929048865 41.1836735215599248 O
