#===============================================================================
# Created using the Atomic Simulation Environment (ASE)

# Mon Mar 23 14:01:28 2026

#=======================================================
lattice_vector 9.7251295900000052 0.0000000000000000 0.0000000000000000 
lattice_vector 0.0000006400007604 9.7251526999999847 0.0000000000000000 
lattice_vector 0.0000000000000000 0.0000000000000000 39.8857016599999525 
atom 1.4958396388895054 1.4958379804500601 18.2952340780762093 O
atom 2.4312854913641724 2.4312891913638914 16.6476391099999859 Sn
atom 0.0000071630589514 0.0000242030579596 15.0000000350000100 Sn
atom 3.9271377321438856 0.9354331021437300 16.6476112399999820 O
atom 0.9354266105844032 3.9271418605843285 16.6476110599999743 O
atom 1.4958784622789063 1.4958693338371436 15.0000012480762805 O
atom 3.3666847538380749 3.3667158522793006 15.0000008819236861 O
atom 1.4958365588897831 6.3584112104501642 18.2952340430762028 O
atom 2.4312835813644997 7.2938639313639575 16.6476389249999777 Sn
atom 0.0000042330590908 4.8625932330580603 15.0000000000000000 Sn
atom 3.9271341721441413 5.7980055721438539 16.6476082749999748 O
atom 0.9354191205845310 8.7897104305845843 16.6476075749999595 O
atom 1.4958754922790927 6.3584398138372444 15.0000017130762693 O
atom 3.3666893138381075 8.2292816322791573 15.0000008969236802 O
atom 4.8625700696704097 0.0000188696696608 18.2952329000000056 Sn
atom 7.2938445913641461 2.4312870413641212 16.6475979349999754 Sn
atom 4.8625570230582493 9.7251324630584559 15.0000025999999487 Sn
atom 8.7897074721440269 0.9354379421435470 16.6476309049999962 O
atom 5.7979855005842404 3.9271374405845032 16.6476302749999654 O
atom 6.3584035022777714 1.4958347838384516 15.0000011630762060 O
atom 8.2292845838389148 3.3667413522781473 15.0000016269237442 O
atom 4.8625724296709567 4.8626002896695875 18.2952332850000126 Sn
atom 6.3584461888908450 6.3584434004486887 18.2952342780762862 O
atom 8.2292614004497064 8.2292805588905527 18.2952341719236813 O
atom 7.2938476213646206 7.2938661513640275 16.6475960999999835 Sn
atom 4.8625617930578882 4.8625566830582958 15.0000024749999596 Sn
atom 8.7897170121447150 5.7980235321432394 16.6476282400000137 O
atom 5.7979911805847832 8.7897186605843221 16.6476275299999728 O
atom 6.3584079922782166 6.3584131038383092 15.0000009680762112 O
atom 8.2292967038392479 8.2293162322777516 15.0000010219237581 O
atom 2.4312866879757875 2.4312874079755344 19.9428294099999803 Sn
atom 9.7251273396698661 9.7251318596699132 18.2952347749999582 Sn
atom 3.9271397087554294 0.9354308587552904 19.9428573999999870 O
atom 0.9354283971959582 3.9271399671958949 19.9428574999999704 O
atom 1.4958396121127657 1.4958379536733386 24.8857002680762172 O
atom 3.3667202004508536 3.3667507688897729 18.2952345319237573 O
atom 2.4312854645874329 2.4312891645871701 23.2381052999999831 Sn
atom 0.0000071362822121 0.0000241762812381 21.5904662250000108 Sn
atom 3.9271377053671461 0.9354330753670086 23.2380774299999864 O
atom 0.9354265838076640 3.9271418338076076 23.2380772499999750 O
atom 1.4958784355021666 1.4958693070604219 21.5904674380762778 O
atom 3.3666847270613363 3.3667158255025789 21.5904670719236833 O
atom 2.4312841279761157 7.2938621779756234 19.9428299149999759 Sn
atom 9.7251214796694239 4.8625537496701021 18.2952354699999482 Sn
atom 3.9271355187556871 5.7980035887554289 19.9428605249999720 O
atom 0.9354200871960846 8.7897086971961684 19.9428603349999527 O
atom 1.4958365321130436 6.3584111836734420 24.8857002330762036 O
atom 3.3667166504510702 8.2293221188898915 18.2952348769237432 O
atom 2.4312835545877598 7.2938639045872371 23.2381051149999820 Sn
atom 0.0000042062823515 4.8625932062813391 21.5904661900000043 Sn
atom 3.9271341453674018 5.7980055453671326 23.2380744649999791 O
atom 0.9354190938077918 8.7897104038078613 23.2380737649999567 O
atom 1.4958754655023532 6.3584397870605232 21.5904679030762701 O
atom 3.3666892870613685 8.2292816055024343 21.5904670869236774 O
atom 7.2938436379757814 2.4312883879757510 19.9428711549999740 Sn
atom 4.8625700428936707 0.0000188428929393 24.8856990899999992 Sn
atom 8.7897058987557273 0.9354391587552653 19.9428370649999920 O
atom 5.7979837371959491 3.9271390471962264 19.9428385849999614 O
atom 6.3584429888903253 1.4958628004487904 18.2952347630762731 O
atom 8.2292574004492032 3.3667005088906805 18.2952343069236747 O
atom 7.2938445645874062 2.4312870145873999 23.2380641249999762 Sn
atom 4.8625569962815094 9.7251324362817329 21.5904687899999495 Sn
atom 8.7897074453672897 0.9354379153668257 23.2380970949999970 O
atom 5.7979854738075014 3.9271374138077824 23.2380964649999626 O
atom 6.3584034755010324 1.4958347570617299 21.5904673530762068 O
atom 8.2292845570621758 3.3667413255014251 21.5904678169237449 O
atom 7.2938462179762578 7.2938677479756668 19.9428721899999779 Sn
atom 4.8625724028942168 4.8626002628928662 24.8856994750000062 Sn
atom 8.7897153487564363 5.7980256487549537 19.9428403100000118 O
atom 5.7979893671965153 8.7897211071960442 19.9428410899999733 O
atom 6.3584461621141051 6.3584433736719674 24.8857004680762763 O
atom 8.2292613736729656 8.2292805321138296 24.8857003619236856 O
atom 7.2938475945878816 7.2938661245873062 23.2380622899999807 Sn
atom 4.8625617662811482 4.8625566562815763 21.5904686649999533 Sn
atom 8.7897169853679742 5.7980235053665190 23.2380944300000145 O
atom 5.7979911538080442 8.7897186338076008 23.2380937199999735 O
atom 6.3584079655014767 6.3584130770615870 21.5904671580762084 O
atom 8.2292966770625089 8.2293162055010303 21.5904672119237553 O
atom 9.7251273128931270 9.7251318328931919 24.8857009649999519 Sn
atom 3.3667201736741146 3.3667507421130520 24.8857007219237509 O
atom 9.7251214528926848 4.8625537228933799 24.8857016599999490 Sn
atom 3.3667166236743307 8.2293220921131720 24.8857010669237475 O
atom 6.3584429621135854 1.4958627736720691 24.8857009530762774 O
atom 8.2292573736724624 3.3667004821139588 24.8857004969236719 O
