#===============================================================================
# Created using the Atomic Simulation Environment (ASE)

# Mon Mar 23 14:01:28 2026

#=======================================================
lattice_vector 9.7251527000000060 0.0000000000000000 0.0000000000000000 
lattice_vector -0.0000000267767232 6.5904661899999999 0.0000000000000000 
lattice_vector 0.0000000000000000 0.0000000000000000 46.4585439315599373 
atom 9.7251332199983906 0.0000004109745479 15.9354208557807624 Sn
atom 4.8625551099982056 0.0000011059745629 15.9354153157808227 Sn
atom 0.9354404575247887 1.6476027047751545 15.0000000000000000 O
atom 0.9354392141364506 4.9428627347751499 15.0000015600001255 O
atom 5.7980269475250834 1.6476059497751372 15.0000091299996789 O
atom 5.7980248041367588 4.9428600697751301 15.0000107799998155 O
atom 2.4312889283042693 1.6475950360963671 18.3667102807800333 Sn
atom 9.7251338599976282 0.0000003714618282 25.6605504457807427 Sn
atom 0.9354324775243416 1.6476230200187907 19.8625634000003259 O
atom 3.9271413890839666 1.6476231321739561 16.8708518915600365 O
atom 1.4958394124414134 6.5904658979732691 17.4312632865604655 O
atom 3.3667523507782748 0.0000001542195210 19.3021437249992687 O
atom 2.4312906849158247 4.9428709260963730 18.3667090707801002 Sn
atom 0.0000255366103566 3.2952318609745639 15.9354308957792767 Sn
atom 0.9354346941359277 4.9428430500187988 19.8625614100002181 O
atom 3.9271432556955608 4.9428428821739638 16.8708500915599338 O
atom 1.4958707658310517 3.2952330679731827 17.4313020965594383 O
atom 3.3667174073887471 3.2952326942195933 19.3021082650004097 O
atom 7.2938636983041754 1.6475955410963745 18.3667074007800863 Sn
atom 4.8625557499974450 0.0000010664618432 25.6605449057808030 Sn
atom 5.7980052075241897 1.6476261450188001 19.8625588900004573 O
atom 8.7897101190836811 1.6476259671739750 16.8708432615602959 O
atom 6.3584126424413023 6.5904658629732769 17.4312598865605679 O
atom 8.2293237007781510 0.0000004992195276 19.3021398549994281 O
atom 7.2938654249157526 4.9428707410963781 18.3667068407801573 Sn
atom 4.8625945666102508 3.2952318259745663 15.9354276457795194 Sn
atom 5.7980071641358020 4.9428400850188066 19.8625575300003305 O
atom 8.7897118256953082 4.9428393971739792 16.8708422815601793 O
atom 6.3584412458309449 3.2952335329731874 17.4312988065596315 O
atom 8.2292831873888854 3.2952327092195701 19.3021125050007605 O
atom 2.4312902283035891 1.6476367613400327 23.2292672307801169 Sn
atom 0.0000205232215534 6.5904647062182038 20.7979938157794422 Sn
atom 0.9354410975240280 1.6476026652624347 24.7251295899999874 O
atom 3.9271407890832961 1.6476041974176243 21.7334072315600011 O
atom 1.4958645792190244 0.0000003732168177 22.2938666365596490 O
atom 3.3667023840002632 6.5904660994631934 24.1646809250009156 O
atom 2.4312888549152993 4.9428297313400282 23.2292681707800455 Sn
atom 9.7251341166094658 3.2952344062182060 20.7979801157807387 Sn
atom 0.9354398541356902 4.9428626952624297 24.7251311500001023 O
atom 3.9271391556949662 4.9428620774176171 21.7334089815601317 O
atom 1.4958365358293637 3.2952329632169088 22.2938271365605729 O
atom 3.3667432273895193 3.2952334194631523 24.1647080949995683 O
atom 7.2938695883036626 1.6476377963400286 23.2292694907800268 Sn
atom 4.8626019432216223 6.5904650912182028 20.7979958557792699 Sn
atom 5.7980275875243237 1.6476059102624174 24.7251387199996557 O
atom 8.7897228490834696 1.6476067024176138 21.7334125415598223 O
atom 6.3584451524423971 6.5904660782168145 22.2938695165595036 O
atom 8.2292824340003836 6.5904659644631858 24.1646846050007866 O
atom 7.2938679649153926 4.9428278963400230 23.2292708807799499 Sn
atom 4.8625583366096308 3.2952342812181903 20.7979852057807193 Sn
atom 5.7980254441359973 4.9428600302624099 24.7251403699997923 O
atom 8.7897203756951434 4.9428593324176067 21.7334143415599570 O
atom 6.3584148558295022 3.2952327682168985 22.2938313065604987 O
atom 8.2293181073899078 3.2952328144631156 24.1647198949996138 O
atom 2.4312895683035092 1.6475949965836474 28.0918398707800137 Sn
atom 0.9354331175235812 1.6476229805060711 29.5876929900003134 O
atom 3.9271420290832064 1.6476230926612363 26.5959814815600168 O
atom 1.4958400524406530 6.5904658584605498 27.1563928765604530 O
atom 3.3667529907775147 0.0000001147068013 29.0272733149992419 O
atom 2.4312913249150636 4.9428708865836537 28.0918386607800912 Sn
atom 0.0000261766095962 3.2952318214618441 25.6605604857792642 Sn
atom 0.9354353341351674 4.9428430105060794 29.5876910000001985 O
atom 3.9271438956947997 4.9428428426612445 26.5959796815599177 O
atom 1.4958714058302913 3.2952330284604634 27.1564316865594222 O
atom 3.3667180473879861 3.2952326547068735 29.0272378550004007 O
atom 7.2938643383034156 1.6475955015836548 28.0918369907800667 Sn
atom 5.7980058475234300 1.6476261055060806 29.5876884800004447 O
atom 8.7897107590829222 1.6476259276612553 26.5959728515602833 O
atom 6.3584132824405426 6.5904658234605575 27.1563894765605554 O
atom 8.2293243407773904 0.0000004597068079 29.0272694449994120 O
atom 7.2938660649149929 4.9428707015836588 28.0918364307801411 Sn
atom 4.8625952066094911 3.2952317864618466 25.6605572357794998 Sn
atom 5.7980078041350431 4.9428400455060872 29.5876871200003180 O
atom 8.7897124656945493 4.9428393576612599 26.5959718715601667 O
atom 6.3584418858301852 3.2952334934604681 27.1564283965596118 O
atom 8.2292838273881248 3.2952326697068504 29.0272420950007515 O
atom 0.0000211632207930 6.5904646667054845 30.5231234057794225 Sn
atom 3.9271414290825351 1.6476041579049048 31.4585368215599814 O
atom 9.7251347566087052 3.2952343667054858 30.5231097057807190 Sn
atom 3.9271397956942051 4.9428620379048978 31.4585385715601191 O
atom 4.8626025832208626 6.5904650517054835 30.5231254457792645 Sn
atom 8.7897234890827090 1.6476066629048942 31.4585421315598026 O
atom 4.8625589766088710 3.2952342417054710 30.5231147957806925 Sn
atom 8.7897210156943846 4.9428592929048865 31.4585439315599373 O
