#===============================================================================
# Created using the Atomic Simulation Environment (ASE)

# Mon Mar 23 14:01:28 2026

#=======================================================
lattice_vector 11.7478674943430175 0.0000000000000000 0.0000000000000000 
lattice_vector 3.6972030342828979 11.1509430042465603 0.0000000000000000 
lattice_vector 0.0000000000000000 0.0000000000000000 41.6211928034414029 
atom 12.8362493259363450 9.2674539230112973 17.1048802660188706 Sn
atom 8.0506629629412902 5.8123748906675203 18.2944181275737670 Sn
atom 14.0745319346337290 7.5522806789945616 17.1049005350271628 O
atom 11.5979308941605090 10.9826024201065202 17.1048959547124788 O
atom 12.9861554687873575 9.3756778381172499 15.0000019029266802 O
atom 14.5349091491028215 10.4938661430419948 16.8307191640061760 O
atom 9.8992734382519174 7.1470497187716902 15.9153732756154405 Sn
atom 11.1375862066970033 8.0410567661061734 17.3791070239212608 O
atom 8.0506577109377542 1.5715407378721160 15.9153444497864136 Sn
atom 9.2889499155344115 2.4655669171022132 17.3790692956146096 O
atom 10.9876210571984245 3.6919662466812402 17.1049094245239992 Sn
atom 12.2259345508945216 1.9768158414773043 17.1048852825417050 O
atom 9.7493308631652589 5.4071352265477790 17.1048762154460015 O
atom 11.1375829463185436 3.8002185044195311 15.0000322700565825 O
atom 12.6862820903292217 4.9183637464008587 16.8306812379756252 O
atom 4.0253382679444529 7.1470456867913192 15.9153695893241718 Sn
atom 5.2636520128141164 8.0410509796530505 17.3791040124043334 O
atom 6.9623089538539418 9.2674548306946214 17.1048778713390064 Sn
atom 2.1767241176682655 5.8123765518118526 18.2944163723856157 Sn
atom 8.2005969311221598 7.5522833608034521 17.1049102048997419 O
atom 5.7239874756030087 10.9825999422129943 17.1048951802050944 O
atom 7.1122208383463938 9.3756752250290152 15.0000000000000000 O
atom 8.6609749435185943 10.4938579584845151 16.8307144795102950 O
atom 5.1136854389825785 3.6919701068557331 17.1049103716623101 Sn
atom 6.3520149704984687 1.9768292920682180 17.1049023679683039 O
atom 3.8754014044181080 5.4071428795967638 17.1048844226978396 O
atom 5.2636543930334918 3.8002202352727936 15.0000365427390392 O
atom 6.8123542894103029 4.9183607440138477 16.8306844233762796 O
atom 2.1767281254142850 1.5715418455760382 15.9153484434191697 Sn
atom 3.4150216414562058 2.4655667302429407 17.3790734712293258 O
atom 9.1390468436257990 6.5981786326032328 21.8630214819084152 Sn
atom 4.3534604806307451 3.1430996002594558 23.0525593434633116 Sn
atom 10.3773294523231812 4.8830053885864961 21.8630417509167039 O
atom 7.9007284118499621 8.3133271296984557 21.8630371706020199 O
atom 9.2889529864768186 6.7064025477091853 19.7581431188162249 O
atom 10.8377066667922737 7.8245908526339294 21.5888603798957170 O
atom 10.9876230754415101 7.9328008207400948 19.4839820447999195 Sn
atom 6.2020709559413705 4.4777744283636265 20.6735144915049851 Sn
atom 12.2259363754827657 6.2176508164513491 19.4839618278099600 O
atom 9.7493356493734122 9.6479723135713957 19.4839569670611397 O
atom 7.4403837243864590 5.3717814756981088 22.1372482398108019 O
atom 12.6862788647702072 9.1592079916472002 19.2097549321100338 O
atom 9.1390439002142969 2.3573439836509924 19.4839490564513582 Sn
atom 8.0506582629101082 10.0532084517106135 20.6734856656759582 Sn
atom 10.3773236897631467 0.6421683467093725 19.4839694214389887 O
atom 7.9007194013557678 4.0724878475529493 19.4839606589453069 O
atom 9.2889504675067567 10.9472346309407094 22.1372105115041542 O
atom 10.8377029935968512 3.5837535575029165 19.2097856812793388 O
atom 7.2904185748878776 1.0226909562731750 21.8630506404135438 Sn
atom 6.2020680091719713 0.2369350936094680 18.2944386867951962 Sn
atom 12.2259351028668721 10.4584835553157998 21.8630264984312497 O
atom 6.0521283808547075 2.7378599361397149 21.8630174313355425 O
atom 7.4403804640079967 1.1309432140114666 19.7581734859461271 O
atom 8.9890796080186739 2.2490884559927937 21.5888224538651663 O
atom 5.1136844247208426 7.9328023781450083 19.4839776539548275 Sn
atom 12.0760032799769306 4.4777703963832565 20.6735108052137129 Sn
atom 6.3520095089008697 6.2176581257372625 19.4839612050331290 O
atom 3.8753986899617812 9.6479742286354817 19.4839478304333156 O
atom 13.3143170248465896 5.3717756892449859 22.1372452282938745 O
atom 6.8123514432816643 9.1591923294044157 19.2097515180346257 O
atom 3.2651064715433957 6.5981795402865595 21.8630190872285439 Sn
atom 10.2273891297007342 3.1431012614037890 23.0525575882751639 Sn
atom 4.5033944488116111 4.8830080703953893 21.8630514207892830 O
atom 13.7746524876354819 8.3133246518049280 21.8630363960946390 O
atom 3.4150183560358491 6.7063999346209506 19.7581412158895411 O
atom 4.9637724612080500 7.8245826680764496 21.5888556953998396 O
atom 1.4164829566720283 1.0226948164476679 21.8630515875518547 Sn
atom 0.3281369824202729 0.2369402453439819 18.2944439538790675 Sn
atom 6.3520155224708201 10.4584970059067146 21.8630435838578450 O
atom 11.9260664164505759 2.7378675891886983 21.8630256385873842 O
atom 1.5664519107229451 1.1309449448647297 19.7581777586285803 O
atom 3.1151518070997608 2.2490854536057823 21.5888256392658242 O
atom 3.2651094683731285 2.3573480898600123 19.4839498307251837 Sn
atom 13.9245961717296538 10.0532095594145350 20.6734896593087143 Sn
atom 4.5034033003790617 0.6421808207727325 19.4839879205601498 O
atom 2.0267906943507281 4.0724946828060498 19.4839688114824519 O
atom 15.1628896877715764 10.9472344440814364 22.1372146871188669 O
atom 4.9637822929083102 3.5837445353836248 19.2097897047443382 O
atom 5.4418443613152494 3.9289033421951691 26.6211626977979527 Sn
atom 6.6801269700126378 2.2137300981784360 26.6211829668062485 O
atom 4.2035259295394178 5.6440518392903929 26.6211783864915610 O
atom 5.5917505041662690 4.0371272573011208 24.5162843347057695 O
atom 7.1405041844817339 5.1553155622258657 26.3470015957852617 O
atom 7.2904205931309702 5.2635255303320294 24.2421232606894677 Sn
atom 2.5048684736308213 1.8084991379555635 25.4316557073945226 Sn
atom 8.5287338931722143 3.5483755260432850 24.2421030436995011 O
atom 6.0521331670628626 6.9786970231633338 24.2420981829506808 O
atom 8.9890763824596576 6.4899327012391366 23.9678961479995714 O
atom 9.1390444521866492 10.8390116974894894 24.2420902723408993 Sn
atom 4.3534557805995595 7.3839331613025498 25.4316268815654958 Sn
atom 10.3773242417355025 9.1238360605478714 24.2421106373285333 O
atom 4.2035169190452235 1.4032125571448872 24.2421018748348480 O
atom 7.1405005112863034 0.9144782670948531 23.9679268971688835 O
atom 7.2904191268602316 9.5043586701116727 26.6211918563030814 Sn
atom 6.2020685611443200 8.7186028074479651 23.0525799026847338 Sn
atom 8.5287326205563172 7.7892082649077388 26.6211677143207943 O
atom 2.3549258985441628 0.0685846457316507 26.6211586472250836 O
atom 7.4403810159803454 9.6126109278499658 24.5163147018356646 O
atom 8.9890801599910244 10.7307561698312917 26.3469636697547038 O
atom 13.1643494367533211 5.2635270877369429 24.2421188698443686 Sn
atom 8.3788007976663810 1.8084951059751884 25.4316520211032575 Sn
atom 2.6548070265903263 3.5483828353292011 24.2421024209226665 O
atom 11.9260637019942433 6.9786989382274180 24.2420890463228567 O
atom 3.1151489609711094 6.4899170389963512 23.9678927339241703 O
atom 11.3157714835758672 3.9289042498784936 26.6211603031180921 Sn
atom 0.8061919665010668 2.2137327799873252 26.6211926366788241 O
atom 10.0774500053249323 5.6440493613968652 26.6211776119841765 O
atom 11.4656833680683174 4.0371246442128879 24.5162824317790822 O
atom 13.0144374732405232 5.1553073776683860 26.3469969112893772 O
atom 13.1643510029874040 9.5043625302861638 26.6211928034413994 Sn
atom 12.0760050287356382 8.7186079591824779 23.0525851697686086 Sn
atom 2.6548130401602759 7.7892217154986518 26.6211847997473861 O
atom 8.2288639341400369 0.0685922987806362 26.6211668544769218 O
atom 13.3143199570383164 9.6126126587032275 24.5163189745181249 O
atom 14.8630198534151159 10.7307531674442806 26.3469668551553617 O
atom 15.0129775146884992 10.8390158036985103 24.2420910466147213 Sn
atom 10.2273936894191060 7.3839342690064713 25.4316308751982554 Sn
atom 4.5034038523514113 9.1238485346112306 24.2421291364496838 O
atom 10.0774557063832013 1.4032193923979861 24.2421100273719965 O
atom 1.2665798105977666 0.9144692449755618 23.9679309206338793 O
