#===============================================================================
# Created using the Atomic Simulation Environment (ASE)

# Mon Mar 23 14:01:28 2026

#=======================================================
lattice_vector 9.7251295900000052 0.0000000000000000 0.0000000000000000 
lattice_vector 0.0000006400007604 9.7251526999999847 0.0000000000000000 
lattice_vector 0.0000000000000000 0.0000000000000000 48.1238046299999667 
atom 2.4312867415292665 2.4312874615289779 15.0000000000000000 Sn
atom 3.9271397623089084 0.9354309123087333 15.0000279900000013 O
atom 0.9354284507494367 3.9271400207493379 15.0000280899999918 O
atom 1.4958396656662445 1.4958380072267812 19.9428708580762262 O
atom 2.4312855181409114 2.4312892181406132 18.2952758899999992 Sn
atom 0.0000071898356908 0.0000242298346811 16.6476368150000269 Sn
atom 3.9271377589206251 0.9354331289204515 18.2952480200000025 O
atom 0.9354266373611427 3.9271418873610506 18.2952478399999912 O
atom 1.4958784890556454 1.4958693606138651 16.6476380280762974 O
atom 3.3666847806148152 3.3667158790560223 16.6476376619237030 O
atom 2.4312841815295947 7.2938622315290651 15.0000005049999956 Sn
atom 3.9271355723091661 5.7980036423088714 15.0000311149999934 O
atom 0.9354201407495634 8.7897087507496110 15.0000309249999741 O
atom 1.4958365856665223 6.3584112372268864 19.9428708230762233 O
atom 2.4312836081412388 7.2938639581406788 18.2952757049999981 Sn
atom 0.0000042598358302 4.8625932598347807 16.6476367800000205 Sn
atom 3.9271341989208812 5.7980055989205743 18.2952450549999952 O
atom 0.9354191473612704 8.7897104573613074 18.2952443549999728 O
atom 1.4958755190558317 6.3584398406139666 16.6476384930762897 O
atom 3.3666893406148470 8.2292816590558768 16.6476376769236936 O
atom 7.2938436915292604 2.4312884415291935 15.0000417449999937 Sn
atom 4.8625700964471488 0.0000188964463823 19.9428696800000225 Sn
atom 8.7897059523092036 0.9354392123087082 15.0000076550000099 O
atom 5.7979837907494280 3.9271391007496690 15.0000091749999793 O
atom 7.2938446181408851 2.4312870681408429 18.2952347149999923 Sn
atom 4.8625570498349884 9.7251324898351754 16.6476393799999656 Sn
atom 8.7897074989207660 0.9354379689202686 18.2952676850000131 O
atom 5.7979855273609795 3.9271374673612249 18.2952670549999787 O
atom 6.3584035290545113 1.4958348106151729 16.6476379430762229 O
atom 8.2292846106156556 3.3667413790548686 16.6476384069237611 O
atom 7.2938462715297341 7.2938678015291094 15.0000427799999976 Sn
atom 4.8625724564476949 4.8626003164463087 19.9428700650000295 Sn
atom 8.7897154023099144 5.7980257023083963 15.0000109000000297 O
atom 5.7979894207499942 8.7897211607494850 15.0000116799999912 O
atom 6.3584462156675832 6.3584434272254109 19.9428710580762996 O
atom 8.2292614272264455 8.2292805856672739 19.9428709519237017 O
atom 7.2938476481413597 7.2938661781407479 18.2952328800000004 Sn
atom 4.8625618198346272 4.8625567098350171 16.6476392549999730 Sn
atom 8.7897170389214541 5.7980235589199616 18.2952650200000306 O
atom 5.7979912073615223 8.7897186873610433 18.2952643099999896 O
atom 6.3584080190549557 6.3584131306150304 16.6476377480762281 O
atom 8.2292967306159870 8.2293162590544728 16.6476378019237750 O
atom 2.4312867147525270 2.4312874347522557 21.5904661900000008 Sn
atom 9.7251273664466051 9.7251318864466345 19.9428715549999716 Sn
atom 3.9271397355321684 0.9354308855320118 21.5904941800000003 O
atom 0.9354284239726974 3.9271399939726157 21.5904942799999944 O
atom 1.4958396388895054 1.4958379804500601 26.5333370480762269 O
atom 3.3667202272275931 3.3667507956664942 19.9428713119237742 O
atom 2.4312854913641724 2.4312891913638914 24.8857420800000035 Sn
atom 0.0000071630589514 0.0000242030579596 23.2381030050000277 Sn
atom 3.9271377321438856 0.9354331021437300 24.8857142099999997 O
atom 0.9354266105844032 3.9271418605843285 24.8857140299999919 O
atom 1.4958784622789063 1.4958693338371436 23.2381042180762982 O
atom 3.3666847538380749 3.3667158522793006 23.2381038519237038 O
atom 2.4312841547528552 7.2938622047523447 21.5904666949999964 Sn
atom 9.7251215064461647 4.8625537764468234 19.9428722499999651 Sn
atom 3.9271355455324266 5.7980036155321493 21.5904973049999924 O
atom 0.9354201139728240 8.7897087239728915 21.5904971149999767 O
atom 1.4958365588897831 6.3584112104501642 26.5333370130762205 O
atom 3.3667166772278092 8.2293221456666146 19.9428716569237636 O
atom 2.4312835813644997 7.2938639313639575 24.8857418949999953 Sn
atom 0.0000042330590908 4.8625932330580603 23.2381029700000177 Sn
atom 3.9271341721441413 5.7980055721438539 24.8857112449999924 O
atom 0.9354191205845310 8.7897104305845843 24.8857105449999771 O
atom 1.4958754922790927 6.3584398138372444 23.2381046830762870 O
atom 3.3666893138381075 8.2292816322791573 23.2381038669236979 O
atom 7.2938436647525204 2.4312884147524714 21.5905079349999944 Sn
atom 4.8625700696704097 0.0000188696696608 26.5333358700000232 Sn
atom 8.7897059255324645 0.9354391855319868 21.5904738450000124 O
atom 5.7979837639726890 3.9271390739729481 21.5904753649999819 O
atom 6.3584430156670653 1.4958628272255119 19.9428715430762935 O
atom 8.2292574272259422 3.3667005356674022 19.9428710869236951 O
atom 7.2938445913641461 2.4312870413641212 24.8857009049999931 Sn
atom 4.8625570230582493 9.7251324630584559 23.2381055699999663 Sn
atom 8.7897074721440269 0.9354379421435470 24.8857338750000139 O
atom 5.7979855005842404 3.9271374405845032 24.8857332449999831 O
atom 6.3584035022777714 1.4958347838384516 23.2381041330762237 O
atom 8.2292845838389148 3.3667413522781473 23.2381045969237618 O
atom 7.2938462447529968 7.2938677747523881 21.5905089700000019 Sn
atom 4.8625724296709567 4.8626002896695875 26.5333362550000302 Sn
atom 8.7897153755331736 5.7980256755316750 21.5904770900000322 O
atom 5.7979893939732552 8.7897211339727637 21.5904778699999902 O
atom 6.3584461888908450 6.3584434004486887 26.5333372480763039 O
atom 8.2292614004497064 8.2292805588905527 26.5333371419236990 O
atom 7.2938476213646206 7.2938661513640275 24.8856990700000011 Sn
atom 4.8625617930578882 4.8625566830582958 23.2381054449999773 Sn
atom 8.7897170121447150 5.7980235321432394 24.8857312100000314 O
atom 5.7979911805847832 8.7897186605843221 24.8857304999999904 O
atom 6.3584079922782166 6.3584131038383092 23.2381039380762289 O
atom 8.2292967038392479 8.2293162322777516 23.2381039919237757 O
atom 2.4312866879757875 2.4312874079755344 28.1809323799999980 Sn
atom 9.7251273396698661 9.7251318596699132 26.5333377449999759 Sn
atom 3.9271397087554294 0.9354308587552904 28.1809603700000046 O
atom 0.9354283971959582 3.9271399671958949 28.1809604699999880 O
atom 1.4958396121127657 1.4958379536733386 33.1238032380762348 O
atom 3.3667202004508536 3.3667507688897729 26.5333375019237749 O
atom 2.4312854645874329 2.4312891645871701 31.4762082700000008 Sn
atom 0.0000071362822121 0.0000241762812381 29.8285691950000285 Sn
atom 3.9271377053671461 0.9354330753670086 31.4761804000000041 O
atom 0.9354265838076640 3.9271418338076076 31.4761802199999927 O
atom 1.4958784355021666 1.4958693070604219 29.8285704080762955 O
atom 3.3666847270613363 3.3667158255025789 29.8285700419237010 O
atom 2.4312841279761157 7.2938621779756234 28.1809328849999936 Sn
atom 9.7251214796694239 4.8625537496701021 26.5333384399999659 Sn
atom 3.9271355187556871 5.7980035887554289 28.1809634949999896 O
atom 0.9354200871960846 8.7897086971961684 28.1809633049999704 O
atom 1.4958365321130436 6.3584111836734420 33.1238032030762213 O
atom 3.3667166504510702 8.2293221188898915 26.5333378469237608 O
atom 2.4312835545877598 7.2938639045872371 31.4762080849999997 Sn
atom 0.0000042062823515 4.8625932062813391 29.8285691600000220 Sn
atom 3.9271341453674018 5.7980055453671326 31.4761774349999968 O
atom 0.9354190938077918 8.7897104038078613 31.4761767349999744 O
atom 1.4958754655023532 6.3584397870605232 29.8285708730762877 O
atom 3.3666892870613685 8.2292816055024343 29.8285700569236951 O
atom 7.2938436379757814 2.4312883879757510 28.1809741249999917 Sn
atom 4.8625700428936707 0.0000188428929393 33.1238020600000169 Sn
atom 8.7897058987557273 0.9354391587552653 28.1809400350000097 O
atom 5.7979837371959491 3.9271390471962264 28.1809415549999791 O
atom 6.3584429888903253 1.4958628004487904 26.5333377330762907 O
atom 8.2292574004492032 3.3667005088906805 26.5333372769236924 O
atom 7.2938445645874062 2.4312870145873999 31.4761670949999939 Sn
atom 4.8625569962815094 9.7251324362817329 29.8285717599999671 Sn
atom 8.7897074453672897 0.9354379153668257 31.4762000650000147 O
atom 5.7979854738075014 3.9271374138077824 31.4761994349999803 O
atom 6.3584034755010324 1.4958347570617299 29.8285703230762245 O
atom 8.2292845570621758 3.3667413255014251 29.8285707869237626 O
atom 7.2938462179762578 7.2938677479756668 28.1809751599999956 Sn
atom 4.8625724028942168 4.8626002628928662 33.1238024450000239 Sn
atom 8.7897153487564363 5.7980256487549537 28.1809432800000295 O
atom 5.7979893671965153 8.7897211071960442 28.1809440599999910 O
atom 6.3584461621141051 6.3584433736719674 33.1238034380762940 O
atom 8.2292613736729656 8.2292805321138296 33.1238033319237033 O
atom 7.2938475945878816 7.2938661245873062 31.4761652599999984 Sn
atom 4.8625617662811482 4.8625566562815763 29.8285716349999710 Sn
atom 8.7897169853679742 5.7980235053665190 31.4761974000000322 O
atom 5.7979911538080442 8.7897186338076008 31.4761966899999912 O
atom 6.3584079655014767 6.3584130770615870 29.8285701280762261 O
atom 8.2292966770625089 8.2293162055010303 29.8285701819237730 O
atom 9.7251273128931270 9.7251318328931919 33.1238039349999696 Sn
atom 3.3667201736741146 3.3667507421130520 33.1238036919237686 O
atom 9.7251214528926848 4.8625537228933799 33.1238046299999667 Sn
atom 3.3667166236743307 8.2293220921131720 33.1238040369237652 O
atom 6.3584429621135854 1.4958627736720691 33.1238039230762951 O
atom 8.2292573736724624 3.3667004821139588 33.1238034669236896 O
