#===============================================================================
# Created using the Atomic Simulation Environment (ASE)

# Mon Mar 23 14:01:29 2026

#=======================================================
lattice_vector 11.7478674943430175 0.0000000000000000 0.0000000000000000 
lattice_vector 0.0000005519723523 9.7251526999999900 0.0000000000000000 
lattice_vector 0.0000000000000000 0.0000000000000000 42.5897910904865427 
atom 8.0506629629412938 9.7251321230661514 15.8391773244062506 Sn
atom 9.7493350974010600 3.9271420891281728 15.0000089053600654 O
atom 0.9384108184548332 3.3667160741287110 15.0000005885847649 O
atom 8.0506577109377488 4.8625540130662532 15.8391747918430177 Sn
atom 9.7493308631652571 8.7897106591281720 15.0000016390527016 O
atom 0.9384145959862031 8.2292818541286454 15.0000029796106951 O
atom 3.8753981379894240 3.9271392891281094 15.0000000000000000 O
atom 6.8123508913093085 3.3667007441286105 15.0000052739723593 O
atom 2.1767241176682663 9.7251327130662535 15.8391749809076288 Sn
atom 3.8754014044181067 8.7897213491281061 15.0000050525615833 O
atom 6.8123542894103037 8.2292807941285488 15.0000072266690836 O
atom 2.1767281254142810 4.8625569330661840 15.8391777328821135 Sn
atom 9.1390462916534467 2.4312877695984358 18.5670257706163966 Sn
atom 4.3534604806307442 9.7251323061322541 21.2949026113254760 Sn
atom 10.3773289003508307 0.9354312485370618 19.4062114031196487 O
atom 7.9007278598776125 3.9271403006616112 17.7278836058755047 O
atom 9.2889524345044610 1.4958382720040491 16.6783332131404762 O
atom 10.8377061148199267 3.3667510956612814 17.7278835842803275 O
atom 10.9876225234691596 2.4312894480667180 15.8391978749488764 Sn
atom 6.2020704039690191 0.0000245445990206 18.5670442384650300 Sn
atom 0.4780683291673942 0.9354333870036349 16.6783368278054596 O
atom 6.0521326150905121 3.9271422721942786 20.4557341922792908 O
atom 7.4403831724141076 1.4958697035365638 19.4062178480931173 O
atom 8.9890758304873017 3.3667162571948164 20.4557258755039868 O
atom 9.1390439002142969 7.2938625395984866 18.5670245730073944 Sn
atom 4.3534552286272001 4.8625541961323586 21.2949000787622396 Sn
atom 10.3773236897631449 5.7980039785372171 19.4062114599834352 O
atom 7.9007194013557740 8.7897090306618164 17.7278811113819899 O
atom 9.2889499155344115 6.3584115020040883 16.6783312767921146 O
atom 10.8377029935968512 8.2293224456613423 17.7278816988374217 O
atom 10.9876210571984263 7.2938641880667383 15.8391964707886466 Sn
atom 6.2020680091719740 4.8625935745990594 18.5670423862656229 Sn
atom 0.4780670565514966 5.7980058570035924 16.6783321966656040 O
atom 6.0521283808547128 8.7897108421942782 20.4557269259719234 O
atom 7.4403804640079860 6.3584401835366187 19.4062163873644060 O
atom 8.9890796080186686 8.2292820371947499 20.4557282665299205 O
atom 5.1136838727484983 2.4312886580667801 15.8391932835513991 Sn
atom 0.3281352336615599 0.0000192245990400 18.5670429962052843 Sn
atom 6.3520089569285174 0.9354394570033631 16.6783327085076003 O
atom 0.1781956556788808 3.9271394721942148 20.4557252869192219 O
atom 1.5664489785312177 1.4958631835365805 19.4062180527248920 O
atom 3.1151484089987576 3.3667009271947155 20.4557305608915811 O
atom 3.2651059195710461 2.4312873895985829 18.5670232380325828 Sn
atom 10.2273891297007378 9.7251328961323598 21.2949002678268506 Sn
atom 4.5033938968392615 0.9354383185372237 19.4062185244701091 O
atom 2.0267844413201130 3.9271377606619007 17.7278841427362792 O
atom 3.4150178040634995 1.4958350620040679 16.6783328320103230 O
atom 4.9637719092356960 3.3667416656612934 17.7278835031446178 O
atom 5.1136854389825794 7.2938680180667737 15.8391954081890987 Sn
atom 0.3281369824202740 4.8626006445990182 18.5670444593410338 Sn
atom 6.3520149704984679 5.7980259470033273 16.6783405166480918 O
atom 0.1781989221075605 8.7897215321942124 20.4557303394808052 O
atom 1.5664519107229478 6.3584437835365168 19.4062192668902576 O
atom 3.1151518070997550 8.2292809771946533 20.4557325135883019 O
atom 3.2651094683731308 7.2938664995984821 18.5670232392711085 Sn
atom 10.2273931374467537 4.8625571161322902 21.2949030198013389 Sn
atom 4.5034033003790697 5.7980239085370062 19.4062214906787460 O
atom 2.0267906943507281 8.7897189806617320 17.7278848772880657 O
atom 3.4150216414562116 6.3584133820039987 16.6783350099241758 O
atom 4.9637822929083093 8.2293165456610993 17.7278896220251809 O
atom 5.4418438093429016 2.4312879526645412 24.0227510575356220 Sn
atom 0.6562579983201977 9.7251324891983604 26.7506278982447014 Sn
atom 6.6801264180402855 0.9354314316031671 24.8619366900388741 O
atom 4.2035253775670620 3.9271404837277171 23.1836088927947301 O
atom 5.5917499521939131 1.4958384550701549 22.1340585000597017 O
atom 7.1405036325093834 3.3667512787273872 23.1836088711995529 O
atom 7.2904200411586126 2.4312896311328243 21.2949231618680983 Sn
atom 2.5048679216584784 0.0000247276651260 24.0227695253842555 Sn
atom 8.5287333411998709 0.9354335700697402 22.1340621147246814 O
atom 2.3549301327799714 3.9271424552603844 25.9114594791985127 O
atom 3.7431806901035589 1.4958698866026696 24.8619431350123463 O
atom 5.2918733481767610 3.3667164402609222 25.9114511624232122 O
atom 5.4418414179037544 7.2938627226645902 24.0227498599266127 Sn
atom 0.6562527463166546 4.8625543791984649 26.7506253656814650 Sn
atom 6.6801212074526042 5.7980041616033207 24.8619367469026571 O
atom 4.2035169190452280 8.7897092137279209 23.1836063983012153 O
atom 5.5917474332238628 6.3584116850701946 22.1340565637113400 O
atom 7.1405005112863060 8.2293226287274468 23.1836069857566400 O
atom 7.2904185748878794 7.2938643711328446 21.2949217577078755 Sn
atom 2.5048655268614248 4.8625937576651648 24.0227676731848518 Sn
atom 8.5287320685839685 5.7980060400696960 22.1340574835848294 O
atom 2.3549258985441672 8.7897110252603809 25.9114522128911489 O
atom 3.7431779816974471 6.3584403666027232 24.8619416742836279 O
atom 5.2918771257081341 8.2292822202608562 25.9114535534491459 O
atom 1.4164813904379496 2.4312888411328863 21.2949185704706245 Sn
atom 8.3788002456940305 0.0000194076651453 24.0227682831245097 Sn
atom 2.6548064746179714 0.9354396400694683 22.1340579954268222 O
atom 8.2288606677113538 3.9271396552603197 25.9114505738384473 O
atom 9.6171139905636895 1.4958633666026857 24.8619433396441067 O
atom 11.1658134210312401 3.3667011102608213 25.9114558478108066 O
atom 11.3157709316035167 2.4312875726646888 24.0227485249518082 Sn
atom 6.5301866473901882 9.7251330791984625 26.7506255547460796 Sn
atom 0.8061914145287148 0.9354385016033290 24.8619438113893310 O
atom 10.0774494533525854 3.9271379437280065 23.1836094296555046 O
atom 11.4656828160959670 1.4958352450701733 22.1340581189295520 O
atom 1.2665694269251500 3.3667418487273983 23.1836087900638432 O
atom 1.4164829566720307 7.2938682011328790 21.2949206951083170 Sn
atom 8.3788019944527399 4.8626008276651236 24.0227697462602592 Sn
atom 2.6548124881879192 5.7980261300694318 22.1340658035673172 O
atom 8.2288639341400316 8.7897217152603151 25.9114556264000306 O
atom 9.6171169227554216 6.3584439666026222 24.8619445538094794 O
atom 11.1658168191322282 8.2292811602607578 25.9114578005075273 O
atom 11.3157744804056009 7.2938666826645875 24.0227485261903269 Sn
atom 6.5301906551362121 4.8625572991983956 26.7506283067205644 Sn
atom 0.8062008180685238 5.7980240916031116 24.8619467775979714 O
atom 10.0774557063831995 8.7897191637278382 23.1836101642072911 O
atom 11.4656866534886781 6.3584135650701041 22.1340602968434013 O
atom 1.2665798105977664 8.2293167287272038 23.1836149089444064 O
atom 1.8945474698833642 1.4958386381362601 27.5897837869789271 O
atom 3.5932175588480697 2.4312898141989292 26.7506484487873166 Sn
atom 4.8315308588893222 0.9354337531358455 27.5897874016439033 O
atom 1.8945449509133165 6.3584118681363000 27.5897818506305583 O
atom 3.5932160925773364 7.2938645541989500 26.7506470446270939 Sn
atom 4.8315295862734216 5.7980062231358023 27.5897827705040584 O
atom 9.4671464024704264 2.4312890241989908 26.7506438573898464 Sn
atom 10.7054714866504366 0.9354398231355738 27.5897832823460476 O
atom 7.7684803337854191 1.4958354281362785 27.5897834058487703 O
atom 9.4671479687045021 7.2938683841989853 26.7506459820275424 Sn
atom 10.7054775002203897 5.7980263131355381 27.5897910904865427 O
atom 7.7684841711781312 6.3584137481362095 27.5897855837626267 O
