#===============================================================================
# Created using the Atomic Simulation Environment (ASE)

# Mon Mar 23 14:01:28 2026

#=======================================================
lattice_vector 9.7251527000000060 0.0000000000000000 0.0000000000000000 
lattice_vector -0.0000000267767232 6.5904661899999999 0.0000000000000000 
lattice_vector 0.0000000000000000 0.0000000000000000 51.3211159915595871 
atom 9.7251332199983906 0.0000004109745479 20.7979929157804122 Sn
atom 0.9354318375251020 1.6476230595315107 15.0000058699999954 O
atom 0.9354340541366882 4.9428430895315181 15.0000038799998805 O
atom 4.8625551099982056 0.0000011059745629 20.7979873757804725 Sn
atom 5.7980045675249512 1.6476261845315197 15.0000013600001232 O
atom 5.7980065241365635 4.9428401245315268 15.0000000000000000 O
atom 2.4312895883043493 1.6476368008527522 18.3667097007797828 Sn
atom 0.0000198832223138 6.5904647457309231 15.9354362857791045 Sn
atom 0.9354404575247887 1.6476027047751545 19.8625720599996498 O
atom 3.9271401490840558 1.6476042369303441 16.8708497015596706 O
atom 1.4958639392197850 0.0000004127295374 17.4313091065593113 O
atom 3.3667017440010234 6.5904661389759127 19.3021233950005779 O
atom 2.4312882149160595 4.9428297708527476 18.3667106407797078 Sn
atom 9.7251334766102246 3.2952344457309248 15.9354225857804011 Sn
atom 0.9354392141364506 4.9428627347751499 19.8625736199997753 O
atom 3.9271385156957259 4.9428621169303364 16.8708514515597940 O
atom 1.4958358958301239 3.2952330027296282 17.4312696065602353 O
atom 3.3667425873902790 3.2952334589758725 19.3021505649992342 O
atom 7.2938689483044223 1.6476378358527481 18.3667119607796892 Sn
atom 4.8626013032223820 6.5904651307309230 15.9354383257789429 Sn
atom 5.7980269475250834 1.6476059497751372 19.8625811899993288 O
atom 8.7897222090842302 1.6476067419303335 16.8708550115594846 O
atom 6.3584445124431577 6.5904661177295338 17.4313119865591659 O
atom 8.2292817940011442 6.5904660039759051 19.3021270750004525 O
atom 7.2938673249161532 4.9428279358527432 18.3667133507796159 Sn
atom 4.8625576966103905 3.2952343207309100 15.9354276757803817 Sn
atom 5.7980248041367588 4.9428600697751301 19.8625828399994653 O
atom 8.7897197356959058 4.9428593719303260 16.8708568115596265 O
atom 6.3584142158302628 3.2952328077296178 17.4312737765601646 O
atom 8.2293174673906684 3.2952328539758353 19.3021623649992797 O
atom 2.4312889283042693 1.6475950360963671 23.2292823407796831 Sn
atom 9.7251338599976282 0.0000003714618282 30.5231225057803925 Sn
atom 0.9354324775243416 1.6476230200187907 24.7251354599999758 O
atom 3.9271413890839666 1.6476231321739561 21.7334239515596863 O
atom 1.4958394124414134 6.5904658979732691 22.2938353465601153 O
atom 3.3667523507782748 0.0000001542195210 24.1647157849989185 O
atom 2.4312906849158247 4.9428709260963730 23.2292811307797500 Sn
atom 0.0000255366103566 3.2952318609745639 20.7980029557789265 Sn
atom 0.9354346941359277 4.9428430500187988 24.7251334699998679 O
atom 3.9271432556955608 4.9428428821739638 21.7334221515595836 O
atom 1.4958707658310517 3.2952330679731827 22.2938741565590881 O
atom 3.3667174073887471 3.2952326942195933 24.1646803250000595 O
atom 7.2938636983041754 1.6475955410963745 23.2292794607797362 Sn
atom 4.8625557499974450 0.0000010664618432 30.5231169657804529 Sn
atom 5.7980052075241897 1.6476261450188001 24.7251309500001071 O
atom 8.7897101190836811 1.6476259671739750 21.7334153215599457 O
atom 6.3584126424413023 6.5904658629732769 22.2938319465602177 O
atom 8.2293237007781510 0.0000004992195276 24.1647119149990779 O
atom 7.2938654249157526 4.9428707410963781 23.2292789007798071 Sn
atom 4.8625945666102508 3.2952318259745663 20.7979997057791692 Sn
atom 5.7980071641358020 4.9428400850188066 24.7251295899999803 O
atom 8.7897118256953082 4.9428393971739792 21.7334143415598291 O
atom 6.3584412458309449 3.2952335329731874 22.2938708665592813 O
atom 8.2292831873888854 3.2952327092195701 24.1646845650004103 O
atom 2.4312902283035891 1.6476367613400327 28.0918392907797667 Sn
atom 0.0000205232215534 6.5904647062182038 25.6605658757790920 Sn
atom 0.9354410975240280 1.6476026652624347 29.5877016499996373 O
atom 3.9271407890832961 1.6476041974176243 26.5959792915596509 O
atom 1.4958645792190244 0.0000003732168177 27.1564386965592988 O
atom 3.3667023840002632 6.5904660994631934 29.0272529850005654 O
atom 2.4312888549152993 4.9428297313400282 28.0918402307796953 Sn
atom 9.7251341166094658 3.2952344062182060 25.6605521757803885 Sn
atom 0.9354398541356902 4.9428626952624297 29.5877032099997521 O
atom 3.9271391556949662 4.9428620774176171 26.5959810415597815 O
atom 1.4958365358293637 3.2952329632169088 27.1563991965602227 O
atom 3.3667432273895193 3.2952334194631523 29.0272801549992181 O
atom 7.2938695883036626 1.6476377963400286 28.0918415507796766 Sn
atom 4.8626019432216223 6.5904650912182028 25.6605679157789197 Sn
atom 5.7980275875243237 1.6476059102624174 29.5877107799993055 O
atom 8.7897228490834696 1.6476067024176138 26.5959846015594721 O
atom 6.3584451524423971 6.5904660782168145 27.1564415765591534 O
atom 8.2292824340003836 6.5904659644631858 29.0272566650004364 O
atom 7.2938679649153926 4.9428278963400230 28.0918429407795998 Sn
atom 4.8625583366096308 3.2952342812181903 25.6605572657803691 Sn
atom 5.7980254441359973 4.9428600302624099 29.5877124299994421 O
atom 8.7897203756951434 4.9428593324176067 26.5959864015596068 O
atom 6.3584148558295022 3.2952327682168985 27.1564033665601485 O
atom 8.2293181073899078 3.2952328144631156 29.0272919549992636 O
atom 2.4312895683035092 1.6475949965836474 32.9544119307796635 Sn
atom 0.9354331175235812 1.6476229805060711 34.4502650499999632 O
atom 3.9271420290832064 1.6476230926612363 31.4585535415596667 O
atom 1.4958400524406530 6.5904658584605498 32.0189649365601028 O
atom 3.3667529907775147 0.0000001147068013 33.8898453749988917 O
atom 2.4312913249150636 4.9428708865836537 32.9544107207797410 Sn
atom 0.0000261766095962 3.2952318214618441 30.5231325457789140 Sn
atom 0.9354353341351674 4.9428430105060794 34.4502630599998483 O
atom 3.9271438956947997 4.9428428426612445 31.4585517415595675 O
atom 1.4958714058302913 3.2952330284604634 32.0190037465590720 O
atom 3.3667180473879861 3.2952326547068735 33.8898099150000505 O
atom 7.2938643383034156 1.6475955015836548 32.9544090507797165 Sn
atom 5.7980058475234300 1.6476261055060806 34.4502605400000945 O
atom 8.7897107590829222 1.6476259276612553 31.4585449115599332 O
atom 6.3584132824405426 6.5904658234605575 32.0189615365602052 O
atom 8.2293243407773904 0.0000004597068079 33.8898415049990618 O
atom 7.2938660649149929 4.9428707015836588 32.9544084907797910 Sn
atom 4.8625952066094911 3.2952317864618466 30.5231292957791496 Sn
atom 5.7980078041350431 4.9428400455060872 34.4502591799999678 O
atom 8.7897124656945493 4.9428393576612599 31.4585439315598165 O
atom 6.3584418858301852 3.2952334934604681 32.0190004565592616 O
atom 8.2292838273881248 3.2952326697068504 33.8898141550004013 O
atom 0.0000211632207930 6.5904646667054845 35.3856954657790723 Sn
atom 3.9271414290825351 1.6476041579049048 36.3211088815596312 O
atom 9.7251347566087052 3.2952343667054858 35.3856817657803688 Sn
atom 3.9271397956942051 4.9428620379048978 36.3211106315597689 O
atom 4.8626025832208626 6.5904650517054835 35.3856975057789143 Sn
atom 8.7897234890827090 1.6476066629048942 36.3211141915594524 O
atom 4.8625589766088710 3.2952342417054710 35.3856868557803423 Sn
atom 8.7897210156943846 4.9428592929048865 36.3211159915595871 O
