#===============================================================================
# Created using the Atomic Simulation Environment (ASE)

# Mon Mar 23 14:01:28 2026

#=======================================================
lattice_vector 9.7251527000000060 0.0000000000000000 0.0000000000000000 
lattice_vector -0.0000000267767232 6.5904661899999999 0.0000000000000000 
lattice_vector 0.0000000000000000 0.0000000000000000 39.1647167949993644 
atom 9.7251338599976282 0.0000003714618282 18.3667233092201698 Sn
atom 4.8625557499974450 0.0000010664618432 18.3667177692202301 Sn
atom 2.4312902283035891 1.6476367613400327 15.9354400942195440 Sn
atom 0.9354410975240280 1.6476026652624347 17.4313024534394145 O
atom 1.4958645792190244 0.0000003732168177 15.0000394999990760 O
atom 3.3667023840002632 6.5904660994631934 16.8708537884403427 O
atom 2.4312888549152993 4.9428297313400282 15.9354410342194726 Sn
atom 0.9354398541356902 4.9428626952624297 17.4313040134395294 O
atom 1.4958365358293637 3.2952329632169088 15.0000000000000000 O
atom 3.3667432273895193 3.2952334194631523 16.8708809584389954 O
atom 7.2938695883036626 1.6476377963400286 15.9354423542194539 Sn
atom 5.7980275875243237 1.6476059102624174 17.4313115834390828 O
atom 6.3584451524423971 6.5904660782168145 15.0000423799989306 O
atom 8.2292824340003836 6.5904659644631858 16.8708574684402137 O
atom 7.2938679649153926 4.9428278963400230 15.9354437442193770 Sn
atom 5.7980254441359973 4.9428600302624099 17.4313132334392193 O
atom 6.3584148558295022 3.2952327682168985 15.0000041699999258 O
atom 8.2293181073899078 3.2952328144631156 16.8708927584390409 O
atom 2.4312895683035092 1.6475949965836474 20.7980127342194407 Sn
atom 0.9354331175235812 1.6476229805060711 22.2938658534397405 O
atom 3.9271420290832064 1.6476230926612363 19.3021543449994439 O
atom 1.4958400524406530 6.5904658584605498 19.8625657399998801 O
atom 3.3667529907775147 0.0000001147068013 21.7334461784386690 O
atom 2.4312913249150636 4.9428708865836537 20.7980115242195183 Sn
atom 0.0000261766095962 3.2952318214618441 18.3667333492186913 Sn
atom 0.9354353341351674 4.9428430105060794 22.2938638634396256 O
atom 3.9271438956947997 4.9428428426612445 19.3021525449993447 O
atom 1.4958714058302913 3.2952330284604634 19.8626045499988493 O
atom 3.3667180473879861 3.2952326547068735 21.7334107184398277 O
atom 7.2938643383034156 1.6475955015836548 20.7980098542194938 Sn
atom 5.7980058475234300 1.6476261055060806 22.2938613434398718 O
atom 8.7897107590829222 1.6476259276612553 19.3021457149997104 O
atom 6.3584132824405426 6.5904658234605575 19.8625623399999824 O
atom 8.2293243407773904 0.0000004597068079 21.7334423084388391 O
atom 7.2938660649149929 4.9428707015836588 20.7980092942195682 Sn
atom 4.8625952066094911 3.2952317864618466 18.3667300992189269 Sn
atom 5.7980078041350431 4.9428400455060872 22.2938599834397451 O
atom 8.7897124656945493 4.9428393576612599 19.3021447349995938 O
atom 6.3584418858301852 3.2952334934604681 19.8626012599990389 O
atom 8.2292838273881248 3.2952326697068504 21.7334149584401786 O
atom 0.0000211632207930 6.5904646667054845 23.2292962692188496 Sn
atom 3.9271414290825351 1.6476041579049048 24.1647096849994085 O
atom 9.7251347566087052 3.2952343667054858 23.2292825692201461 Sn
atom 3.9271397956942051 4.9428620379048978 24.1647114349995462 O
atom 4.8626025832208626 6.5904650517054835 23.2292983092186915 Sn
atom 8.7897234890827090 1.6476066629048942 24.1647149949992297 O
atom 4.8625589766088710 3.2952342417054710 23.2292876592201196 Sn
atom 8.7897210156943846 4.9428592929048865 24.1647167949993644 O
