#===============================================================================
# Created using the Atomic Simulation Environment (ASE)

# Mon Mar 23 14:01:28 2026

#=======================================================
lattice_vector 11.7478674943430175 0.0000000000000000 0.0000000000000000 
lattice_vector 3.6972030342828979 11.1509430042465603 0.0000000000000000 
lattice_vector 0.0000000000000000 0.0000000000000000 39.2421235078267898 
atom 8.0506629629412902 5.8123748906675203 15.9153488319591574 Sn
atom 11.1375862066970033 8.0410567661061734 15.0000377283066513 O
atom 9.2889499155344115 2.4655669171022132 15.0000000000000000 O
atom 5.2636520128141164 8.0410509796530505 15.0000347167897239 O
atom 2.1767241176682655 5.8123765518118526 15.9153470767710061 Sn
atom 3.4150216414562058 2.4655667302429407 15.0000041756147162 O
atom 9.1390468436257990 6.5981786326032328 19.4839521862938057 Sn
atom 4.3534604806307451 3.1430996002594558 20.6734900478487020 Sn
atom 10.3773294523231812 4.8830053885864961 19.4839724553020943 O
atom 7.9007284118499621 8.3133271296984557 19.4839678749874103 O
atom 9.2889529864768186 6.7064025477091853 17.3790738232016153 O
atom 10.8377066667922737 7.8245908526339294 19.2097910842811075 O
atom 10.9876230754415101 7.9328008207400948 17.1049127491853099 Sn
atom 6.2020709559413705 4.4777744283636265 18.2944451958903755 Sn
atom 12.2259363754827657 6.2176508164513491 17.1048925321953504 O
atom 9.7493356493734122 9.6479723135713957 17.1048876714465301 O
atom 7.4403837243864590 5.3717814756981088 19.7581789441961924 O
atom 12.6862788647702072 9.1592079916472002 16.8306856364954243 O
atom 9.1390439002142969 2.3573439836509924 17.1048797608367487 Sn
atom 8.0506582629101082 10.0532084517106135 18.2944163700613487 Sn
atom 10.3773236897631467 0.6421683467093725 17.1049001258243791 O
atom 7.9007194013557678 4.0724878475529493 17.1048913633306974 O
atom 9.2889504675067567 10.9472346309407094 19.7581412158895446 O
atom 10.8377029935968512 3.5837535575029165 16.8307163856647293 O
atom 7.2904185748878776 1.0226909562731750 19.4839813447989343 Sn
atom 6.2020680091719713 0.2369350936094680 15.9153693911805867 Sn
atom 12.2259351028668721 10.4584835553157998 19.4839572028166401 O
atom 6.0521283808547075 2.7378599361397149 19.4839481357209330 O
atom 7.4403804640079967 1.1309432140114666 17.3791041903315175 O
atom 8.9890796080186739 2.2490884559927937 19.2097531582505567 O
atom 5.1136844247208426 7.9328023781450083 17.1049083583402179 Sn
atom 12.0760032799769306 4.4777703963832565 18.2944415095991033 Sn
atom 6.3520095089008697 6.2176581257372625 17.1048919094185194 O
atom 3.8753986899617812 9.6479742286354817 17.1048785348187060 O
atom 13.3143170248465896 5.3717756892449859 19.7581759326792650 O
atom 6.8123514432816643 9.1591923294044157 16.8306822224200161 O
atom 3.2651064715433957 6.5981795402865595 19.4839497916139344 Sn
atom 10.2273891297007342 3.1431012614037890 20.6734882926605543 Sn
atom 4.5033944488116111 4.8830080703953893 19.4839821251746734 O
atom 13.7746524876354819 8.3133246518049280 19.4839671004800294 O
atom 3.4150183560358491 6.7063999346209506 17.3790719202749315 O
atom 4.9637724612080500 7.8245826680764496 19.2097863997852301 O
atom 1.4164829566720283 1.0226948164476679 19.4839822919372452 Sn
atom 0.3281369824202729 0.2369402453439819 15.9153746582644580 Sn
atom 6.3520155224708201 10.4584970059067146 19.4839742882432354 O
atom 11.9260664164505759 2.7378675891886983 19.4839563429727747 O
atom 1.5664519107229451 1.1309449448647297 17.3791084630139707 O
atom 3.1151518070997608 2.2490854536057823 19.2097563436512146 O
atom 3.2651094683731285 2.3573480898600123 17.1048805351105742 Sn
atom 13.9245961717296538 10.0532095594145350 18.2944203636941047 Sn
atom 4.5034033003790617 0.6421808207727325 17.1049186249455403 O
atom 2.0267906943507281 4.0724946828060498 17.1048995158678423 O
atom 15.1628896877715764 10.9472344440814364 19.7581453915042573 O
atom 4.9637822929083102 3.5837445353836248 16.8307204091297287 O
atom 5.4418443613152494 3.9289033421951691 24.2420934021833432 Sn
atom 6.6801269700126378 2.2137300981784360 24.2421136711916390 O
atom 4.2035259295394178 5.6440518392903929 24.2421090908769514 O
atom 5.5917505041662690 4.0371272573011208 22.1372150390911600 O
atom 7.1405041844817339 5.1553155622258657 23.9679323001706521 O
atom 7.2904205931309702 5.2635255303320294 21.8630539650748581 Sn
atom 2.5048684736308213 1.8084991379555635 23.0525864117799131 Sn
atom 8.5287338931722143 3.5483755260432850 21.8630337480848915 O
atom 6.0521331670628626 6.9786970231633338 21.8630288873360712 O
atom 8.9890763824596576 6.4899327012391366 21.5888268523849618 O
atom 9.1390444521866492 10.8390116974894894 21.8630209767262897 Sn
atom 4.3534557805995595 7.3839331613025498 23.0525575859508862 Sn
atom 10.3773242417355025 9.1238360605478714 21.8630413417139238 O
atom 4.2035169190452235 1.4032125571448872 21.8630325792202385 O
atom 7.1405005112863034 0.9144782670948531 21.5888576015542739 O
atom 7.2904191268602316 9.5043586701116727 24.2421225606884718 Sn
atom 6.2020685611443200 8.7186028074479651 20.6735106070701242 Sn
atom 8.5287326205563172 7.7892082649077388 24.2420984187061848 O
atom 2.3549258985441628 0.0685846457316507 24.2420893516104741 O
atom 7.4403810159803454 9.6126109278499658 22.1372454062210551 O
atom 8.9890801599910244 10.7307561698312917 23.9678943741400943 O
atom 13.1643494367533211 5.2635270877369429 21.8630495742297590 Sn
atom 8.3788007976663810 1.8084951059751884 23.0525827254886480 Sn
atom 2.6548070265903263 3.5483828353292011 21.8630331253080570 O
atom 11.9260637019942433 6.9786989382274180 21.8630197507082471 O
atom 3.1151489609711094 6.4899170389963512 21.5888234383095607 O
atom 11.3157714835758672 3.9289042498784936 24.2420910075034826 Sn
atom 0.8061919665010668 2.2137327799873252 24.2421233410642145 O
atom 10.0774500053249323 5.6440493613968652 24.2421083163695670 O
atom 11.4656833680683174 4.0371246442128879 22.1372131361644726 O
atom 13.0144374732405232 5.1553073776683860 23.9679276156747676 O
atom 13.1643510029874040 9.5043625302861638 24.2421235078267898 Sn
atom 12.0760050287356382 8.7186079591824779 20.6735158741539991 Sn
atom 2.6548130401602759 7.7892217154986518 24.2421155041327765 O
atom 8.2288639341400369 0.0685922987806362 24.2420975588623122 O
atom 13.3143199570383164 9.6126126587032275 22.1372496789035154 O
atom 14.8630198534151159 10.7307531674442806 23.9678975595407522 O
atom 15.0129775146884992 10.8390158036985103 21.8630217510001117 Sn
atom 10.2273936894191060 7.3839342690064713 23.0525615795836458 Sn
atom 4.5034038523514113 9.1238485346112306 21.8630598408350743 O
atom 10.0774557063832013 1.4032193923979861 21.8630407317573869 O
atom 1.2665798105977666 0.9144692449755618 21.5888616250192698 O
