#===============================================================================
# Created using the Atomic Simulation Environment (ASE)

# Mon Mar 23 14:01:28 2026

#=======================================================
lattice_vector 9.7251527000000060 0.0000000000000000 0.0000000000000000 
lattice_vector -0.0000000267767232 6.5904661899999999 0.0000000000000000 
lattice_vector 0.0000000000000000 0.0000000000000000 48.8898463849993519 
atom 9.7251332199983906 0.0000004109745479 18.3667233092201769 Sn
atom 4.8625551099982056 0.0000011059745629 18.3667177692202372 Sn
atom 2.4312895883043493 1.6476368008527522 15.9354400942195475 Sn
atom 0.9354404575247887 1.6476027047751545 17.4313024534394145 O
atom 1.4958639392197850 0.0000004127295374 15.0000394999990760 O
atom 3.3667017440010234 6.5904661389759127 16.8708537884403427 O
atom 2.4312882149160595 4.9428297708527476 15.9354410342194726 Sn
atom 0.9354392141364506 4.9428627347751499 17.4313040134395401 O
atom 1.4958358958301239 3.2952330027296282 15.0000000000000000 O
atom 3.3667425873902790 3.2952334589758725 16.8708809584389989 O
atom 7.2938689483044223 1.6476378358527481 15.9354423542194539 Sn
atom 5.7980269475250834 1.6476059497751372 17.4313115834390935 O
atom 6.3584445124431577 6.5904661177295338 15.0000423799989306 O
atom 8.2292817940011442 6.5904660039759051 16.8708574684402173 O
atom 7.2938673249161532 4.9428279358527432 15.9354437442193806 Sn
atom 5.7980248041367588 4.9428600697751301 17.4313132334392300 O
atom 6.3584142158302628 3.2952328077296178 15.0000041699999294 O
atom 8.2293174673906684 3.2952328539758353 16.8708927584390445 O
atom 2.4312889283042693 1.6475950360963671 20.7980127342194479 Sn
atom 9.7251338599976282 0.0000003714618282 28.0918528992201573 Sn
atom 0.9354324775243416 1.6476230200187907 22.2938658534397405 O
atom 3.9271413890839666 1.6476231321739561 19.3021543449994510 O
atom 1.4958394124414134 6.5904658979732691 19.8625657399998801 O
atom 3.3667523507782748 0.0000001542195210 21.7334461784386832 O
atom 2.4312906849158247 4.9428709260963730 20.7980115242195147 Sn
atom 0.0000255366103566 3.2952318609745639 18.3667333492186913 Sn
atom 0.9354346941359277 4.9428430500187988 22.2938638634396327 O
atom 3.9271432556955608 4.9428428821739638 19.3021525449993483 O
atom 1.4958707658310517 3.2952330679731827 19.8626045499988528 O
atom 3.3667174073887471 3.2952326942195933 21.7334107184398242 O
atom 7.2938636983041754 1.6475955410963745 20.7980098542195009 Sn
atom 4.8625557499974450 0.0000010664618432 28.0918473592202176 Sn
atom 5.7980052075241897 1.6476261450188001 22.2938613434398718 O
atom 8.7897101190836811 1.6476259671739750 19.3021457149997104 O
atom 6.3584126424413023 6.5904658629732769 19.8625623399999824 O
atom 8.2293237007781510 0.0000004992195276 21.7334423084388426 O
atom 7.2938654249157526 4.9428707410963781 20.7980092942195718 Sn
atom 4.8625945666102508 3.2952318259745663 18.3667300992189340 Sn
atom 5.7980071641358020 4.9428400850188066 22.2938599834397451 O
atom 8.7897118256953082 4.9428393971739792 19.3021447349995938 O
atom 6.3584412458309449 3.2952335329731874 19.8626012599990460 O
atom 8.2292831873888854 3.2952327092195701 21.7334149584401750 O
atom 2.4312902283035891 1.6476367613400327 25.6605696842195314 Sn
atom 0.0000205232215534 6.5904647062182038 23.2292962692188567 Sn
atom 0.9354410975240280 1.6476026652624347 27.1564320434394020 O
atom 3.9271407890832961 1.6476041974176243 24.1647096849994156 O
atom 1.4958645792190244 0.0000003732168177 24.7251690899990635 O
atom 3.3667023840002632 6.5904660994631934 26.5959833784403301 O
atom 2.4312888549152993 4.9428297313400282 25.6605706242194600 Sn
atom 9.7251341166094658 3.2952344062182060 23.2292825692201532 Sn
atom 0.9354398541356902 4.9428626952624297 27.1564336034395168 O
atom 3.9271391556949662 4.9428620774176171 24.1647114349995462 O
atom 1.4958365358293637 3.2952329632169088 24.7251295899999874 O
atom 3.3667432273895193 3.2952334194631523 26.5960105484389828 O
atom 7.2938695883036626 1.6476377963400286 25.6605719442194413 Sn
atom 4.8626019432216223 6.5904650912182028 23.2292983092186844 Sn
atom 5.7980275875243237 1.6476059102624174 27.1564411734390703 O
atom 8.7897228490834696 1.6476067024176138 24.1647149949992368 O
atom 6.3584451524423971 6.5904660782168145 24.7251719699989181 O
atom 8.2292824340003836 6.5904659644631858 26.5959870584402012 O
atom 7.2938679649153926 4.9428278963400230 25.6605733342193645 Sn
atom 4.8625583366096308 3.2952342812181903 23.2292876592201338 Sn
atom 5.7980254441359973 4.9428600302624099 27.1564428234392068 O
atom 8.7897203756951434 4.9428593324176067 24.1647167949993715 O
atom 6.3584148558295022 3.2952327682168985 24.7251337599999133 O
atom 8.2293181073899078 3.2952328144631156 26.5960223484390283 O
atom 2.4312895683035092 1.6475949965836474 30.5231423242194282 Sn
atom 0.9354331175235812 1.6476229805060711 32.0189954434397279 O
atom 3.9271420290832064 1.6476230926612363 29.0272839349994314 O
atom 1.4958400524406530 6.5904658584605498 29.5876953299998675 O
atom 3.3667529907775147 0.0000001147068013 31.4585757684386564 O
atom 2.4312913249150636 4.9428708865836537 30.5231411142195057 Sn
atom 0.0000261766095962 3.2952318214618441 28.0918629392186787 Sn
atom 0.9354353341351674 4.9428430105060794 32.0189934534396130 O
atom 3.9271438956947997 4.9428428426612445 29.0272821349993322 O
atom 1.4958714058302913 3.2952330284604634 29.5877341399988367 O
atom 3.3667180473879861 3.2952326547068735 31.4585403084398152 O
atom 7.2938643383034156 1.6475955015836548 30.5231394442194812 Sn
atom 5.7980058475234300 1.6476261055060806 32.0189909334398592 O
atom 8.7897107590829222 1.6476259276612553 29.0272753049996979 O
atom 6.3584132824405426 6.5904658234605575 29.5876919299999699 O
atom 8.2293243407773904 0.0000004597068079 31.4585718984388265 O
atom 7.2938660649149929 4.9428707015836588 30.5231388842195557 Sn
atom 4.8625952066094911 3.2952317864618466 28.0918596892189143 Sn
atom 5.7980078041350431 4.9428400455060872 32.0189895734397325 O
atom 8.7897124656945493 4.9428393576612599 29.0272743249995813 O
atom 6.3584418858301852 3.2952334934604681 29.5877308499990264 O
atom 8.2292838273881248 3.2952326697068504 31.4585445484401660 O
atom 0.0000211632207930 6.5904646667054845 32.9544258592188370 Sn
atom 3.9271414290825351 1.6476041579049048 33.8898392749993960 O
atom 9.7251347566087052 3.2952343667054858 32.9544121592201336 Sn
atom 3.9271397956942051 4.9428620379048978 33.8898410249995337 O
atom 4.8626025832208626 6.5904650517054835 32.9544278992186790 Sn
atom 8.7897234890827090 1.6476066629048942 33.8898445849992171 O
atom 4.8625589766088710 3.2952342417054710 32.9544172492201071 Sn
atom 8.7897210156943846 4.9428592929048865 33.8898463849993519 O
