#===============================================================================
# Created using the Atomic Simulation Environment (ASE)

# Mon Mar 23 14:01:28 2026

#=======================================================
lattice_vector 11.7478674943430175 0.0000000000000000 0.0000000000000000 
lattice_vector 3.6972030342828979 11.1509430042465603 0.0000000000000000 
lattice_vector 0.0000000000000000 0.0000000000000000 32.1049103716623137 
atom 5.4418443613152494 3.9289033421951691 17.1048802660188706 Sn
atom 6.6801269700126378 2.2137300981784360 17.1049005350271663 O
atom 4.2035259295394178 5.6440518392903929 17.1048959547124788 O
atom 5.5917505041662690 4.0371272573011208 15.0000019029266873 O
atom 7.1405041844817339 5.1553155622258657 16.8307191640061795 O
atom 2.5048684736308213 1.8084991379555635 15.9153732756154405 Sn
atom 4.3534557805995595 7.3839331613025498 15.9153444497864136 Sn
atom 7.2904191268602316 9.5043586701116727 17.1049094245239992 Sn
atom 8.5287326205563172 7.7892082649077388 17.1048852825417121 O
atom 2.3549258985441628 0.0685846457316507 17.1048762154460015 O
atom 7.4403810159803454 9.6126109278499658 15.0000322700565825 O
atom 8.9890801599910244 10.7307561698312917 16.8306812379756217 O
atom 8.3788007976663810 1.8084951059751884 15.9153695893241753 Sn
atom 11.3157714835758672 3.9289042498784936 17.1048778713390099 Sn
atom 0.8061919665010668 2.2137327799873252 17.1049102048997419 O
atom 10.0774500053249323 5.6440493613968652 17.1048951802050944 O
atom 11.4656833680683174 4.0371246442128879 15.0000000000000000 O
atom 13.0144374732405232 5.1553073776683860 16.8307144795102950 O
atom 13.1643510029874040 9.5043625302861638 17.1049103716623172 Sn
atom 2.6548130401602759 7.7892217154986518 17.1049023679683039 O
atom 8.2288639341400369 0.0685922987806362 17.1048844226978396 O
atom 13.3143199570383164 9.6126126587032275 15.0000365427390427 O
atom 14.8630198534151159 10.7307531674442806 16.8306844233762796 O
atom 10.2273936894191060 7.3839342690064713 15.9153484434191732 Sn
