#===============================================================================
# Created using the Atomic Simulation Environment (ASE)

# Mon Mar 23 14:01:28 2026

#=======================================================
lattice_vector 9.7251295900000052 0.0000000000000000 0.0000000000000000 
lattice_vector 0.0000006400007604 9.7251526999999847 0.0000000000000000 
lattice_vector 0.0000000000000000 0.0000000000000000 31.6476393699999683 
atom 1.4958396121127657 1.4958379536733386 16.6476379780762365 O
atom 2.4312854645874329 2.4312891645871701 15.0000430100000024 Sn
atom 3.9271377053671461 0.9354330753670086 15.0000151400000057 O
atom 0.9354265838076640 3.9271418338076076 15.0000149599999943 O
atom 1.4958365321130436 6.3584111836734420 16.6476379430762229 O
atom 2.4312835545877598 7.2938639045872371 15.0000428250000013 Sn
atom 3.9271341453674018 5.7980055453671326 15.0000121749999984 O
atom 0.9354190938077918 8.7897104038078613 15.0000114749999760 O
atom 4.8625700428936707 0.0000188428929393 16.6476368000000186 Sn
atom 7.2938445645874062 2.4312870145873999 15.0000018349999955 Sn
atom 8.7897074453672897 0.9354379153668257 15.0000348050000163 O
atom 5.7979854738075014 3.9271374138077824 15.0000341749999819 O
atom 4.8625724028942168 4.8626002628928662 16.6476371850000255 Sn
atom 6.3584461621141051 6.3584433736719674 16.6476381780762956 O
atom 8.2292613736729656 8.2292805321138296 16.6476380719237049 O
atom 7.2938475945878816 7.2938661245873062 15.0000000000000000 Sn
atom 8.7897169853679742 5.7980235053665190 15.0000321400000338 O
atom 5.7979911538080442 8.7897186338076008 15.0000314299999928 O
atom 9.7251273128931270 9.7251318328931919 16.6476386749999712 Sn
atom 3.3667201736741146 3.3667507421130520 16.6476384319237702 O
atom 9.7251214528926848 4.8625537228933799 16.6476393699999683 Sn
atom 3.3667166236743307 8.2293220921131720 16.6476387769237668 O
atom 6.3584429621135854 1.4958627736720691 16.6476386630762967 O
atom 8.2292573736724624 3.3667004821139588 16.6476382069236912 O
