#===============================================================================
# Created using the Atomic Simulation Environment (ASE)

# Mon Mar 23 14:01:28 2026

#=======================================================
lattice_vector 9.7251527000000060 0.0000000000000000 0.0000000000000000 
lattice_vector -0.0000000267767232 6.5904661899999999 0.0000000000000000 
lattice_vector 0.0000000000000000 0.0000000000000000 31.8708568115596194 
atom 0.9354331175235812 1.6476229805060711 15.0000058699999954 O
atom 0.9354353341351674 4.9428430105060794 15.0000038799998805 O
atom 5.7980058475234300 1.6476261055060806 15.0000013600001267 O
atom 5.7980078041350431 4.9428400455060872 15.0000000000000000 O
atom 0.0000211632207930 6.5904646667054845 15.9354362857791045 Sn
atom 3.9271414290825351 1.6476041579049048 16.8708497015596635 O
atom 9.7251347566087052 3.2952343667054858 15.9354225857804011 Sn
atom 3.9271397956942051 4.9428620379048978 16.8708514515598011 O
atom 4.8626025832208626 6.5904650517054835 15.9354383257789465 Sn
atom 8.7897234890827090 1.6476066629048942 16.8708550115594846 O
atom 4.8625589766088710 3.2952342417054710 15.9354276757803746 Sn
atom 8.7897210156943846 4.9428592929048865 16.8708568115596194 O
