#===============================================================================
# Created using the Atomic Simulation Environment (ASE)

# Mon Mar 23 14:01:29 2026

#=======================================================
lattice_vector 11.7478674943430175 0.0000000000000000 0.0000000000000000 
lattice_vector 0.0000005519723523 9.7251526999999900 0.0000000000000000 
lattice_vector 0.0000000000000000 0.0000000000000000 31.6783405166480954 
atom 0.6562579983201977 9.7251324891983604 15.8391773244062541 Sn
atom 2.3549301327799714 3.9271424552603844 15.0000089053600654 O
atom 5.2918733481767610 3.3667164402609222 15.0000005885847649 O
atom 0.6562527463166546 4.8625543791984649 15.8391747918430177 Sn
atom 2.3549258985441672 8.7897110252603809 15.0000016390527016 O
atom 5.2918771257081341 8.2292822202608562 15.0000029796106986 O
atom 8.2288606677113538 3.9271396552603197 15.0000000000000000 O
atom 11.1658134210312401 3.3667011102608213 15.0000052739723593 O
atom 6.5301866473901882 9.7251330791984625 15.8391749809076323 Sn
atom 8.2288639341400316 8.7897217152603151 15.0000050525615833 O
atom 11.1658168191322282 8.2292811602607578 15.0000072266690800 O
atom 6.5301906551362121 4.8625572991983956 15.8391777328821171 Sn
atom 1.8945474698833642 1.4958386381362601 16.6783332131404798 O
atom 3.5932175588480697 2.4312898141989292 15.8391978749488693 Sn
atom 4.8315308588893222 0.9354337531358455 16.6783368278054560 O
atom 1.8945449509133165 6.3584118681363000 16.6783312767921110 O
atom 3.5932160925773364 7.2938645541989500 15.8391964707886466 Sn
atom 4.8315295862734216 5.7980062231358023 16.6783321966656111 O
atom 9.4671464024704264 2.4312890241989908 15.8391932835513991 Sn
atom 10.7054714866504366 0.9354398231355738 16.6783327085076003 O
atom 7.7684803337854191 1.4958354281362785 16.6783328320103230 O
atom 9.4671479687045021 7.2938683841989853 15.8391954081890951 Sn
atom 10.7054775002203897 5.7980263131355381 16.6783405166480954 O
atom 7.7684841711781312 6.3584137481362095 16.6783350099241794 O
