#===============================================================================
# Created using the Atomic Simulation Environment (ASE)

# Mon Mar 23 14:01:28 2026

#=======================================================
lattice_vector 9.7251295900000052 0.0000000000000000 0.0000000000000000 
lattice_vector 0.0000006400007604 9.7251526999999847 0.0000000000000000 
lattice_vector 0.0000000000000000 0.0000000000000000 38.2381055599999655 
atom 1.4958396388895054 1.4958379804500601 16.6476379780762258 O
atom 2.4312854913641724 2.4312891913638914 15.0000430100000024 Sn
atom 3.9271377321438856 0.9354331021437300 15.0000151399999986 O
atom 0.9354266105844032 3.9271418605843285 15.0000149599999908 O
atom 1.4958365588897831 6.3584112104501642 16.6476379430762194 O
atom 2.4312835813644997 7.2938639313639575 15.0000428249999942 Sn
atom 3.9271341721441413 5.7980055721438539 15.0000121749999913 O
atom 0.9354191205845310 8.7897104305845843 15.0000114749999760 O
atom 4.8625700696704097 0.0000188696696608 16.6476368000000221 Sn
atom 7.2938445913641461 2.4312870413641212 15.0000018349999920 Sn
atom 8.7897074721440269 0.9354379421435470 15.0000348050000127 O
atom 5.7979855005842404 3.9271374405845032 15.0000341749999819 O
atom 4.8625724296709567 4.8626002896695875 16.6476371850000291 Sn
atom 6.3584461888908450 6.3584434004486887 16.6476381780763028 O
atom 8.2292614004497064 8.2292805588905527 16.6476380719236978 O
atom 7.2938476213646206 7.2938661513640275 15.0000000000000000 Sn
atom 8.7897170121447150 5.7980235321432394 15.0000321400000303 O
atom 5.7979911805847832 8.7897186605843221 15.0000314299999893 O
atom 2.4312866879757875 2.4312874079755344 18.2952333099999969 Sn
atom 9.7251273396698661 9.7251318596699132 16.6476386749999747 Sn
atom 3.9271397087554294 0.9354308587552904 18.2952613000000035 O
atom 0.9354283971959582 3.9271399671958949 18.2952613999999869 O
atom 1.4958396121127657 1.4958379536733386 23.2381041680762337 O
atom 3.3667202004508536 3.3667507688897729 16.6476384319237738 O
atom 2.4312854645874329 2.4312891645871701 21.5905091999999996 Sn
atom 0.0000071362822121 0.0000241762812381 19.9428701250000273 Sn
atom 3.9271377053671461 0.9354330753670086 21.5904813300000029 O
atom 0.9354265838076640 3.9271418338076076 21.5904811499999916 O
atom 1.4958784355021666 1.4958693070604219 19.9428713380762943 O
atom 3.3666847270613363 3.3667158255025789 19.9428709719236998 O
atom 2.4312841279761157 7.2938621779756234 18.2952338149999925 Sn
atom 9.7251214796694239 4.8625537496701021 16.6476393699999647 Sn
atom 3.9271355187556871 5.7980035887554289 18.2952644249999885 O
atom 0.9354200871960846 8.7897086971961684 18.2952642349999692 O
atom 1.4958365321130436 6.3584111836734420 23.2381041330762201 O
atom 3.3667166504510702 8.2293221188898915 16.6476387769237597 O
atom 2.4312835545877598 7.2938639045872371 21.5905090149999985 Sn
atom 0.0000042062823515 4.8625932062813391 19.9428700900000209 Sn
atom 3.9271341453674018 5.7980055453671326 21.5904783649999956 O
atom 0.9354190938077918 8.7897104038078613 21.5904776649999732 O
atom 1.4958754655023532 6.3584397870605232 19.9428718030762866 O
atom 3.3666892870613685 8.2292816055024343 19.9428709869236940 O
atom 7.2938436379757814 2.4312883879757510 18.2952750549999905 Sn
atom 4.8625700428936707 0.0000188428929393 23.2381029900000158 Sn
atom 8.7897058987557273 0.9354391587552653 18.2952409650000085 O
atom 5.7979837371959491 3.9271390471962264 18.2952424849999780 O
atom 6.3584429888903253 1.4958628004487904 16.6476386630762896 O
atom 8.2292574004492032 3.3667005088906805 16.6476382069236912 O
atom 7.2938445645874062 2.4312870145873999 21.5904680249999927 Sn
atom 4.8625569962815094 9.7251324362817329 19.9428726899999660 Sn
atom 8.7897074453672897 0.9354379153668257 21.5905009950000135 O
atom 5.7979854738075014 3.9271374138077824 21.5905003649999792 O
atom 6.3584034755010324 1.4958347570617299 19.9428712530762233 O
atom 8.2292845570621758 3.3667413255014251 19.9428717169237615 O
atom 7.2938462179762578 7.2938677479756668 18.2952760899999944 Sn
atom 4.8625724028942168 4.8626002628928662 23.2381033750000228 Sn
atom 8.7897153487564363 5.7980256487549537 18.2952442100000283 O
atom 5.7979893671965153 8.7897211071960442 18.2952449899999898 O
atom 6.3584461621141051 6.3584433736719674 23.2381043680762929 O
atom 8.2292613736729656 8.2292805321138296 23.2381042619237022 O
atom 7.2938475945878816 7.2938661245873062 21.5904661899999972 Sn
atom 4.8625617662811482 4.8625566562815763 19.9428725649999699 Sn
atom 8.7897169853679742 5.7980235053665190 21.5904983300000310 O
atom 5.7979911538080442 8.7897186338076008 21.5904976199999901 O
atom 6.3584079655014767 6.3584130770615870 19.9428710580762250 O
atom 8.2292966770625089 8.2293162055010303 19.9428711119237718 O
atom 9.7251273128931270 9.7251318328931919 23.2381048649999684 Sn
atom 3.3667201736741146 3.3667507421130520 23.2381046219237675 O
atom 9.7251214528926848 4.8625537228933799 23.2381055599999655 Sn
atom 3.3667166236743307 8.2293220921131720 23.2381049669237640 O
atom 6.3584429621135854 1.4958627736720691 23.2381048530762939 O
atom 8.2292573736724624 3.3667004821139588 23.2381043969236885 O
