#===============================================================================
# Created using the Atomic Simulation Environment (ASE)

# Mon Mar 23 14:01:28 2026

#=======================================================
lattice_vector 9.7251295900000052 0.0000000000000000 0.0000000000000000 
lattice_vector 0.0000006400007604 9.7251526999999847 0.0000000000000000 
lattice_vector 0.0000000000000000 0.0000000000000000 33.2952354699999447 
atom 1.4958396121127657 1.4958379536733386 18.2952340780762128 O
atom 2.4312854645874329 2.4312891645871701 16.6476391099999788 Sn
atom 0.0000071362822121 0.0000241762812381 15.0000000350000064 Sn
atom 3.9271377053671461 0.9354330753670086 16.6476112399999820 O
atom 0.9354265838076640 3.9271418338076076 16.6476110599999707 O
atom 1.4958784355021666 1.4958693070604219 15.0000012480762734 O
atom 3.3666847270613363 3.3667158255025789 15.0000008819236790 O
atom 1.4958365321130436 6.3584111836734420 18.2952340430761993 O
atom 2.4312835545877598 7.2938639045872371 16.6476389249999777 Sn
atom 0.0000042062823515 4.8625932062813391 15.0000000000000000 Sn
atom 3.9271341453674018 5.7980055453671326 16.6476082749999748 O
atom 0.9354190938077918 8.7897104038078613 16.6476075749999524 O
atom 1.4958754655023532 6.3584397870605232 15.0000017130762657 O
atom 3.3666892870613685 8.2292816055024343 15.0000008969236731 O
atom 4.8625700428936707 0.0000188428929393 18.2952328999999949 Sn
atom 7.2938445645874062 2.4312870145873999 16.6475979349999719 Sn
atom 4.8625569962815094 9.7251324362817329 15.0000025999999451 Sn
atom 8.7897074453672897 0.9354379153668257 16.6476309049999927 O
atom 5.7979854738075014 3.9271374138077824 16.6476302749999583 O
atom 6.3584034755010324 1.4958347570617299 15.0000011630762025 O
atom 8.2292845570621758 3.3667413255014251 15.0000016269237406 O
atom 4.8625724028942168 4.8626002628928662 18.2952332850000019 Sn
atom 6.3584461621141051 6.3584433736719674 18.2952342780762720 O
atom 8.2292613736729656 8.2292805321138296 18.2952341719236813 O
atom 7.2938475945878816 7.2938661245873062 16.6475960999999764 Sn
atom 4.8625617662811482 4.8625566562815763 15.0000024749999490 Sn
atom 8.7897169853679742 5.7980235053665190 16.6476282400000102 O
atom 5.7979911538080442 8.7897186338076008 16.6476275299999692 O
atom 6.3584079655014767 6.3584130770615870 15.0000009680762041 O
atom 8.2292966770625089 8.2293162055010303 15.0000010219237510 O
atom 9.7251273128931270 9.7251318328931919 18.2952347749999475 Sn
atom 3.3667201736741146 3.3667507421130520 18.2952345319237466 O
atom 9.7251214528926848 4.8625537228933799 18.2952354699999447 Sn
atom 3.3667166236743307 8.2293220921131720 18.2952348769237432 O
atom 6.3584429621135854 1.4958627736720691 18.2952347630762731 O
atom 8.2292573736724624 3.3667004821139588 18.2952343069236676 O
