#===============================================================================
# Created using the Atomic Simulation Environment (ASE)

# Mon Mar 23 14:01:28 2026

#=======================================================
lattice_vector 9.7251527000000060 0.0000000000000000 0.0000000000000000 
lattice_vector -0.0000000267767232 6.5904661899999999 0.0000000000000000 
lattice_vector 0.0000000000000000 0.0000000000000000 44.0272840449993694 
atom 2.4312889283042693 1.6475950360963671 15.9354503942194654 Sn
atom 9.7251338599976282 0.0000003714618282 23.2292905592201748 Sn
atom 0.9354324775243416 1.6476230200187907 17.4313035134397580 O
atom 1.4958394124414134 6.5904658979732691 15.0000033999998976 O
atom 3.3667523507782748 0.0000001542195210 16.8708838384387008 O
atom 2.4312906849158247 4.9428709260963730 15.9354491842195323 Sn
atom 0.9354346941359277 4.9428430500187988 17.4313015234396502 O
atom 1.4958707658310517 3.2952330679731827 15.0000422099988704 O
atom 3.3667174073887471 3.2952326942195933 16.8708483784398418 O
atom 7.2938636983041754 1.6475955410963745 15.9354475142195184 Sn
atom 4.8625557499974450 0.0000010664618432 23.2292850192202351 Sn
atom 5.7980052075241897 1.6476261450188001 17.4312990034398894 O
atom 6.3584126424413023 6.5904658629732769 15.0000000000000000 O
atom 8.2293237007781510 0.0000004992195276 16.8708799684388602 O
atom 7.2938654249157526 4.9428707410963781 15.9354469542195893 Sn
atom 5.7980071641358020 4.9428400850188066 17.4312976434397626 O
atom 6.3584412458309449 3.2952335329731874 15.0000389199990636 O
atom 8.2292831873888854 3.2952327092195701 16.8708526184401926 O
atom 2.4312902283035891 1.6476367613400327 20.7980073442195490 Sn
atom 0.0000205232215534 6.5904647062182038 18.3667339292188743 Sn
atom 0.9354410975240280 1.6476026652624347 22.2938697034394195 O
atom 3.9271407890832961 1.6476041974176243 19.3021473449994332 O
atom 1.4958645792190244 0.0000003732168177 19.8626067499990810 O
atom 3.3667023840002632 6.5904660994631934 21.7334210384403477 O
atom 2.4312888549152993 4.9428297313400282 20.7980082842194776 Sn
atom 9.7251341166094658 3.2952344062182060 18.3667202292201708 Sn
atom 0.9354398541356902 4.9428626952624297 22.2938712634395344 O
atom 3.9271391556949662 4.9428620774176171 19.3021490949995638 O
atom 1.4958365358293637 3.2952329632169088 19.8625672500000050 O
atom 3.3667432273895193 3.2952334194631523 21.7334482084390004 O
atom 7.2938695883036626 1.6476377963400286 20.7980096042194589 Sn
atom 4.8626019432216223 6.5904650912182028 18.3667359692187020 Sn
atom 5.7980275875243237 1.6476059102624174 22.2938788334390878 O
atom 8.7897228490834696 1.6476067024176138 19.3021526549992544 O
atom 6.3584451524423971 6.5904660782168145 19.8626096299989356 O
atom 8.2292824340003836 6.5904659644631858 21.7334247184402187 O
atom 7.2938679649153926 4.9428278963400230 20.7980109942193820 Sn
atom 4.8625583366096308 3.2952342812181903 18.3667253192201514 Sn
atom 5.7980254441359973 4.9428600302624099 22.2938804834392243 O
atom 8.7897203756951434 4.9428593324176067 19.3021544549993891 O
atom 6.3584148558295022 3.2952327682168985 19.8625714199999308 O
atom 8.2293181073899078 3.2952328144631156 21.7334600084390459 O
atom 2.4312895683035092 1.6475949965836474 25.6605799842194457 Sn
atom 0.9354331175235812 1.6476229805060711 27.1564331034397455 O
atom 3.9271420290832064 1.6476230926612363 24.1647215949994489 O
atom 1.4958400524406530 6.5904658584605498 24.7251329899998851 O
atom 3.3667529907775147 0.0000001147068013 26.5960134284386740 O
atom 2.4312913249150636 4.9428708865836537 25.6605787742195233 Sn
atom 0.0000261766095962 3.2952318214618441 23.2293005992186963 Sn
atom 0.9354353341351674 4.9428430105060794 27.1564311134396306 O
atom 3.9271438956947997 4.9428428426612445 24.1647197949993497 O
atom 1.4958714058302913 3.2952330284604634 24.7251717999988543 O
atom 3.3667180473879861 3.2952326547068735 26.5959779684398328 O
atom 7.2938643383034156 1.6475955015836548 25.6605771042194988 Sn
atom 5.7980058475234300 1.6476261055060806 27.1564285934398768 O
atom 8.7897107590829222 1.6476259276612553 24.1647129649997154 O
atom 6.3584132824405426 6.5904658234605575 24.7251295899999874 O
atom 8.2293243407773904 0.0000004597068079 26.5960095584388441 O
atom 7.2938660649149929 4.9428707015836588 25.6605765442195732 Sn
atom 4.8625952066094911 3.2952317864618466 23.2292973492189319 Sn
atom 5.7980078041350431 4.9428400455060872 27.1564272334397501 O
atom 8.7897124656945493 4.9428393576612599 24.1647119849995988 O
atom 6.3584418858301852 3.2952334934604681 24.7251685099990439 O
atom 8.2292838273881248 3.2952326697068504 26.5959822084401836 O
atom 0.0000211632207930 6.5904646667054845 28.0918635192188546 Sn
atom 3.9271414290825351 1.6476041579049048 29.0272769349994135 O
atom 9.7251347566087052 3.2952343667054858 28.0918498192201511 Sn
atom 3.9271397956942051 4.9428620379048978 29.0272786849995512 O
atom 4.8626025832208626 6.5904650517054835 28.0918655592186965 Sn
atom 8.7897234890827090 1.6476066629048942 29.0272822449992347 O
atom 4.8625589766088710 3.2952342417054710 28.0918549092201246 Sn
atom 8.7897210156943846 4.9428592929048865 29.0272840449993694 O
