#===============================================================================
# Created using the Atomic Simulation Environment (ASE)

# Mon Mar 23 14:01:28 2026

#=======================================================
lattice_vector 11.7478674943430175 0.0000000000000000 0.0000000000000000 
lattice_vector 3.6972030342828979 11.1509430042465603 0.0000000000000000 
lattice_vector 0.0000000000000000 0.0000000000000000 37.1372449730080803 
atom 9.1390468436257990 6.5981786326032328 17.3790736514750996 Sn
atom 4.3534604806307451 3.1430996002594558 18.5686115130299960 Sn
atom 10.3773294523231812 4.8830053885864961 17.3790939204833883 O
atom 7.9007284118499621 8.3133271296984557 17.3790893401687043 O
atom 9.2889529864768186 6.7064025477091853 15.2741952883829093 O
atom 10.8377066667922737 7.8245908526339294 17.1049125494624015 O
atom 10.9876230754415101 7.9328008207400948 15.0000342143666039 Sn
atom 6.2020709559413705 4.4777744283636265 16.1895666610716695 Sn
atom 12.2259363754827657 6.2176508164513491 15.0000139973766444 O
atom 9.7493356493734122 9.6479723135713957 15.0000091366278241 O
atom 7.4403837243864590 5.3717814756981088 17.6533004093774863 O
atom 9.1390439002142969 2.3573439836509924 15.0000012260180426 Sn
atom 8.0506582629101082 10.0532084517106135 16.1895378352426427 Sn
atom 10.3773236897631467 0.6421683467093725 15.0000215910056731 O
atom 7.9007194013557678 4.0724878475529493 15.0000128285119914 O
atom 9.2889504675067567 10.9472346309407094 17.6532626810708386 O
atom 7.2904185748878776 1.0226909562731750 17.3791028099802283 Sn
atom 12.2259351028668721 10.4584835553157998 17.3790786679979341 O
atom 6.0521283808547075 2.7378599361397149 17.3790696009022270 O
atom 7.4403804640079967 1.1309432140114666 15.2742256555128115 O
atom 8.9890796080186739 2.2490884559927937 17.1048746234318507 O
atom 5.1136844247208426 7.9328023781450083 15.0000298235215119 Sn
atom 12.0760032799769306 4.4777703963832565 16.1895629747803973 Sn
atom 6.3520095089008697 6.2176581257372625 15.0000133745998134 O
atom 3.8753986899617812 9.6479742286354817 15.0000000000000000 O
atom 13.3143170248465896 5.3717756892449859 17.6532973978605590 O
atom 3.2651064715433957 6.5981795402865595 17.3790712567952284 Sn
atom 10.2273891297007342 3.1431012614037890 18.5686097578418483 Sn
atom 4.5033944488116111 4.8830080703953893 17.3791035903559674 O
atom 13.7746524876354819 8.3133246518049280 17.3790885656613234 O
atom 3.4150183560358491 6.7063999346209506 15.2741933854562255 O
atom 4.9637724612080500 7.8245826680764496 17.1049078649665240 O
atom 1.4164829566720283 1.0226948164476679 17.3791037571185392 Sn
atom 6.3520155224708201 10.4584970059067146 17.3790957534245294 O
atom 11.9260664164505759 2.7378675891886983 17.3790778081540687 O
atom 1.5664519107229451 1.1309449448647297 15.2742299281952647 O
atom 3.1151518070997608 2.2490854536057823 17.1048778088325086 O
atom 3.2651094683731285 2.3573480898600123 15.0000020002918681 Sn
atom 13.9245961717296538 10.0532095594145350 16.1895418288753987 Sn
atom 4.5034033003790617 0.6421808207727325 15.0000400901268343 O
atom 2.0267906943507281 4.0724946828060498 15.0000209810491363 O
atom 15.1628896877715764 10.9472344440814364 17.6532668566855513 O
atom 5.4418443613152494 3.9289033421951691 22.1372148673646372 Sn
atom 6.6801269700126378 2.2137300981784360 22.1372351363729329 O
atom 4.2035259295394178 5.6440518392903929 22.1372305560582454 O
atom 5.5917505041662690 4.0371272573011208 20.0323365042724539 O
atom 7.1405041844817339 5.1553155622258657 21.8630537653519461 O
atom 7.2904205931309702 5.2635255303320294 19.7581754302561521 Sn
atom 2.5048684736308213 1.8084991379555635 20.9477078769612071 Sn
atom 8.5287338931722143 3.5483755260432850 19.7581552132661855 O
atom 6.0521331670628626 6.9786970231633338 19.7581503525173652 O
atom 8.9890763824596576 6.4899327012391366 19.4839483175662558 O
atom 9.1390444521866492 10.8390116974894894 19.7581424419075837 Sn
atom 4.3534557805995595 7.3839331613025498 20.9476790511321802 Sn
atom 10.3773242417355025 9.1238360605478714 19.7581628068952178 O
atom 4.2035169190452235 1.4032125571448872 19.7581540444015324 O
atom 7.1405005112863034 0.9144782670948531 19.4839790667355679 O
atom 7.2904191268602316 9.5043586701116727 22.1372440258697658 Sn
atom 6.2020685611443200 8.7186028074479651 18.5686320722514182 Sn
atom 8.5287326205563172 7.7892082649077388 22.1372198838874787 O
atom 2.3549258985441628 0.0685846457316507 22.1372108167917681 O
atom 7.4403810159803454 9.6126109278499658 20.0323668714023491 O
atom 8.9890801599910244 10.7307561698312917 21.8630158393213883 O
atom 13.1643494367533211 5.2635270877369429 19.7581710394110530 Sn
atom 8.3788007976663810 1.8084951059751884 20.9477041906699419 Sn
atom 2.6548070265903263 3.5483828353292011 19.7581545904893510 O
atom 11.9260637019942433 6.9786989382274180 19.7581412158895411 O
atom 3.1151489609711094 6.4899170389963512 19.4839449034908547 O
atom 11.3157714835758672 3.9289042498784936 22.1372124726847765 Sn
atom 0.8061919665010668 2.2137327799873252 22.1372448062455085 O
atom 10.0774500053249323 5.6440493613968652 22.1372297815508610 O
atom 11.4656833680683174 4.0371246442128879 20.0323346013457666 O
atom 13.0144374732405232 5.1553073776683860 21.8630490808560616 O
atom 13.1643510029874040 9.5043625302861638 22.1372449730080838 Sn
atom 12.0760050287356382 8.7186079591824779 18.5686373393352930 Sn
atom 2.6548130401602759 7.7892217154986518 22.1372369693140705 O
atom 8.2288639341400369 0.0685922987806362 22.1372190240436062 O
atom 13.3143199570383164 9.6126126587032275 20.0323711440848093 O
atom 14.8630198534151159 10.7307531674442806 21.8630190247220462 O
atom 15.0129775146884992 10.8390158036985103 19.7581432161814057 Sn
atom 10.2273936894191060 7.3839342690064713 20.9476830447649398 Sn
atom 4.5034038523514113 9.1238485346112306 19.7581813060163682 O
atom 10.0774557063832013 1.4032193923979861 19.7581621969386809 O
atom 1.2665798105977666 0.9144692449755618 19.4839830902005637 O
