#===============================================================================
# Created using the Atomic Simulation Environment (ASE)

# Mon Mar 23 14:01:28 2026

#=======================================================
lattice_vector 9.7251527000000060 0.0000000000000000 0.0000000000000000 
lattice_vector -0.0000000267767232 6.5904661899999999 0.0000000000000000 
lattice_vector 0.0000000000000000 0.0000000000000000 36.7334143415599499 
atom 9.7251338599976282 0.0000003714618282 15.9354208557807553 Sn
atom 4.8625557499974450 0.0000010664618432 15.9354153157808156 Sn
atom 0.9354410975240280 1.6476026652624347 15.0000000000000000 O
atom 0.9354398541356902 4.9428626952624297 15.0000015600001149 O
atom 5.7980275875243237 1.6476059102624174 15.0000091299996683 O
atom 5.7980254441359973 4.9428600302624099 15.0000107799998048 O
atom 2.4312895683035092 1.6475949965836474 18.3667102807800262 Sn
atom 0.9354331175235812 1.6476229805060711 19.8625634000003259 O
atom 3.9271420290832064 1.6476230926612363 16.8708518915600294 O
atom 1.4958400524406530 6.5904658584605498 17.4312632865604655 O
atom 3.3667529907775147 0.0000001147068013 19.3021437249992545 O
atom 2.4312913249150636 4.9428708865836537 18.3667090707801037 Sn
atom 0.0000261766095962 3.2952318214618441 15.9354308957792767 Sn
atom 0.9354353341351674 4.9428430105060794 19.8625614100002110 O
atom 3.9271438956947997 4.9428428426612445 16.8708500915599302 O
atom 1.4958714058302913 3.2952330284604634 17.4313020965594347 O
atom 3.3667180473879861 3.2952326547068735 19.3021082650004132 O
atom 7.2938643383034156 1.6475955015836548 18.3667074007800792 Sn
atom 5.7980058475234300 1.6476261055060806 19.8625588900004573 O
atom 8.7897107590829222 1.6476259276612553 16.8708432615602959 O
atom 6.3584132824405426 6.5904658234605575 17.4312598865605679 O
atom 8.2293243407773904 0.0000004597068079 19.3021398549994245 O
atom 7.2938660649149929 4.9428707015836588 18.3667068407801537 Sn
atom 4.8625952066094911 3.2952317864618466 15.9354276457795123 Sn
atom 5.7980078041350431 4.9428400455060872 19.8625575300003305 O
atom 8.7897124656945493 4.9428393576612599 16.8708422815601793 O
atom 6.3584418858301852 3.2952334934604681 17.4312988065596244 O
atom 8.2292838273881248 3.2952326697068504 19.3021125050007640 O
atom 0.0000211632207930 6.5904646667054845 20.7979938157794351 Sn
atom 3.9271414290825351 1.6476041579049048 21.7334072315599940 O
atom 9.7251347566087052 3.2952343667054858 20.7979801157807316 Sn
atom 3.9271397956942051 4.9428620379048978 21.7334089815601317 O
atom 4.8626025832208626 6.5904650517054835 20.7979958557792770 Sn
atom 8.7897234890827090 1.6476066629048942 21.7334125415598152 O
atom 4.8625589766088710 3.2952342417054710 20.7979852057807051 Sn
atom 8.7897210156943846 4.9428592929048865 21.7334143415599499 O
