#===============================================================================
# Created using the Atomic Simulation Environment (ASE)

# Mon Mar 23 14:01:29 2026

#=======================================================
lattice_vector 11.7478674943430175 0.0000000000000000 0.0000000000000000 
lattice_vector 0.0000005519723523 9.7251526999999900 0.0000000000000000 
lattice_vector 0.0000000000000000 0.0000000000000000 39.8619099791045528 
atom 9.1390462916534467 2.4312877695984358 15.8391446592344067 Sn
atom 4.3534604806307442 9.7251323061322541 18.5670214999434862 Sn
atom 10.3773289003508307 0.9354312485370618 16.6783302917376588 O
atom 7.9007278598776125 3.9271403006616112 15.0000024944935149 O
atom 10.8377061148199267 3.3667510956612814 15.0000024728983377 O
atom 6.2020704039690191 0.0000245445990206 15.8391631270830402 Sn
atom 6.0521326150905121 3.9271422721942786 17.7278530808973009 O
atom 7.4403831724141076 1.4958697035365638 16.6783367367111275 O
atom 8.9890758304873017 3.3667162571948164 17.7278447641219969 O
atom 9.1390439002142969 7.2938625395984866 15.8391434616254045 Sn
atom 4.3534552286272001 4.8625541961323586 18.5670189673802497 Sn
atom 10.3773236897631449 5.7980039785372171 16.6783303486014454 O
atom 7.9007194013557740 8.7897090306618164 15.0000000000000000 O
atom 10.8377029935968512 8.2293224456613423 15.0000005874554319 O
atom 6.2020680091719740 4.8625935745990594 15.8391612748836330 Sn
atom 6.0521283808547128 8.7897108421942782 17.7278458145899336 O
atom 7.4403804640079860 6.3584401835366187 16.6783352759824162 O
atom 8.9890796080186686 8.2292820371947499 17.7278471551479306 O
atom 0.3281352336615599 0.0000192245990400 15.8391618848232945 Sn
atom 0.1781956556788808 3.9271394721942148 17.7278441755372320 O
atom 1.5664489785312177 1.4958631835365805 16.6783369413429021 O
atom 3.1151484089987576 3.3667009271947155 17.7278494495095913 O
atom 3.2651059195710461 2.4312873895985829 15.8391421266505930 Sn
atom 10.2273891297007378 9.7251328961323598 18.5670191564448608 Sn
atom 4.5033938968392615 0.9354383185372237 16.6783374130881192 O
atom 2.0267844413201130 3.9271377606619007 15.0000030313542894 O
atom 4.9637719092356960 3.3667416656612934 15.0000023917626280 O
atom 0.3281369824202740 4.8626006445990182 15.8391633479590439 Sn
atom 0.1781989221075605 8.7897215321942124 17.7278492280988154 O
atom 1.5664519107229478 6.3584437835365168 16.6783381555082677 O
atom 3.1151518070997550 8.2292809771946533 17.7278514022063121 O
atom 3.2651094683731308 7.2938664995984821 15.8391421278891187 Sn
atom 10.2273931374467537 4.8625571161322902 18.5670219084193491 Sn
atom 4.5034033003790697 5.7980239085370062 16.6783403792967562 O
atom 2.0267906943507281 8.7897189806617320 15.0000037659060759 O
atom 4.9637822929083093 8.2293165456610993 15.0000085106431911 O
atom 5.4418438093429016 2.4312879526645412 21.2948699461536322 Sn
atom 0.6562579983201977 9.7251324891983604 24.0227467868627116 Sn
atom 6.6801264180402855 0.9354314316031671 22.1340555786568842 O
atom 4.2035253775670620 3.9271404837277171 20.4557277814127403 O
atom 5.5917499521939131 1.4958384550701549 19.4061773886777118 O
atom 7.1405036325093834 3.3667512787273872 20.4557277598175631 O
atom 7.2904200411586126 2.4312896311328243 18.5670420504861085 Sn
atom 2.5048679216584784 0.0000247276651260 21.2948884140022656 Sn
atom 8.5287333411998709 0.9354335700697402 19.4061810033426916 O
atom 2.3549301327799714 3.9271424552603844 23.1835783678165228 O
atom 3.7431806901035589 1.4958698866026696 22.1340620236303565 O
atom 5.2918733481767610 3.3667164402609222 23.1835700510412224 O
atom 5.4418414179037544 7.2938627226645902 21.2948687485446229 Sn
atom 0.6562527463166546 4.8625543791984649 24.0227442542994751 Sn
atom 6.6801212074526042 5.7980041616033207 22.1340556355206672 O
atom 4.2035169190452280 8.7897092137279209 20.4557252869192254 O
atom 5.5917474332238628 6.3584116850701946 19.4061754523293502 O
atom 7.1405005112863060 8.2293226287274468 20.4557258743746502 O
atom 7.2904185748878794 7.2938643711328446 18.5670406463258857 Sn
atom 2.5048655268614248 4.8625937576651648 21.2948865618028620 Sn
atom 8.5287320685839685 5.7980060400696960 19.4061763722028395 O
atom 2.3549258985441672 8.7897110252603809 23.1835711015091590 O
atom 3.7431779816974471 6.3584403666027232 22.1340605629016380 O
atom 5.2918771257081341 8.2292822202608562 23.1835724420671561 O
atom 1.4164813904379496 2.4312888411328863 18.5670374590886347 Sn
atom 8.3788002456940305 0.0000194076651453 21.2948871717425199 Sn
atom 2.6548064746179714 0.9354396400694683 19.4061768840448323 O
atom 8.2288606677113538 3.9271396552603197 23.1835694624564574 O
atom 9.6171139905636895 1.4958633666026857 22.1340622282621169 O
atom 11.1658134210312401 3.3667011102608213 23.1835747364288167 O
atom 11.3157709316035167 2.4312875726646888 21.2948674135698184 Sn
atom 6.5301866473901882 9.7251330791984625 24.0227444433640898 Sn
atom 0.8061914145287148 0.9354385016033290 22.1340627000073411 O
atom 10.0774494533525854 3.9271379437280065 20.4557283182735148 O
atom 11.4656828160959670 1.4958352450701733 19.4061770075475621 O
atom 1.2665694269251500 3.3667418487273983 20.4557276786818534 O
atom 1.4164829566720307 7.2938682011328790 18.5670395837263271 Sn
atom 8.3788019944527399 4.8626008276651236 21.2948886348782693 Sn
atom 2.6548124881879192 5.7980261300694318 19.4061846921853274 O
atom 8.2288639341400316 8.7897217152603151 23.1835745150180408 O
atom 9.6171169227554216 6.3584439666026222 22.1340634424274896 O
atom 11.1658168191322282 8.2292811602607578 23.1835766891255375 O
atom 11.3157744804056009 7.2938666826645875 21.2948674148083370 Sn
atom 6.5301906551362121 4.8625572991983956 24.0227471953385745 Sn
atom 0.8062008180685238 5.7980240916031116 22.1340656662159816 O
atom 10.0774557063831995 8.7897191637278382 20.4557290528253013 O
atom 11.4656866534886781 6.3584135650701041 19.4061791854614114 O
atom 1.2665798105977664 8.2293167287272038 20.4557337975624165 O
atom 1.8945474698833642 1.4958386381362601 24.8619026755969372 O
atom 3.5932175588480697 2.4312898141989292 24.0227673374053268 Sn
atom 4.8315308588893222 0.9354337531358455 24.8619062902619135 O
atom 1.8945449509133165 6.3584118681363000 24.8619007392485685 O
atom 3.5932160925773364 7.2938645541989500 24.0227659332451040 Sn
atom 4.8315295862734216 5.7980062231358023 24.8619016591220685 O
atom 9.4671464024704264 2.4312890241989908 24.0227627460078565 Sn
atom 10.7054714866504366 0.9354398231355738 24.8619021709640577 O
atom 7.7684803337854191 1.4958354281362785 24.8619022944667805 O
atom 9.4671479687045021 7.2938683841989853 24.0227648706455525 Sn
atom 10.7054775002203897 5.7980263131355381 24.8619099791045528 O
atom 7.7684841711781312 6.3584137481362095 24.8619044723806368 O
