#===============================================================================
# Created using the Atomic Simulation Environment (ASE)

# Mon Mar 23 14:01:28 2026

#=======================================================
lattice_vector 11.7478674943430175 0.0000000000000000 0.0000000000000000 
lattice_vector 3.6972030342828979 11.1509430042465603 0.0000000000000000 
lattice_vector 0.0000000000000000 0.0000000000000000 34.7581753721058533 
atom 9.1390468436257990 6.5981786326032328 15.0000040505728727 Sn
atom 4.3534604806307451 3.1430996002594558 16.1895419121277691 Sn
atom 10.3773294523231812 4.8830053885864961 15.0000243195811613 O
atom 7.9007284118499621 8.3133271296984557 15.0000197392664774 O
atom 7.4403837243864590 5.3717814756981088 15.2742308084752594 O
atom 9.2889504675067567 10.9472346309407094 15.2741930801686117 O
atom 7.2904185748878776 1.0226909562731750 15.0000332090780013 Sn
atom 12.2259351028668721 10.4584835553157998 15.0000090670957071 O
atom 6.0521283808547075 2.7378599361397149 15.0000000000000000 O
atom 13.3143170248465896 5.3717756892449859 15.2742277969583320 O
atom 3.2651064715433957 6.5981795402865595 15.0000016558930014 Sn
atom 10.2273891297007342 3.1431012614037890 16.1895401569396213 Sn
atom 4.5033944488116111 4.8830080703953893 15.0000339894537404 O
atom 13.7746524876354819 8.3133246518049280 15.0000189647590965 O
atom 1.4164829566720283 1.0226948164476679 15.0000341562163122 Sn
atom 6.3520155224708201 10.4584970059067146 15.0000261525223024 O
atom 11.9260664164505759 2.7378675891886983 15.0000082072518417 O
atom 15.1628896877715764 10.9472344440814364 15.2741972557833243 O
atom 5.4418443613152494 3.9289033421951691 19.7581452664624102 Sn
atom 6.6801269700126378 2.2137300981784360 19.7581655354707060 O
atom 4.2035259295394178 5.6440518392903929 19.7581609551560184 O
atom 5.5917505041662690 4.0371272573011208 17.6532669033702270 O
atom 7.1405041844817339 5.1553155622258657 19.4839841644497191 O
atom 7.2904205931309702 5.2635255303320294 17.3791058293539251 Sn
atom 2.5048684736308213 1.8084991379555635 18.5686382760589801 Sn
atom 8.5287338931722143 3.5483755260432850 17.3790856123639585 O
atom 6.0521331670628626 6.9786970231633338 17.3790807516151382 O
atom 8.9890763824596576 6.4899327012391366 17.1048787166640288 O
atom 9.1390444521866492 10.8390116974894894 17.3790728410053568 Sn
atom 4.3534557805995595 7.3839331613025498 18.5686094502299532 Sn
atom 10.3773242417355025 9.1238360605478714 17.3790932059929908 O
atom 4.2035169190452235 1.4032125571448872 17.3790844434993055 O
atom 7.1405005112863034 0.9144782670948531 17.1049094658333409 O
atom 7.2904191268602316 9.5043586701116727 19.7581744249675388 Sn
atom 6.2020685611443200 8.7186028074479651 16.1895624713491912 Sn
atom 8.5287326205563172 7.7892082649077388 19.7581502829852518 O
atom 2.3549258985441628 0.0685846457316507 19.7581412158895411 O
atom 7.4403810159803454 9.6126109278499658 17.6532972705001221 O
atom 8.9890801599910244 10.7307561698312917 19.4839462384191613 O
atom 13.1643494367533211 5.2635270877369429 17.3791014385088260 Sn
atom 8.3788007976663810 1.8084951059751884 18.5686345897677150 Sn
atom 2.6548070265903263 3.5483828353292011 17.3790849895871240 O
atom 11.9260637019942433 6.9786989382274180 17.3790716149873141 O
atom 3.1151489609711094 6.4899170389963512 17.1048753025886278 O
atom 11.3157714835758672 3.9289042498784936 19.7581428717825496 Sn
atom 0.8061919665010668 2.2137327799873252 19.7581752053432815 O
atom 10.0774500053249323 5.6440493613968652 19.7581601806486340 O
atom 11.4656833680683174 4.0371246442128879 17.6532650004435396 O
atom 13.0144374732405232 5.1553073776683860 19.4839794799538346 O
atom 13.1643510029874040 9.5043625302861638 19.7581753721058568 Sn
atom 12.0760050287356382 8.7186079591824779 16.1895677384330661 Sn
atom 2.6548130401602759 7.7892217154986518 19.7581673684118435 O
atom 8.2288639341400369 0.0685922987806362 19.7581494231413792 O
atom 13.3143199570383164 9.6126126587032275 17.6533015431825824 O
atom 14.8630198534151159 10.7307531674442806 19.4839494238198192 O
atom 15.0129775146884992 10.8390158036985103 17.3790736152791787 Sn
atom 10.2273936894191060 7.3839342690064713 18.5686134438627128 Sn
atom 4.5034038523514113 9.1238485346112306 17.3791117051141413 O
atom 10.0774557063832013 1.4032193923979861 17.3790925960364540 O
atom 1.2665798105977666 0.9144692449755618 17.1049134892983368 O
