#===============================================================================
# Created using the Atomic Simulation Environment (ASE)

# Mon Mar 23 14:01:29 2026

#=======================================================
lattice_vector 13.7534260507129780 0.0000000000000000 0.0000000000000000 
lattice_vector -0.0000000000000336 6.5904661899999999 0.0000000000000000 
lattice_vector 0.0000000000000000 0.0000000000000000 46.3992727456257654 
atom 6.8767093767047278 6.5904657395126858 16.3229090374244734 Sn
atom 10.3150557406138752 4.9428705995127560 16.3229250516131508 Sn
atom 12.4305141548198161 4.9428399895127448 16.3229225446531316 O
atom 8.1995969163067670 4.9428401795126913 16.3229100788933117 O
atom 10.3150597590468198 0.0000002738351634 15.0000000000000000 O
atom 12.4305118001537416 1.6476260495127457 16.3229229759853887 O
atom 8.1995950071178534 1.6476267495126928 16.3229106021499781 O
atom 10.3150670634031343 3.2952326038353688 15.0000477367874794 O
atom 3.4383373942808779 4.9428293595127473 16.3229233510151985 Sn
atom 1.3228785699668120 4.9428619295127083 16.3229142331392367 O
atom 3.4383566437331146 6.5904657438353755 15.0000494232402524 O
atom 3.4383390206268447 1.6476363895127462 16.3229230540321062 Sn
atom 1.3228809529165715 1.6476040495127087 16.3229143250660549 O
atom 3.4383485332750849 3.2952331538351705 15.0000016723096792 O
atom 13.7534212671542466 3.2952318495126884 16.3229095430044779 Sn
atom 6.8766919765515730 4.9428711242691472 19.7612849442531875 Sn
atom 13.7534060608229627 6.5904657790254433 23.1996225153098869 Sn
atom 8.9921501008406501 4.9428431342691477 19.7612850323747047 O
atom 4.7612329471735961 4.9428430342691181 19.7612783083220549 O
atom 6.8766952737338745 0.0000002585915622 18.4383613492791554 O
atom 6.8766692551457016 6.5904660099467334 21.0842088008338386 O
atom 6.8766898693729104 1.6475952342691487 19.7612853402306676 Sn
atom 6.8766846349922019 3.2952342895128539 16.3229479777655087 Sn
atom 8.9921471168498481 1.6476231042691480 19.7612852020767278 O
atom 4.7612303450205902 1.6476232842691185 19.7612783648874455 O
atom 6.8767005557625742 3.2952330885917753 18.4384109528261355 O
atom 6.8766688804382641 3.2952334699465182 21.0841590275870665 O
atom 3.4383263740191339 4.9428706390255126 23.1996385294985643 Sn
atom 3.4383420205498516 6.5904650642690425 19.7612606144845060 Sn
atom 5.5537847882250784 4.9428400290255015 23.1996360225385452 O
atom 1.3228675497120248 4.9428402190254488 23.1996235567787252 O
atom 3.4383303924520798 0.0000003133479207 21.8767134778854135 O
atom 10.3150347374811862 6.5904656451903287 17.6458457898549348 O
atom 10.3150541142673049 1.6475953995127586 16.3229258859973996 Sn
atom 3.4383228296283139 3.2952343442691991 19.7612972425929598 Sn
atom 5.5537824335589967 1.6476260890255030 23.1996364538708022 O
atom 1.3228656405231143 1.6476267890254501 23.1996240800353917 O
atom 3.4383376968083903 3.2952326433481263 21.8767612146728929 O
atom 10.3150440359923792 3.2952334351901209 17.6457978126708781 O
atom 10.3150340783991155 4.9428293990255048 23.1996368289006085 Sn
atom 10.3150354130402473 0.0000014442692098 19.7612996290778220 Sn
atom 5.5537968762010657 4.9428634495127977 16.3229351488263532 O
atom 8.1995752540850475 4.9428619690254658 23.1996277110246467 O
atom 10.3150533278513521 6.5904657833481330 21.8767629011256659 O
atom 3.4383369397272179 0.0000000251901187 17.6457970101117247 O
atom 10.3150357047450818 1.6476364290255034 23.1996365319175197 Sn
atom 10.3150533877389812 3.2952317442690502 19.7612622797190056 Sn
atom 5.5537988490287207 1.6476034195127987 16.3229353821740482 O
atom 8.1995776370348050 1.6476040890254660 23.1996278029514684 O
atom 10.3150452173933207 3.2952331933479280 21.8767151501950892 O
atom 3.4383272805914458 3.2952327051903243 17.6458450933613697 O
atom 13.7533982313619738 4.9428283442691434 19.7612838164100140 Sn
atom 13.7533979537980962 0.0000010395128530 16.3229479176617858 Sn
atom 2.1154314787096551 4.9428602242692357 19.7613055137158966 O
atom 11.6379396545304505 4.9428594442691205 19.7612787643983481 O
atom 13.7534170424064754 0.0000000585917759 18.4384112038531569 O
atom 13.7533982929944969 0.0000001799465184 21.0841589675024608 O
atom 13.7534003526825188 1.6476382442691406 19.7612836608488571 Sn
atom 6.8766919005595044 3.2952318890254459 23.1996230208898915 Sn
atom 2.1154341515737074 1.6476061042692340 19.7613051743079069 O
atom 11.6379426668059125 1.6476068142691185 19.7612782977115309 O
atom 13.7534114563204533 3.2952333685915693 18.4383627528898693 O
atom 13.7533980313053625 3.2952333299467345 21.0842091367282691 O
atom 13.7533886606698097 4.9428711637819047 26.6379984221386010 Sn
atom 6.8766766942282214 6.5904658185382008 30.0763359931953005 Sn
atom 2.1154207342459030 4.9428431737819043 26.6379985102601147 O
atom 11.6379296312918310 4.9428430737818756 26.6379917862074613 O
atom 13.7533919578521093 0.0000002981043195 25.3150748271645689 O
atom 13.7533659392639365 6.5904660494594900 27.9609222787192486 O
atom 13.7533865534911470 1.6475952737819062 26.6379988181160776 Sn
atom 13.7533813191104404 3.2952343290256101 23.1996614556509257 Sn
atom 2.1154177502551077 1.6476231437819058 26.6379986799621413 O
atom 11.6379270291388242 1.6476233237818763 26.6379918427728519 O
atom 13.7533972398808064 3.2952331281045324 25.3151244307115455 O
atom 13.7533655645565034 3.2952335094592753 27.9608725054724765 O
atom 10.3150230581373687 4.9428706785382701 30.0763520073839743 Sn
atom 10.3150387046680923 6.5904651037817992 26.6379740923699160 Sn
atom 12.4304814723433097 4.9428400685382590 30.0763495004239587 O
atom 8.1995642338302659 4.9428402585382063 30.0763370346641352 O
atom 10.3150270765703151 0.0000003528606780 28.7534269557708200 O
atom 3.4383053708864413 6.5904656847030862 24.5225592677403483 O
atom 3.4383247476725622 1.6475954390255159 23.1996393638828167 Sn
atom 10.3150195137465488 3.2952343837819567 26.6380107204783698 Sn
atom 12.4304791176772369 1.6476261285382603 30.0763499317562122 O
atom 8.1995623246413487 1.6476268285382076 30.0763375579208088 O
atom 10.3150343809266314 3.2952326828608833 28.7534746925582994 O
atom 3.4383146693976383 3.2952334747028793 24.5225112905562916 O
atom 3.4383047118043693 4.9428294385382623 30.0763503067860256 Sn
atom 3.4383060464455011 0.0000014837819671 26.6380131069632249 Sn
atom 12.4304935603193041 4.9428634890255552 23.1996486267117632 O
atom 1.3228458874903064 4.9428620085382233 30.0763411889100638 O
atom 3.4383239612566059 6.5904658228608906 28.7534763790110759 O
atom 10.3150336238454550 0.0000000647028759 24.5225104879971383 O
atom 3.4383063381503391 1.6476364685382612 30.0763500098029297 Sn
atom 3.4383240211442412 3.2952317837818077 26.6379757576044192 Sn
atom 12.4304955331469547 1.6476034590255562 23.1996488600594617 O
atom 1.3228482704400659 1.6476041285382235 30.0763412808368784 O
atom 3.4383158507985794 3.2952332328606850 28.7534286280804992 O
atom 10.3150239647096882 3.2952327447030814 24.5225585712467833 O
atom 6.8766688647672343 4.9428283837819009 26.6379972942954275 Sn
atom 6.8766685872033522 0.0000010790256103 23.1996613955471958 Sn
atom 8.9921281628278908 4.9428602637819923 26.6380189916013066 O
atom 4.7612102879357074 4.9428594837818780 26.6379922422837581 O
atom 6.8766876758117341 0.0000000981045332 25.3151246817385669 O
atom 6.8766689263997547 0.0000002194592757 27.9608724453878708 O
atom 6.8766709860877739 1.6476382837818984 26.6379971387342671 Sn
atom 13.7533885846777455 3.2952319285382030 30.0763364987753050 Sn
atom 8.9921308356919454 1.6476061437819916 26.6380186521933204 O
atom 4.7612133002111703 1.6476068537818760 26.6379917755969409 O
atom 6.8766820897257128 3.2952334081043255 25.3150762307752792 O
atom 6.8766686647106194 3.2952333694594920 27.9609226146136791 O
atom 6.8766519525156911 3.2952343685383685 30.0763749335363286 Sn
atom 10.3150020550046815 6.5904657242158429 31.3992727456257654 O
atom 10.3150214317908002 1.6475954785382732 30.0763528417682267 Sn
atom 10.3150113535158745 3.2952335142156355 31.3992247684416981 O
atom 5.5537641937245663 4.9428635285383127 30.0763621045971732 O
atom 3.4383042572507123 0.0000001042156332 31.3992239658825412 O
atom 5.5537661665522151 1.6476034985383134 30.0763623379448717 O
atom 3.4382945981149371 3.2952327842158389 31.3992720491321933 O
atom 13.7533652713215897 0.0000011185383676 30.0763748734326128 Sn
