#===============================================================================
# Created using the Atomic Simulation Environment (ASE)

# Mon Mar 23 14:01:28 2026

#=======================================================
lattice_vector 9.7251295900000052 0.0000000000000000 0.0000000000000000 
lattice_vector 0.0000006400007604 9.7251526999999847 0.0000000000000000 
lattice_vector 0.0000000000000000 0.0000000000000000 34.9428722499999651 
atom 2.4312866879757875 2.4312874079755344 15.0000000000000000 Sn
atom 3.9271397087554294 0.9354308587552904 15.0000279900000066 O
atom 0.9354283971959582 3.9271399671958949 15.0000280899999900 O
atom 1.4958396121127657 1.4958379536733386 19.9428708580762368 O
atom 2.4312854645874329 2.4312891645871701 18.2952758900000028 Sn
atom 0.0000071362822121 0.0000241762812381 16.6476368150000305 Sn
atom 3.9271377053671461 0.9354330753670086 18.2952480200000061 O
atom 0.9354265838076640 3.9271418338076076 18.2952478399999947 O
atom 1.4958784355021666 1.4958693070604219 16.6476380280762974 O
atom 3.3666847270613363 3.3667158255025789 16.6476376619237030 O
atom 2.4312841279761157 7.2938621779756234 15.0000005049999956 Sn
atom 3.9271355187556871 5.7980035887554289 15.0000311149999916 O
atom 0.9354200871960846 8.7897086971961684 15.0000309249999724 O
atom 1.4958365321130436 6.3584111836734420 19.9428708230762233 O
atom 2.4312835545877598 7.2938639045872371 18.2952757050000017 Sn
atom 0.0000042062823515 4.8625932062813391 16.6476367800000240 Sn
atom 3.9271341453674018 5.7980055453671326 18.2952450549999988 O
atom 0.9354190938077918 8.7897104038078613 18.2952443549999764 O
atom 1.4958754655023532 6.3584397870605232 16.6476384930762897 O
atom 3.3666892870613685 8.2292816055024343 16.6476376769236971 O
atom 7.2938436379757814 2.4312883879757510 15.0000417449999937 Sn
atom 4.8625700428936707 0.0000188428929393 19.9428696800000189 Sn
atom 8.7897058987557273 0.9354391587552653 15.0000076550000117 O
atom 5.7979837371959491 3.9271390471962264 15.0000091749999811 O
atom 7.2938445645874062 2.4312870145873999 18.2952347149999959 Sn
atom 4.8625569962815094 9.7251324362817329 16.6476393799999691 Sn
atom 8.7897074453672897 0.9354379153668257 18.2952676850000167 O
atom 5.7979854738075014 3.9271374138077824 18.2952670549999823 O
atom 6.3584034755010324 1.4958347570617299 16.6476379430762265 O
atom 8.2292845570621758 3.3667413255014251 16.6476384069237646 O
atom 7.2938462179762578 7.2938677479756668 15.0000427799999976 Sn
atom 4.8625724028942168 4.8626002628928662 19.9428700650000259 Sn
atom 8.7897153487564363 5.7980256487549537 15.0000109000000315 O
atom 5.7979893671965153 8.7897211071960442 15.0000116799999930 O
atom 6.3584461621141051 6.3584433736719674 19.9428710580762960 O
atom 8.2292613736729656 8.2292805321138296 19.9428709519237053 O
atom 7.2938475945878816 7.2938661245873062 18.2952328800000004 Sn
atom 4.8625617662811482 4.8625566562815763 16.6476392549999730 Sn
atom 8.7897169853679742 5.7980235053665190 18.2952650200000342 O
atom 5.7979911538080442 8.7897186338076008 18.2952643099999932 O
atom 6.3584079655014767 6.3584130770615870 16.6476377480762281 O
atom 8.2292966770625089 8.2293162055010303 16.6476378019237750 O
atom 9.7251273128931270 9.7251318328931919 19.9428715549999716 Sn
atom 3.3667201736741146 3.3667507421130520 19.9428713119237706 O
atom 9.7251214528926848 4.8625537228933799 19.9428722499999687 Sn
atom 3.3667166236743307 8.2293220921131720 19.9428716569237672 O
atom 6.3584429621135854 1.4958627736720691 19.9428715430762971 O
atom 8.2292573736724624 3.3667004821139588 19.9428710869236916 O
