#===============================================================================
# Created using the Atomic Simulation Environment (ASE)

# Mon Mar 23 14:01:28 2026

#=======================================================
lattice_vector 9.7251295900000052 0.0000000000000000 0.0000000000000000 
lattice_vector 0.0000006400007604 9.7251526999999847 0.0000000000000000 
lattice_vector 0.0000000000000000 0.0000000000000000 41.5333384399999659 
atom 2.4312867147525270 2.4312874347522557 15.0000000000000000 Sn
atom 3.9271397355321684 0.9354308855320118 15.0000279899999995 O
atom 0.9354284239726974 3.9271399939726157 15.0000280899999936 O
atom 1.4958396388895054 1.4958379804500601 19.9428708580762262 O
atom 2.4312854913641724 2.4312891913638914 18.2952758900000028 Sn
atom 0.0000071630589514 0.0000242030579596 16.6476368150000269 Sn
atom 3.9271377321438856 0.9354331021437300 18.2952480199999989 O
atom 0.9354266105844032 3.9271418605843285 18.2952478399999912 O
atom 1.4958784622789063 1.4958693338371436 16.6476380280762974 O
atom 3.3666847538380749 3.3667158522793006 16.6476376619237030 O
atom 2.4312841547528552 7.2938622047523447 15.0000005049999956 Sn
atom 3.9271355455324266 5.7980036155321493 15.0000311149999916 O
atom 0.9354201139728240 8.7897087239728915 15.0000309249999759 O
atom 1.4958365588897831 6.3584112104501642 19.9428708230762197 O
atom 2.4312835813644997 7.2938639313639575 18.2952757049999946 Sn
atom 0.0000042330590908 4.8625932330580603 16.6476367800000169 Sn
atom 3.9271341721441413 5.7980055721438539 18.2952450549999917 O
atom 0.9354191205845310 8.7897104305845843 18.2952443549999764 O
atom 1.4958754922790927 6.3584398138372444 16.6476384930762862 O
atom 3.3666893138381075 8.2292816322791573 16.6476376769236971 O
atom 7.2938436647525204 2.4312884147524714 15.0000417449999937 Sn
atom 4.8625700696704097 0.0000188696696608 19.9428696800000225 Sn
atom 8.7897059255324645 0.9354391855319868 15.0000076550000117 O
atom 5.7979837639726890 3.9271390739729481 15.0000091749999811 O
atom 7.2938445913641461 2.4312870413641212 18.2952347149999923 Sn
atom 4.8625570230582493 9.7251324630584559 16.6476393799999656 Sn
atom 8.7897074721440269 0.9354379421435470 18.2952676850000131 O
atom 5.7979855005842404 3.9271374405845032 18.2952670549999823 O
atom 6.3584035022777714 1.4958347838384516 16.6476379430762229 O
atom 8.2292845838389148 3.3667413522781473 16.6476384069237611 O
atom 7.2938462447529968 7.2938677747523881 15.0000427800000011 Sn
atom 4.8625724296709567 4.8626002896695875 19.9428700650000295 Sn
atom 8.7897153755331736 5.7980256755316750 15.0000109000000315 O
atom 5.7979893939732552 8.7897211339727637 15.0000116799999894 O
atom 6.3584461888908450 6.3584434004486887 19.9428710580763031 O
atom 8.2292614004497064 8.2292805588905527 19.9428709519236982 O
atom 7.2938476213646206 7.2938661513640275 18.2952328800000004 Sn
atom 4.8625617930578882 4.8625566830582958 16.6476392549999765 Sn
atom 8.7897170121447150 5.7980235321432394 18.2952650200000306 O
atom 5.7979911805847832 8.7897186605843221 18.2952643099999896 O
atom 6.3584079922782166 6.3584131038383092 16.6476377480762281 O
atom 8.2292967038392479 8.2293162322777516 16.6476378019237750 O
atom 2.4312866879757875 2.4312874079755344 21.5904661899999972 Sn
atom 9.7251273396698661 9.7251318596699132 19.9428715549999751 Sn
atom 3.9271397087554294 0.9354308587552904 21.5904941800000039 O
atom 0.9354283971959582 3.9271399671958949 21.5904942799999873 O
atom 1.4958396121127657 1.4958379536733386 26.5333370480762341 O
atom 3.3667202004508536 3.3667507688897729 19.9428713119237742 O
atom 2.4312854645874329 2.4312891645871701 24.8857420800000000 Sn
atom 0.0000071362822121 0.0000241762812381 23.2381030050000277 Sn
atom 3.9271377053671461 0.9354330753670086 24.8857142100000033 O
atom 0.9354265838076640 3.9271418338076076 24.8857140299999919 O
atom 1.4958784355021666 1.4958693070604219 23.2381042180762947 O
atom 3.3666847270613363 3.3667158255025789 23.2381038519237002 O
atom 2.4312841279761157 7.2938621779756234 21.5904666949999928 Sn
atom 9.7251214796694239 4.8625537496701021 19.9428722499999651 Sn
atom 3.9271355187556871 5.7980035887554289 21.5904973049999889 O
atom 0.9354200871960846 8.7897086971961684 21.5904971149999696 O
atom 1.4958365321130436 6.3584111836734420 26.5333370130762205 O
atom 3.3667166504510702 8.2293221188898915 19.9428716569237601 O
atom 2.4312835545877598 7.2938639045872371 24.8857418949999989 Sn
atom 0.0000042062823515 4.8625932062813391 23.2381029700000212 Sn
atom 3.9271341453674018 5.7980055453671326 24.8857112449999960 O
atom 0.9354190938077918 8.7897104038078613 24.8857105449999736 O
atom 1.4958754655023532 6.3584397870605232 23.2381046830762870 O
atom 3.3666892870613685 8.2292816055024343 23.2381038669236943 O
atom 7.2938436379757814 2.4312883879757510 21.5905079349999909 Sn
atom 4.8625700428936707 0.0000188428929393 26.5333358700000161 Sn
atom 8.7897058987557273 0.9354391587552653 21.5904738450000089 O
atom 5.7979837371959491 3.9271390471962264 21.5904753649999783 O
atom 6.3584429888903253 1.4958628004487904 19.9428715430762900 O
atom 8.2292574004492032 3.3667005088906805 19.9428710869236916 O
atom 7.2938445645874062 2.4312870145873999 24.8857009049999931 Sn
atom 4.8625569962815094 9.7251324362817329 23.2381055699999663 Sn
atom 8.7897074453672897 0.9354379153668257 24.8857338750000139 O
atom 5.7979854738075014 3.9271374138077824 24.8857332449999795 O
atom 6.3584034755010324 1.4958347570617299 23.2381041330762237 O
atom 8.2292845570621758 3.3667413255014251 23.2381045969237618 O
atom 7.2938462179762578 7.2938677479756668 21.5905089699999948 Sn
atom 4.8625724028942168 4.8626002628928662 26.5333362550000231 Sn
atom 8.7897153487564363 5.7980256487549537 21.5904770900000287 O
atom 5.7979893671965153 8.7897211071960442 21.5904778699999902 O
atom 6.3584461621141051 6.3584433736719674 26.5333372480762932 O
atom 8.2292613736729656 8.2292805321138296 26.5333371419237025 O
atom 7.2938475945878816 7.2938661245873062 24.8856990699999976 Sn
atom 4.8625617662811482 4.8625566562815763 23.2381054449999702 Sn
atom 8.7897169853679742 5.7980235053665190 24.8857312100000314 O
atom 5.7979911538080442 8.7897186338076008 24.8857304999999904 O
atom 6.3584079655014767 6.3584130770615870 23.2381039380762253 O
atom 8.2292966770625089 8.2293162055010303 23.2381039919237722 O
atom 9.7251273128931270 9.7251318328931919 26.5333377449999688 Sn
atom 3.3667201736741146 3.3667507421130520 26.5333375019237678 O
atom 9.7251214528926848 4.8625537228933799 26.5333384399999659 Sn
atom 3.3667166236743307 8.2293220921131720 26.5333378469237644 O
atom 6.3584429621135854 1.4958627736720691 26.5333377330762943 O
atom 8.2292573736724624 3.3667004821139588 26.5333372769236888 O
