#===============================================================================
# Created using the Atomic Simulation Environment (ASE)

# Mon Mar 23 14:01:28 2026

#=======================================================
lattice_vector 9.7251527000000060 0.0000000000000000 0.0000000000000000 
lattice_vector -0.0000000267767232 6.5904661899999999 0.0000000000000000 
lattice_vector 0.0000000000000000 0.0000000000000000 58.6149759749993393 
atom 9.7251325799991513 0.0000004504872675 18.3667233092201840 Sn
atom 4.8625544699989662 0.0000011454872825 18.3667177692202408 Sn
atom 2.4312889483051099 1.6476368403654718 15.9354400942195511 Sn
atom 0.9354398175255491 1.6476027442878740 17.4313024534394181 O
atom 1.4958632992205454 0.0000004522422570 15.0000394999990814 O
atom 3.3667011040017845 6.5904661784886320 16.8708537884403427 O
atom 2.4312875749168201 4.9428298103654678 15.9354410342194726 Sn
atom 0.9354385741372109 4.9428627742878692 17.4313040134395401 O
atom 1.4958352558308843 3.2952330422423479 15.0000000000000000 O
atom 3.3667419473910400 3.2952334984885914 16.8708809584390025 O
atom 7.2938683083051830 1.6476378753654677 15.9354423542194539 Sn
atom 5.7980263075258440 1.6476059892878570 17.4313115834390970 O
atom 6.3584438724439174 6.5904661572422540 15.0000423799989377 O
atom 8.2292811540019049 6.5904660434886253 16.8708574684402208 O
atom 7.2938666849169129 4.9428279753654625 15.9354437442193770 Sn
atom 5.7980241641375185 4.9428601092878495 17.4313132334392300 O
atom 6.3584135758310243 3.2952328472423376 15.0000041699999329 O
atom 8.2293168273914290 3.2952328934885551 16.8708927584390480 O
atom 2.4312882883050300 1.6475950756090869 20.7980127342194479 Sn
atom 9.7251332199983906 0.0000004109745479 28.0918528992201644 Sn
atom 0.9354318375251020 1.6476230595315107 22.2938658534397476 O
atom 3.9271407490847272 1.6476231716866758 19.3021543449994546 O
atom 1.4958387724421738 6.5904659374859893 19.8625657399998872 O
atom 3.3667517107790346 0.0000001937322406 21.7334461784386832 O
atom 2.4312900449165844 4.9428709656090923 20.7980115242195218 Sn
atom 0.0000248966111171 3.2952319004872832 18.3667333492186948 Sn
atom 0.9354340541366882 4.9428430895315181 22.2938638634396327 O
atom 3.9271426156963209 4.9428429216866832 19.3021525449993518 O
atom 1.4958701258318121 3.2952331074859025 19.8626045499988564 O
atom 3.3667167673895069 3.2952327337323131 21.7334107184398349 O
atom 7.2938630583049351 1.6475955806090943 20.7980098542195080 Sn
atom 4.8625551099982056 0.0000011059745629 28.0918473592202247 Sn
atom 5.7980045675249512 1.6476261845315197 22.2938613434398754 O
atom 8.7897094790844434 1.6476260066866948 19.3021457149997104 O
atom 6.3584120024420621 6.5904659024859962 19.8625623399999895 O
atom 8.2293230607789116 0.0000005387322472 21.7334423084388533 O
atom 7.2938647849165124 4.9428707806090983 20.7980092942195753 Sn
atom 4.8625939266110123 3.2952318654872861 18.3667300992189340 Sn
atom 5.7980065241365635 4.9428401245315268 22.2938599834397522 O
atom 8.7897111856960706 4.9428394366866986 19.3021447349995974 O
atom 6.3584406058317047 3.2952335724859076 19.8626012599990496 O
atom 8.2292825473896460 3.2952327487322894 21.7334149584401786 O
atom 2.4312895883043493 1.6476368008527522 25.6605696842195350 Sn
atom 0.0000198832223138 6.5904647457309231 23.2292962692188567 Sn
atom 0.9354404575247887 1.6476027047751545 27.1564320434394020 O
atom 3.9271401490840558 1.6476042369303441 24.1647096849994227 O
atom 1.4958639392197850 0.0000004127295374 24.7251690899990635 O
atom 3.3667017440010234 6.5904661389759127 26.5959833784403301 O
atom 2.4312882149160595 4.9428297708527476 25.6605706242194600 Sn
atom 9.7251334766102246 3.2952344457309248 23.2292825692201532 Sn
atom 0.9354392141364506 4.9428627347751499 27.1564336034395275 O
atom 3.9271385156957259 4.9428621169303364 24.1647114349995462 O
atom 1.4958358958301239 3.2952330027296282 24.7251295899999874 O
atom 3.3667425873902790 3.2952334589758725 26.5960105484389864 O
atom 7.2938689483044223 1.6476378358527481 25.6605719442194413 Sn
atom 4.8626013032223820 6.5904651307309230 23.2292983092186951 Sn
atom 5.7980269475250834 1.6476059497751372 27.1564411734390809 O
atom 8.7897222090842302 1.6476067419303335 24.1647149949992368 O
atom 6.3584445124431577 6.5904661177295338 24.7251719699989181 O
atom 8.2292817940011442 6.5904660039759051 26.5959870584402047 O
atom 7.2938673249161532 4.9428279358527432 25.6605733342193680 Sn
atom 4.8625576966103905 3.2952343207309100 23.2292876592201338 Sn
atom 5.7980248041367588 4.9428600697751301 27.1564428234392174 O
atom 8.7897197356959058 4.9428593719303260 24.1647167949993786 O
atom 6.3584142158302628 3.2952328077296178 24.7251337599999168 O
atom 8.2293174673906684 3.2952328539758353 26.5960223484390319 O
atom 2.4312889283042693 1.6475950360963671 30.5231423242194353 Sn
atom 9.7251338599976282 0.0000003714618282 37.8169824892201447 Sn
atom 0.9354324775243416 1.6476230200187907 32.0189954434397279 O
atom 3.9271413890839666 1.6476231321739561 29.0272839349994385 O
atom 1.4958394124414134 6.5904658979732691 29.5876953299998675 O
atom 3.3667523507782748 0.0000001542195210 31.4585757684386707 O
atom 2.4312906849158247 4.9428709260963730 30.5231411142195022 Sn
atom 0.0000255366103566 3.2952318609745639 28.0918629392186787 Sn
atom 0.9354346941359277 4.9428430500187988 32.0189934534396201 O
atom 3.9271432556955608 4.9428428821739638 29.0272821349993357 O
atom 1.4958707658310517 3.2952330679731827 29.5877341399988403 O
atom 3.3667174073887471 3.2952326942195933 31.4585403084398116 O
atom 7.2938636983041754 1.6475955410963745 30.5231394442194883 Sn
atom 4.8625557499974450 0.0000010664618432 37.8169769492202050 Sn
atom 5.7980052075241897 1.6476261450188001 32.0189909334398592 O
atom 8.7897101190836811 1.6476259671739750 29.0272753049996979 O
atom 6.3584126424413023 6.5904658629732769 29.5876919299999699 O
atom 8.2293237007781510 0.0000004992195276 31.4585718984388301 O
atom 7.2938654249157526 4.9428707410963781 30.5231388842195592 Sn
atom 4.8625945666102508 3.2952318259745663 28.0918596892189214 Sn
atom 5.7980071641358020 4.9428400850188066 32.0189895734397325 O
atom 8.7897118256953082 4.9428393971739792 29.0272743249995813 O
atom 6.3584412458309449 3.2952335329731874 29.5877308499990335 O
atom 8.2292831873888854 3.2952327092195701 31.4585445484401625 O
atom 2.4312902283035891 1.6476367613400327 35.3856992742195189 Sn
atom 0.0000205232215534 6.5904647062182038 32.9544258592188442 Sn
atom 0.9354410975240280 1.6476026652624347 36.8815616334393894 O
atom 3.9271407890832961 1.6476041974176243 33.8898392749994031 O
atom 1.4958645792190244 0.0000003732168177 34.4502986799990509 O
atom 3.3667023840002632 6.5904660994631934 36.3211129684403176 O
atom 2.4312888549152993 4.9428297313400282 35.3857002142194474 Sn
atom 9.7251341166094658 3.2952344062182060 32.9544121592201407 Sn
atom 0.9354398541356902 4.9428626952624297 36.8815631934395043 O
atom 3.9271391556949662 4.9428620774176171 33.8898410249995337 O
atom 1.4958365358293637 3.2952329632169088 34.4502591799999749 O
atom 3.3667432273895193 3.2952334194631523 36.3211401384389703 O
atom 7.2938695883036626 1.6476377963400286 35.3857015342194288 Sn
atom 4.8626019432216223 6.5904650912182028 32.9544278992186719 Sn
atom 5.7980275875243237 1.6476059102624174 36.8815707634390577 O
atom 8.7897228490834696 1.6476067024176138 33.8898445849992243 O
atom 6.3584451524423971 6.5904660782168145 34.4503015599989055 O
atom 8.2292824340003836 6.5904659644631858 36.3211166484401886 O
atom 7.2938679649153926 4.9428278963400230 35.3857029242193519 Sn
atom 4.8625583366096308 3.2952342812181903 32.9544172492201213 Sn
atom 5.7980254441359973 4.9428600302624099 36.8815724134391942 O
atom 8.7897203756951434 4.9428593324176067 33.8898463849993590 O
atom 6.3584148558295022 3.2952327682168985 34.4502633499999007 O
atom 8.2293181073899078 3.2952328144631156 36.3211519384390158 O
atom 2.4312895683035092 1.6475949965836474 40.2482719142194156 Sn
atom 0.9354331175235812 1.6476229805060711 41.7441250334397154 O
atom 3.9271420290832064 1.6476230926612363 38.7524135249994188 O
atom 1.4958400524406530 6.5904658584605498 39.3128249199998550 O
atom 3.3667529907775147 0.0000001147068013 41.1837053584386439 O
atom 2.4312913249150636 4.9428708865836537 40.2482707042194932 Sn
atom 0.0000261766095962 3.2952318214618441 37.8169925292186662 Sn
atom 0.9354353341351674 4.9428430105060794 41.7441230434396005 O
atom 3.9271438956947997 4.9428428426612445 38.7524117249993196 O
atom 1.4958714058302913 3.2952330284604634 39.3128637299988242 O
atom 3.3667180473879861 3.2952326547068735 41.1836698984398026 O
atom 7.2938643383034156 1.6475955015836548 40.2482690342194687 Sn
atom 5.7980058475234300 1.6476261055060806 41.7441205234398467 O
atom 8.7897107590829222 1.6476259276612553 38.7524048949996853 O
atom 6.3584132824405426 6.5904658234605575 39.3128215199999573 O
atom 8.2293243407773904 0.0000004597068079 41.1837014884388140 O
atom 7.2938660649149929 4.9428707015836588 40.2482684742195431 Sn
atom 4.8625952066094911 3.2952317864618466 37.8169892792189017 Sn
atom 5.7980078041350431 4.9428400455060872 41.7441191634397200 O
atom 8.7897124656945493 4.9428393576612599 38.7524039149995687 O
atom 6.3584418858301852 3.2952334934604681 39.3128604399990138 O
atom 8.2292838273881248 3.2952326697068504 41.1836741384401535 O
atom 0.0000211632207930 6.5904646667054845 42.6795554492188245 Sn
atom 3.9271414290825351 1.6476041579049048 43.6149688649993834 O
atom 9.7251347566087052 3.2952343667054858 42.6795417492201210 Sn
atom 3.9271397956942051 4.9428620379048978 43.6149706149995211 O
atom 4.8626025832208626 6.5904650517054835 42.6795574892186664 Sn
atom 8.7897234890827090 1.6476066629048942 43.6149741749992046 O
atom 4.8625589766088710 3.2952342417054710 42.6795468392200945 Sn
atom 8.7897210156943846 4.9428592929048865 43.6149759749993393 O
