#===============================================================================
# Created using the Atomic Simulation Environment (ASE)

# Mon Mar 23 14:01:28 2026

#=======================================================
lattice_vector 11.7478674943430175 0.0000000000000000 0.0000000000000000 
lattice_vector 3.6972030342828979 11.1509430042465603 0.0000000000000000 
lattice_vector 0.0000000000000000 0.0000000000000000 34.4839822919372452 
atom 4.3534604806307451 3.1430996002594558 15.9153488319591574 Sn
atom 7.4403837243864590 5.3717814756981088 15.0000377283066477 O
atom 9.2889504675067567 10.9472346309407094 15.0000000000000000 O
atom 13.3143170248465896 5.3717756892449859 15.0000347167897203 O
atom 10.2273891297007342 3.1431012614037890 15.9153470767710097 Sn
atom 15.1628896877715764 10.9472344440814364 15.0000041756147127 O
atom 5.4418443613152494 3.9289033421951691 19.4839521862937985 Sn
atom 6.6801269700126378 2.2137300981784360 19.4839724553020943 O
atom 4.2035259295394178 5.6440518392903929 19.4839678749874068 O
atom 5.5917505041662690 4.0371272573011208 17.3790738232016153 O
atom 7.1405041844817339 5.1553155622258657 19.2097910842811075 O
atom 7.2904205931309702 5.2635255303320294 17.1049127491853135 Sn
atom 2.5048684736308213 1.8084991379555635 18.2944451958903684 Sn
atom 8.5287338931722143 3.5483755260432850 17.1048925321953469 O
atom 6.0521331670628626 6.9786970231633338 17.1048876714465266 O
atom 8.9890763824596576 6.4899327012391366 16.8306856364954172 O
atom 9.1390444521866492 10.8390116974894894 17.1048797608367451 Sn
atom 4.3534557805995595 7.3839331613025498 18.2944163700613416 Sn
atom 10.3773242417355025 9.1238360605478714 17.1049001258243791 O
atom 4.2035169190452235 1.4032125571448872 17.1048913633306938 O
atom 7.1405005112863034 0.9144782670948531 16.8307163856647293 O
atom 7.2904191268602316 9.5043586701116727 19.4839813447989272 Sn
atom 6.2020685611443200 8.7186028074479651 15.9153693911805796 Sn
atom 8.5287326205563172 7.7892082649077388 19.4839572028166401 O
atom 2.3549258985441628 0.0685846457316507 19.4839481357209294 O
atom 7.4403810159803454 9.6126109278499658 17.3791041903315104 O
atom 8.9890801599910244 10.7307561698312917 19.2097531582505496 O
atom 13.1643494367533211 5.2635270877369429 17.1049083583402144 Sn
atom 8.3788007976663810 1.8084951059751884 18.2944415095991033 Sn
atom 2.6548070265903263 3.5483828353292011 17.1048919094185123 O
atom 11.9260637019942433 6.9786989382274180 17.1048785348187025 O
atom 3.1151489609711094 6.4899170389963512 16.8306822224200161 O
atom 11.3157714835758672 3.9289042498784936 19.4839497916139379 Sn
atom 0.8061919665010668 2.2137327799873252 19.4839821251746699 O
atom 10.0774500053249323 5.6440493613968652 19.4839671004800223 O
atom 11.4656833680683174 4.0371246442128879 17.3790719202749280 O
atom 13.0144374732405232 5.1553073776683860 19.2097863997852230 O
atom 13.1643510029874040 9.5043625302861638 19.4839822919372452 Sn
atom 12.0760050287356382 8.7186079591824779 15.9153746582644544 Sn
atom 2.6548130401602759 7.7892217154986518 19.4839742882432319 O
atom 8.2288639341400369 0.0685922987806362 19.4839563429727676 O
atom 13.3143199570383164 9.6126126587032275 17.3791084630139707 O
atom 14.8630198534151159 10.7307531674442806 19.2097563436512075 O
atom 15.0129775146884992 10.8390158036985103 17.1048805351105671 Sn
atom 10.2273936894191060 7.3839342690064713 18.2944203636941012 Sn
atom 4.5034038523514113 9.1238485346112306 17.1049186249455296 O
atom 10.0774557063832013 1.4032193923979861 17.1048995158678423 O
atom 1.2665798105977666 0.9144692449755618 16.8307204091297251 O
