#===============================================================================
# Created using the Atomic Simulation Environment (ASE)

# Mon Mar 23 14:01:28 2026

#=======================================================
lattice_vector 9.7251527000000060 0.0000000000000000 0.0000000000000000 
lattice_vector -0.0000000267767232 6.5904661899999999 0.0000000000000000 
lattice_vector 0.0000000000000000 0.0000000000000000 34.3021544549993820 
atom 2.4312895683035092 1.6475949965836474 15.9354503942194583 Sn
atom 0.9354331175235812 1.6476229805060711 17.4313035134397580 O
atom 1.4958400524406530 6.5904658584605498 15.0000033999998976 O
atom 3.3667529907775147 0.0000001147068013 16.8708838384386866 O
atom 2.4312913249150636 4.9428708865836537 15.9354491842195358 Sn
atom 0.9354353341351674 4.9428430105060794 17.4313015234396431 O
atom 1.4958714058302913 3.2952330284604634 15.0000422099988668 O
atom 3.3667180473879861 3.2952326547068735 16.8708483784398453 O
atom 7.2938643383034156 1.6475955015836548 15.9354475142195113 Sn
atom 5.7980058475234300 1.6476261055060806 17.4312990034398894 O
atom 6.3584132824405426 6.5904658234605575 15.0000000000000000 O
atom 8.2293243407773904 0.0000004597068079 16.8708799684388566 O
atom 7.2938660649149929 4.9428707015836588 15.9354469542195858 Sn
atom 5.7980078041350431 4.9428400455060872 17.4312976434397626 O
atom 6.3584418858301852 3.2952334934604681 15.0000389199990565 O
atom 8.2292838273881248 3.2952326697068504 16.8708526184401961 O
atom 0.0000211632207930 6.5904646667054845 18.3667339292188672 Sn
atom 3.9271414290825351 1.6476041579049048 19.3021473449994261 O
atom 9.7251347566087052 3.2952343667054858 18.3667202292201637 Sn
atom 3.9271397956942051 4.9428620379048978 19.3021490949995638 O
atom 4.8626025832208626 6.5904650517054835 18.3667359692187091 Sn
atom 8.7897234890827090 1.6476066629048942 19.3021526549992473 O
atom 4.8625589766088710 3.2952342417054710 18.3667253192201372 Sn
atom 8.7897210156943846 4.9428592929048865 19.3021544549993820 O
