#===============================================================================
# Created using the Atomic Simulation Environment (ASE)

# Mon Mar 23 14:01:28 2026

#=======================================================
lattice_vector 11.7478674943430175 0.0000000000000000 0.0000000000000000 
lattice_vector 3.6972030342828979 11.1509430042465603 0.0000000000000000 
lattice_vector 0.0000000000000000 0.0000000000000000 39.5163165879953979 
atom 12.8362493259363450 9.2674539230112973 15.0000040505728691 Sn
atom 8.0506629629412902 5.8123748906675203 16.1895419121277655 Sn
atom 14.0745319346337290 7.5522806789945616 15.0000243195811613 O
atom 11.5979308941605090 10.9826024201065202 15.0000197392664774 O
atom 11.1375862066970033 8.0410567661061734 15.2742308084752594 O
atom 9.2889499155344115 2.4655669171022132 15.2741930801686081 O
atom 10.9876210571984245 3.6919662466812402 15.0000332090779978 Sn
atom 12.2259345508945216 1.9768158414773043 15.0000090670957036 O
atom 9.7493308631652589 5.4071352265477790 15.0000000000000000 O
atom 5.2636520128141164 8.0410509796530505 15.2742277969583320 O
atom 6.9623089538539418 9.2674548306946214 15.0000016558930049 Sn
atom 2.1767241176682655 5.8123765518118526 16.1895401569396142 Sn
atom 8.2005969311221598 7.5522833608034521 15.0000339894537404 O
atom 5.7239874756030087 10.9825999422129943 15.0000189647590929 O
atom 5.1136854389825785 3.6919701068557331 15.0000341562163086 Sn
atom 6.3520149704984687 1.9768292920682180 15.0000261525223024 O
atom 3.8754014044181080 5.4071428795967638 15.0000082072518381 O
atom 3.4150216414562058 2.4655667302429407 15.2741972557833243 O
atom 9.1390468436257990 6.5981786326032328 19.7581452664624138 Sn
atom 4.3534604806307451 3.1430996002594558 20.9476831280173101 Sn
atom 10.3773294523231812 4.8830053885864961 19.7581655354707024 O
atom 7.9007284118499621 8.3133271296984557 19.7581609551560184 O
atom 9.2889529864768186 6.7064025477091853 17.6532669033702234 O
atom 10.8377066667922737 7.8245908526339294 19.4839841644497156 O
atom 10.9876230754415101 7.9328008207400948 17.3791058293539180 Sn
atom 6.2020709559413705 4.4777744283636265 18.5686382760589836 Sn
atom 12.2259363754827657 6.2176508164513491 17.3790856123639585 O
atom 9.7493356493734122 9.6479723135713957 17.3790807516151382 O
atom 7.4403837243864590 5.3717814756981088 20.0323720243648005 O
atom 12.6862788647702072 9.1592079916472002 17.1048787166640324 O
atom 9.1390439002142969 2.3573439836509924 17.3790728410053568 Sn
atom 8.0506582629101082 10.0532084517106135 18.5686094502299568 Sn
atom 10.3773236897631467 0.6421683467093725 17.3790932059929872 O
atom 7.9007194013557678 4.0724878475529493 17.3790844434993055 O
atom 9.2889504675067567 10.9472346309407094 20.0323342960581527 O
atom 10.8377029935968512 3.5837535575029165 17.1049094658333374 O
atom 7.2904185748878776 1.0226909562731750 19.7581744249675424 Sn
atom 6.2020680091719713 0.2369350936094680 16.1895624713491948 Sn
atom 12.2259351028668721 10.4584835553157998 19.7581502829852482 O
atom 6.0521283808547075 2.7378599361397149 19.7581412158895411 O
atom 7.4403804640079967 1.1309432140114666 17.6532972705001256 O
atom 8.9890796080186739 2.2490884559927937 19.4839462384191648 O
atom 5.1136844247208426 7.9328023781450083 17.3791014385088260 Sn
atom 12.0760032799769306 4.4777703963832565 18.5686345897677114 Sn
atom 6.3520095089008697 6.2176581257372625 17.3790849895871276 O
atom 3.8753986899617812 9.6479742286354817 17.3790716149873141 O
atom 13.3143170248465896 5.3717756892449859 20.0323690128478731 O
atom 6.8123514432816643 9.1591923294044157 17.1048753025886242 O
atom 3.2651064715433957 6.5981795402865595 19.7581428717825425 Sn
atom 10.2273891297007342 3.1431012614037890 20.9476813728291624 Sn
atom 4.5033944488116111 4.8830080703953893 19.7581752053432815 O
atom 13.7746524876354819 8.3133246518049280 19.7581601806486375 O
atom 3.4150183560358491 6.7063999346209506 17.6532650004435396 O
atom 4.9637724612080500 7.8245826680764496 19.4839794799538382 O
atom 1.4164829566720283 1.0226948164476679 19.7581753721058533 Sn
atom 0.3281369824202729 0.2369402453439819 16.1895677384330661 Sn
atom 6.3520155224708201 10.4584970059067146 19.7581673684118435 O
atom 11.9260664164505759 2.7378675891886983 19.7581494231413828 O
atom 1.5664519107229451 1.1309449448647297 17.6533015431825788 O
atom 3.1151518070997608 2.2490854536057823 19.4839494238198228 O
atom 3.2651094683731285 2.3573480898600123 17.3790736152791823 Sn
atom 13.9245961717296538 10.0532095594145350 18.5686134438627128 Sn
atom 4.5034033003790617 0.6421808207727325 17.3791117051141484 O
atom 2.0267906943507281 4.0724946828060498 17.3790925960364504 O
atom 15.1628896877715764 10.9472344440814364 20.0323384716728654 O
atom 4.9637822929083102 3.5837445353836248 17.1049134892983368 O
atom 5.4418443613152494 3.9289033421951691 24.5162864823519513 Sn
atom 6.6801269700126378 2.2137300981784360 24.5163067513602471 O
atom 4.2035259295394178 5.6440518392903929 24.5163021710455595 O
atom 5.5917505041662690 4.0371272573011208 22.4114081192597681 O
atom 7.1405041844817339 5.1553155622258657 24.2421253803392602 O
atom 7.2904205931309702 5.2635255303320294 22.1372470452434662 Sn
atom 2.5048684736308213 1.8084991379555635 23.3267794919485212 Sn
atom 8.5287338931722143 3.5483755260432850 22.1372268282534996 O
atom 6.0521331670628626 6.9786970231633338 22.1372219675046793 O
atom 8.9890763824596576 6.4899327012391366 21.8630199325535699 O
atom 9.1390444521866492 10.8390116974894894 22.1372140568948979 Sn
atom 4.3534557805995595 7.3839331613025498 23.3267506661194943 Sn
atom 10.3773242417355025 9.1238360605478714 22.1372344218825319 O
atom 4.2035169190452235 1.4032125571448872 22.1372256593888466 O
atom 7.1405005112863034 0.9144782670948531 21.8630506817228820 O
atom 7.2904191268602316 9.5043586701116727 24.5163156408570799 Sn
atom 6.2020685611443200 8.7186028074479651 20.9477036872387323 Sn
atom 8.5287326205563172 7.7892082649077388 24.5162914988747929 O
atom 2.3549258985441628 0.0685846457316507 24.5162824317790822 O
atom 7.4403810159803454 9.6126109278499658 22.4114384863896632 O
atom 8.9890801599910244 10.7307561698312917 24.2420874543087024 O
atom 13.1643494367533211 5.2635270877369429 22.1372426543983671 Sn
atom 8.3788007976663810 1.8084951059751884 23.3267758056572561 Sn
atom 2.6548070265903263 3.5483828353292011 22.1372262054766651 O
atom 11.9260637019942433 6.9786989382274180 22.1372128308768552 O
atom 3.1151489609711094 6.4899170389963512 21.8630165184781688 O
atom 11.3157714835758672 3.9289042498784936 24.5162840876720907 Sn
atom 0.8061919665010668 2.2137327799873252 24.5163164212328226 O
atom 10.0774500053249323 5.6440493613968652 24.5163013965381751 O
atom 11.4656833680683174 4.0371246442128879 22.4114062163330807 O
atom 13.0144374732405232 5.1553073776683860 24.2421206958433757 O
atom 13.1643510029874040 9.5043625302861638 24.5163165879953979 Sn
atom 12.0760050287356382 8.7186079591824779 20.9477089543226072 Sn
atom 2.6548130401602759 7.7892217154986518 24.5163085843013846 O
atom 8.2288639341400369 0.0685922987806362 24.5162906390309203 O
atom 13.3143199570383164 9.6126126587032275 22.4114427590721235 O
atom 14.8630198534151159 10.7307531674442806 24.2420906397093603 O
atom 15.0129775146884992 10.8390158036985103 22.1372148311687198 Sn
atom 10.2273936894191060 7.3839342690064713 23.3267546597522539 Sn
atom 4.5034038523514113 9.1238485346112306 22.1372529210036824 O
atom 10.0774557063832013 1.4032193923979861 22.1372338119259950 O
atom 1.2665798105977666 0.9144692449755618 21.8630547051878779 O
