#===============================================================================
# Created using the Atomic Simulation Environment (ASE)

# Mon Mar 23 14:01:29 2026

#=======================================================
lattice_vector 13.7534260507129780 0.0000000000000000 0.0000000000000000 
lattice_vector -0.0000000000000336 6.5904661899999999 0.0000000000000000 
lattice_vector 0.0000000000000000 0.0000000000000000 39.5225592677403483 
atom 13.7534060608229627 6.5904657790254433 16.3229090374244734 Sn
atom 3.4383263740191339 4.9428706390255126 16.3229250516131508 Sn
atom 5.5537847882250784 4.9428400290255015 16.3229225446531316 O
atom 1.3228675497120248 4.9428402190254488 16.3229100788933117 O
atom 3.4383303924520798 0.0000003133479207 15.0000000000000000 O
atom 5.5537824335589967 1.6476260890255030 16.3229229759853887 O
atom 1.3228656405231143 1.6476267890254501 16.3229106021499781 O
atom 3.4383376968083903 3.2952326433481263 15.0000477367874794 O
atom 10.3150340783991155 4.9428293990255048 16.3229233510151950 Sn
atom 8.1995752540850475 4.9428619690254658 16.3229142331392332 O
atom 10.3150533278513521 6.5904657833481330 15.0000494232402524 O
atom 10.3150357047450818 1.6476364290255034 16.3229230540321062 Sn
atom 8.1995776370348050 1.6476040890254660 16.3229143250660549 O
atom 10.3150452173933207 3.2952331933479280 15.0000016723096756 O
atom 6.8766919005595044 3.2952318890254459 16.3229095430044779 Sn
atom 13.7533886606698097 4.9428711637819047 19.7612849442531875 Sn
atom 6.8766766942282214 6.5904658185382008 23.1996225153098869 Sn
atom 2.1154207342459030 4.9428431737819043 19.7612850323747011 O
atom 11.6379296312918310 4.9428430737818756 19.7612783083220478 O
atom 13.7533919578521093 0.0000002981043195 18.4383613492791554 O
atom 13.7533659392639365 6.5904660494594900 21.0842088008338351 O
atom 13.7533865534911470 1.6475952737819062 19.7612853402306641 Sn
atom 13.7533813191104404 3.2952343290256101 16.3229479777655122 Sn
atom 2.1154177502551077 1.6476231437819058 19.7612852020767278 O
atom 11.6379270291388242 1.6476233237818763 19.7612783648874384 O
atom 13.7533972398808064 3.2952331281045324 18.4384109528261320 O
atom 13.7533655645565034 3.2952335094592753 21.0841590275870630 O
atom 10.3150230581373687 4.9428706785382701 23.1996385294985608 Sn
atom 10.3150387046680923 6.5904651037817992 19.7612606144845024 Sn
atom 12.4304814723433097 4.9428400685382590 23.1996360225385452 O
atom 8.1995642338302659 4.9428402585382063 23.1996235567787217 O
atom 10.3150270765703151 0.0000003528606780 21.8767134778854064 O
atom 3.4383053708864413 6.5904656847030862 17.6458457898549348 O
atom 3.4383247476725622 1.6475954390255159 16.3229258859974031 Sn
atom 10.3150195137465488 3.2952343837819567 19.7612972425929563 Sn
atom 12.4304791176772369 1.6476261285382603 23.1996364538707986 O
atom 8.1995623246413487 1.6476268285382076 23.1996240800353952 O
atom 10.3150343809266314 3.2952326828608833 21.8767612146728858 O
atom 3.4383146693976383 3.2952334747028793 17.6457978126708781 O
atom 3.4383047118043693 4.9428294385382623 23.1996368289006121 Sn
atom 3.4383060464455011 0.0000014837819671 19.7612996290778113 Sn
atom 12.4304935603193041 4.9428634890255552 16.3229351488263497 O
atom 1.3228458874903064 4.9428620085382233 23.1996277110246503 O
atom 3.4383239612566059 6.5904658228608906 21.8767629011256624 O
atom 10.3150336238454550 0.0000000647028759 17.6457970101117247 O
atom 3.4383063381503391 1.6476364685382612 23.1996365319175162 Sn
atom 3.4383240211442412 3.2952317837818077 19.7612622797190056 Sn
atom 12.4304955331469547 1.6476034590255562 16.3229353821740482 O
atom 1.3228482704400659 1.6476041285382235 23.1996278029514649 O
atom 3.4383158507985794 3.2952332328606850 21.8767151501950856 O
atom 10.3150239647096882 3.2952327447030814 17.6458450933613697 O
atom 6.8766688647672343 4.9428283837819009 19.7612838164100140 Sn
atom 6.8766685872033522 0.0000010790256103 16.3229479176617822 Sn
atom 8.9921281628278908 4.9428602637819923 19.7613055137158931 O
atom 4.7612102879357074 4.9428594837818780 19.7612787643983445 O
atom 6.8766876758117341 0.0000000981045332 18.4384112038531534 O
atom 6.8766689263997547 0.0000002194592757 21.0841589675024572 O
atom 6.8766709860877739 1.6476382837818984 19.7612836608488536 Sn
atom 13.7533885846777455 3.2952319285382030 23.1996230208898915 Sn
atom 8.9921308356919454 1.6476061437819916 19.7613051743079069 O
atom 4.7612133002111703 1.6476068537818760 19.7612782977115273 O
atom 6.8766820897257128 3.2952334081043255 18.4383627528898657 O
atom 6.8766686647106194 3.2952333694594920 21.0842091367282656 O
atom 6.8766519525156911 3.2952343685383685 23.1996614556509151 Sn
atom 10.3150020550046815 6.5904657242158429 24.5225592677403519 O
atom 10.3150214317908002 1.6475954785382732 23.1996393638828131 Sn
atom 10.3150113535158745 3.2952335142156355 24.5225112905562845 O
atom 5.5537641937245663 4.9428635285383127 23.1996486267117596 O
atom 3.4383042572507123 0.0000001042156332 24.5225104879971276 O
atom 5.5537661665522151 1.6476034985383134 23.1996488600594581 O
atom 3.4382945981149371 3.2952327842158389 24.5225585712467797 O
atom 13.7533652713215897 0.0000011185383676 23.1996613955471993 Sn
