#===============================================================================
# Created using the Atomic Simulation Environment (ASE)

# Mon Mar 23 14:01:28 2026

#=======================================================
lattice_vector 9.7251527000000060 0.0000000000000000 0.0000000000000000 
lattice_vector -0.0000000267767232 6.5904661899999999 0.0000000000000000 
lattice_vector 0.0000000000000000 0.0000000000000000 41.5959864015596068 
atom 9.7251338599976282 0.0000003714618282 20.7979929157804122 Sn
atom 0.9354324775243416 1.6476230200187907 15.0000058699999954 O
atom 0.9354346941359277 4.9428430500187988 15.0000038799998876 O
atom 4.8625557499974450 0.0000010664618432 20.7979873757804725 Sn
atom 5.7980052075241897 1.6476261450188001 15.0000013600001267 O
atom 5.7980071641358020 4.9428400850188066 15.0000000000000000 O
atom 2.4312902283035891 1.6476367613400327 18.3667097007797864 Sn
atom 0.0000205232215534 6.5904647062182038 15.9354362857791116 Sn
atom 0.9354410975240280 1.6476026652624347 19.8625720599996569 O
atom 3.9271407890832961 1.6476041974176243 16.8708497015596706 O
atom 1.4958645792190244 0.0000003732168177 17.4313091065593184 O
atom 3.3667023840002632 6.5904660994631934 19.3021233950005850 O
atom 2.4312888549152993 4.9428297313400282 18.3667106407797149 Sn
atom 9.7251341166094658 3.2952344062182060 15.9354225857804082 Sn
atom 0.9354398541356902 4.9428626952624297 19.8625736199997718 O
atom 3.9271391556949662 4.9428620774176171 16.8708514515598011 O
atom 1.4958365358293637 3.2952329632169088 17.4312696065602424 O
atom 3.3667432273895193 3.2952334194631523 19.3021505649992378 O
atom 7.2938695883036626 1.6476377963400286 18.3667119607796963 Sn
atom 4.8626019432216223 6.5904650912182028 15.9354383257789394 Sn
atom 5.7980275875243237 1.6476059102624174 19.8625811899993252 O
atom 8.7897228490834696 1.6476067024176138 16.8708550115594917 O
atom 6.3584451524423971 6.5904660782168145 17.4313119865591730 O
atom 8.2292824340003836 6.5904659644631858 19.3021270750004561 O
atom 7.2938679649153926 4.9428278963400230 18.3667133507796194 Sn
atom 4.8625583366096308 3.2952342812181903 15.9354276757803888 Sn
atom 5.7980254441359973 4.9428600302624099 19.8625828399994617 O
atom 8.7897203756951434 4.9428593324176067 16.8708568115596265 O
atom 6.3584148558295022 3.2952327682168985 17.4312737765601682 O
atom 8.2293181073899078 3.2952328144631156 19.3021623649992833 O
atom 2.4312895683035092 1.6475949965836474 23.2292823407796831 Sn
atom 0.9354331175235812 1.6476229805060711 24.7251354599999829 O
atom 3.9271420290832064 1.6476230926612363 21.7334239515596863 O
atom 1.4958400524406530 6.5904658584605498 22.2938353465601224 O
atom 3.3667529907775147 0.0000001147068013 24.1647157849989114 O
atom 2.4312913249150636 4.9428708865836537 23.2292811307797606 Sn
atom 0.0000261766095962 3.2952318214618441 20.7980029557789337 Sn
atom 0.9354353341351674 4.9428430105060794 24.7251334699998679 O
atom 3.9271438956947997 4.9428428426612445 21.7334221515595871 O
atom 1.4958714058302913 3.2952330284604634 22.2938741565590917 O
atom 3.3667180473879861 3.2952326547068735 24.1646803250000701 O
atom 7.2938643383034156 1.6475955015836548 23.2292794607797362 Sn
atom 5.7980058475234300 1.6476261055060806 24.7251309500001142 O
atom 8.7897107590829222 1.6476259276612553 21.7334153215599528 O
atom 6.3584132824405426 6.5904658234605575 22.2938319465602248 O
atom 8.2293243407773904 0.0000004597068079 24.1647119149990814 O
atom 7.2938660649149929 4.9428707015836588 23.2292789007798106 Sn
atom 4.8625952066094911 3.2952317864618466 20.7979997057791692 Sn
atom 5.7980078041350431 4.9428400455060872 24.7251295899999874 O
atom 8.7897124656945493 4.9428393576612599 21.7334143415598362 O
atom 6.3584418858301852 3.2952334934604681 22.2938708665592813 O
atom 8.2292838273881248 3.2952326697068504 24.1646845650004209 O
atom 0.0000211632207930 6.5904646667054845 25.6605658757790920 Sn
atom 3.9271414290825351 1.6476041579049048 26.5959792915596509 O
atom 9.7251347566087052 3.2952343667054858 25.6605521757803885 Sn
atom 3.9271397956942051 4.9428620379048978 26.5959810415597886 O
atom 4.8626025832208626 6.5904650517054835 25.6605679157789339 Sn
atom 8.7897234890827090 1.6476066629048942 26.5959846015594721 O
atom 4.8625589766088710 3.2952342417054710 25.6605572657803620 Sn
atom 8.7897210156943846 4.9428592929048865 26.5959864015596068 O
