#===============================================================================
# Created using the Atomic Simulation Environment (ASE)

# Mon Mar 23 14:01:28 2026

#=======================================================
lattice_vector 11.7478674943430175 0.0000000000000000 0.0000000000000000 
lattice_vector 3.6972030342828979 11.1509430042465603 0.0000000000000000 
lattice_vector 0.0000000000000000 0.0000000000000000 30.0000341562163158 
atom 5.4418443613152494 3.9289033421951691 15.0000040505728691 Sn
atom 6.6801269700126378 2.2137300981784360 15.0000243195811649 O
atom 4.2035259295394178 5.6440518392903929 15.0000197392664774 O
atom 7.2904191268602316 9.5043586701116727 15.0000332090779978 Sn
atom 8.5287326205563172 7.7892082649077388 15.0000090670957107 O
atom 2.3549258985441628 0.0685846457316507 15.0000000000000000 O
atom 11.3157714835758672 3.9289042498784936 15.0000016558930085 Sn
atom 0.8061919665010668 2.2137327799873252 15.0000339894537404 O
atom 10.0774500053249323 5.6440493613968652 15.0000189647590929 O
atom 13.1643510029874040 9.5043625302861638 15.0000341562163158 Sn
atom 2.6548130401602759 7.7892217154986518 15.0000261525223024 O
atom 8.2288639341400369 0.0685922987806362 15.0000082072518381 O
