#===============================================================================
# Created using the Atomic Simulation Environment (ASE)

# Mon Mar 23 14:01:28 2026

#=======================================================
lattice_vector 11.7478674943430175 0.0000000000000000 0.0000000000000000 
lattice_vector 3.6972030342828979 11.1509430042465603 0.0000000000000000 
lattice_vector 0.0000000000000000 0.0000000000000000 44.2744578038849426 
atom 1.0883812796209715 0.7857862091728010 15.0000040505728691 Sn
atom 11.7478654452518363 8.4816501810755849 16.1895419121277655 Sn
atom 6.0238669226012522 10.2215559694026261 15.0000243195811613 O
atom 11.5979303421881603 2.5009347062680241 15.0000197392664791 O
atom 14.8347886890075511 10.7103320565142379 15.2742308084752594 O
atom 12.9861523978449540 5.1348422075102773 15.2741930801686117 O
atom 2.9369560451659513 6.3612415370893052 15.0000332090780013 Sn
atom 4.1752695388620467 4.6460911318853677 15.0000090670957089 O
atom 13.4465333454758014 8.0764105169558427 15.0000000000000000 O
atom 8.9608544951246660 10.7103262700611150 15.2742277969583355 O
atom 6.9623084018815904 0.7857871168561255 15.0000016558930049 Sn
atom 5.8739265999788097 8.4816518422199163 16.1895401569396178 Sn
atom 11.8977994134327041 10.2215586512115166 15.0000339894537422 O
atom 5.7239869236306546 2.5009322283744968 15.0000189647590965 O
atom 8.8108879212931246 6.3612453972637955 15.0000341562163140 Sn
atom 10.0492174528090175 4.6461045824762817 15.0000261525223042 O
atom 7.5726038867286531 8.0764181700048283 15.0000082072518381 O
atom 7.1122241237667501 5.1348420206510053 15.2741972557833243 O
atom 12.8362493259363450 9.2674539230112973 19.7581452664624138 Sn
atom 8.0506629629412902 5.8123748906675203 20.9476831280173101 Sn
atom 14.0745319346337290 7.5522806789945616 19.7581655354707060 O
atom 11.5979308941605090 10.9826024201065202 19.7581609551560220 O
atom 12.9861554687873575 9.3756778381172499 17.6532669033702234 O
atom 14.5349091491028215 10.4938661430419948 19.4839841644497191 O
atom 14.6848255577520597 10.6020761111481594 17.3791058293539216 Sn
atom 9.8992734382519174 7.1470497187716902 18.5686382760589836 Sn
atom 4.1752713634502916 8.8869261068594128 17.3790856123639585 O
atom 9.7493350974010600 1.1663045997328998 17.3790807516151418 O
atom 11.1375862066970033 8.0410567661061734 20.0323720243648040 O
atom 0.9384108184548335 0.6775402778087042 17.1048787166640324 O
atom 12.8362463825248430 5.0266192740590574 17.3790728410053568 Sn
atom 8.0506577109377542 1.5715407378721160 18.5686094502299568 Sn
atom 2.3266586777306784 3.3114436371174367 17.3790932059929908 O
atom 11.5979218836663112 6.7417631379610148 17.3790844434993019 O
atom 9.2889499155344115 2.4655669171022132 20.0323342960581527 O
atom 2.7870379815643775 6.2530288479109810 17.1049094658333374 O
atom 10.9876210571984245 3.6919662466812402 19.7581744249675424 Sn
atom 9.8992704914825218 2.9062103840175322 16.1895624713491912 Sn
atom 12.2259345508945216 1.9768158414773043 19.7581502829852482 O
atom 9.7493308631652589 5.4071352265477790 19.7581412158895446 O
atom 11.1375829463185436 3.8002185044195311 17.6532972705001256 O
atom 12.6862820903292217 4.9183637464008587 19.4839462384191684 O
atom 8.8108869070313940 10.6020776685530702 17.3791014385088332 Sn
atom 4.0253382679444529 7.1470456867913192 18.5686345897677150 Sn
atom 10.0492119912114148 8.8869334161453288 17.3790849895871276 O
atom 3.8753981379894249 1.1663065147969862 17.3790716149873141 O
atom 5.2636520128141164 8.0410509796530505 20.0323690128478766 O
atom 6.8123508913093076 0.6775246155659181 17.1048753025886242 O
atom 6.9623089538539418 9.2674548306946214 19.7581428717825496 Sn
atom 2.1767241176682655 5.8123765518118526 20.9476813728291589 Sn
atom 8.2005969311221598 7.5522833608034521 19.7581752053432851 O
atom 5.7239874756030087 10.9825999422129943 19.7581601806486375 O
atom 7.1122208383463938 9.3756752250290152 17.6532650004435432 O
atom 8.6609749435185943 10.4938579584845151 19.4839794799538382 O
atom 5.1136854389825785 3.6919701068557331 19.7581753721058533 Sn
atom 4.0253394647308198 2.9062155357520454 16.1895677384330696 Sn
atom 6.3520149704984687 1.9768292920682180 19.7581673684118471 O
atom 3.8754014044181080 5.4071428795967638 19.7581494231413828 O
atom 5.2636543930334918 3.8002202352727936 17.6533015431825824 O
atom 6.8123542894103029 4.9183607440138477 19.4839494238198228 O
atom 6.9623119506836808 5.0266233802680773 17.3790736152791823 Sn
atom 2.1767281254142850 1.5715418455760382 18.5686134438627128 Sn
atom 8.2006057826896104 3.3114561111807972 17.3791117051141448 O
atom 5.7239931766612751 6.7417699732141143 17.3790925960364540 O
atom 3.4150216414562058 2.4655667302429407 20.0323384716728690 O
atom 8.6609847752188607 6.2530198257916885 17.1049134892983403 O
atom 9.1390468436257990 6.5981786326032328 24.5162864823519584 Sn
atom 4.3534604806307451 3.1430996002594558 25.7058243439068548 Sn
atom 10.3773294523231812 4.8830053885864961 24.5163067513602471 O
atom 7.9007284118499621 8.3133271296984557 24.5163021710455631 O
atom 9.2889529864768186 6.7064025477091853 22.4114081192597681 O
atom 10.8377066667922737 7.8245908526339294 24.2421253803392602 O
atom 10.9876230754415101 7.9328008207400948 22.1372470452434627 Sn
atom 6.2020709559413705 4.4777744283636265 23.3267794919485283 Sn
atom 12.2259363754827657 6.2176508164513491 22.1372268282535032 O
atom 9.7493356493734122 9.6479723135713957 22.1372219675046829 O
atom 7.4403837243864590 5.3717814756981088 24.7905132402543451 O
atom 12.6862788647702072 9.1592079916472002 21.8630199325535770 O
atom 9.1390439002142969 2.3573439836509924 22.1372140568949014 Sn
atom 8.0506582629101082 10.0532084517106135 23.3267506661195014 Sn
atom 10.3773236897631467 0.6421683467093725 22.1372344218825319 O
atom 7.9007194013557678 4.0724878475529493 22.1372256593888501 O
atom 9.2889504675067567 10.9472346309407094 24.7904755119476974 O
atom 10.8377029935968512 3.5837535575029165 21.8630506817228820 O
atom 7.2904185748878776 1.0226909562731750 24.5163156408570870 Sn
atom 6.2020680091719713 0.2369350936094680 20.9477036872387394 Sn
atom 12.2259351028668721 10.4584835553157998 24.5162914988747929 O
atom 6.0521283808547075 2.7378599361397149 24.5162824317790857 O
atom 7.4403804640079967 1.1309432140114666 22.4114384863896703 O
atom 8.9890796080186739 2.2490884559927937 24.2420874543087095 O
atom 5.1136844247208426 7.9328023781450083 22.1372426543983707 Sn
atom 12.0760032799769306 4.4777703963832565 23.3267758056572561 Sn
atom 6.3520095089008697 6.2176581257372625 22.1372262054766722 O
atom 3.8753986899617812 9.6479742286354817 22.1372128308768588 O
atom 13.3143170248465896 5.3717756892449859 24.7905102287374177 O
atom 6.8123514432816643 9.1591923294044157 21.8630165184781688 O
atom 3.2651064715433957 6.5981795402865595 24.5162840876720871 Sn
atom 10.2273891297007342 3.1431012614037890 25.7058225887187071 Sn
atom 4.5033944488116111 4.8830080703953893 24.5163164212328262 O
atom 13.7746524876354819 8.3133246518049280 24.5163013965381822 O
atom 3.4150183560358491 6.7063999346209506 22.4114062163330843 O
atom 4.9637724612080500 7.8245826680764496 24.2421206958433828 O
atom 1.4164829566720283 1.0226948164476679 24.5163165879953979 Sn
atom 0.3281369824202729 0.2369402453439819 20.9477089543226107 Sn
atom 6.3520155224708201 10.4584970059067146 24.5163085843013882 O
atom 11.9260664164505759 2.7378675891886983 24.5162906390309274 O
atom 1.5664519107229451 1.1309449448647297 22.4114427590721235 O
atom 3.1151518070997608 2.2490854536057823 24.2420906397093674 O
atom 3.2651094683731285 2.3573480898600123 22.1372148311687269 Sn
atom 13.9245961717296538 10.0532095594145350 23.3267546597522575 Sn
atom 4.5034033003790617 0.6421808207727325 22.1372529210036930 O
atom 2.0267906943507281 4.0724946828060498 22.1372338119259950 O
atom 15.1628896877715764 10.9472344440814364 24.7904796875624100 O
atom 4.9637822929083102 3.5837445353836248 21.8630547051878814 O
atom 5.4418443613152494 3.9289033421951691 29.2744276982414959 Sn
atom 6.6801269700126378 2.2137300981784360 29.2744479672497917 O
atom 4.2035259295394178 5.6440518392903929 29.2744433869351042 O
atom 5.5917505041662690 4.0371272573011208 27.1695493351493127 O
atom 7.1405041844817339 5.1553155622258657 29.0002665962288049 O
atom 7.2904205931309702 5.2635255303320294 26.8953882611330108 Sn
atom 2.5048684736308213 1.8084991379555635 28.0849207078380658 Sn
atom 8.5287338931722143 3.5483755260432850 26.8953680441430443 O
atom 6.0521331670628626 6.9786970231633338 26.8953631833942239 O
atom 8.9890763824596576 6.4899327012391366 26.6211611484431145 O
atom 9.1390444521866492 10.8390116974894894 26.8953552727844425 Sn
atom 4.3534557805995595 7.3839331613025498 28.0848918820090390 Sn
atom 10.3773242417355025 9.1238360605478714 26.8953756377720765 O
atom 4.2035169190452235 1.4032125571448872 26.8953668752783912 O
atom 7.1405005112863034 0.9144782670948531 26.6211918976124267 O
atom 7.2904191268602316 9.5043586701116727 29.2744568567466246 Sn
atom 6.2020685611443200 8.7186028074479651 25.7058449031282770 Sn
atom 8.5287326205563172 7.7892082649077388 29.2744327147643375 O
atom 2.3549258985441628 0.0685846457316507 29.2744236476686268 O
atom 7.4403810159803454 9.6126109278499658 27.1695797022792078 O
atom 8.9890801599910244 10.7307561698312917 29.0002286701982470 O
atom 13.1643494367533211 5.2635270877369429 26.8953838702879118 Sn
atom 8.3788007976663810 1.8084951059751884 28.0849170215468007 Sn
atom 2.6548070265903263 3.5483828353292011 26.8953674213662097 O
atom 11.9260637019942433 6.9786989382274180 26.8953540467663998 O
atom 3.1151489609711094 6.4899170389963512 26.6211577343677135 O
atom 11.3157714835758672 3.9289042498784936 29.2744253035616353 Sn
atom 0.8061919665010668 2.2137327799873252 29.2744576371223673 O
atom 10.0774500053249323 5.6440493613968652 29.2744426124277197 O
atom 11.4656833680683174 4.0371246442128879 27.1695474322226254 O
atom 13.0144374732405232 5.1553073776683860 29.0002619117329203 O
atom 13.1643510029874040 9.5043625302861638 29.2744578038849426 Sn
atom 12.0760050287356382 8.7186079591824779 25.7058501702121518 Sn
atom 2.6548130401602759 7.7892217154986518 29.2744498001909292 O
atom 8.2288639341400369 0.0685922987806362 29.2744318549204650 O
atom 13.3143199570383164 9.6126126587032275 27.1695839749616681 O
atom 14.8630198534151159 10.7307531674442806 29.0002318555989049 O
atom 15.0129775146884992 10.8390158036985103 26.8953560470582644 Sn
atom 10.2273936894191060 7.3839342690064713 28.0848958756417986 Sn
atom 4.5034038523514113 9.1238485346112306 26.8953941368932270 O
atom 10.0774557063832013 1.4032193923979861 26.8953750278155397 O
atom 1.2665798105977666 0.9144692449755618 26.6211959210774225 O
