#===============================================================================
# Created using the Atomic Simulation Environment (ASE)

# Mon Mar 23 14:01:29 2026

#=======================================================
lattice_vector 13.7534260507129780 0.0000000000000000 0.0000000000000000 
lattice_vector -0.0000000000000336 6.5904661899999999 0.0000000000000000 
lattice_vector 0.0000000000000000 0.0000000000000000 42.9609113963466100 
atom 6.8766919765515730 4.9428711242691472 16.3229235949740321 Sn
atom 13.7534060608229627 6.5904657790254433 19.7612611660307316 Sn
atom 8.9921501008406501 4.9428431342691477 16.3229236830955493 O
atom 4.7612329471735961 4.9428430342691181 16.3229169590428995 O
atom 6.8766952737338745 0.0000002585915622 15.0000000000000000 O
atom 6.8766692551457016 6.5904660099467334 17.6458474515546833 O
atom 6.8766898693729104 1.6475952342691487 16.3229239909515123 Sn
atom 8.9921471168498481 1.6476231042691480 16.3229238527975724 O
atom 4.7612303450205902 1.6476232842691185 16.3229170156082901 O
atom 6.8767005557625742 3.2952330885917753 15.0000496035469801 O
atom 6.8766688804382641 3.2952334699465182 17.6457976783079111 O
atom 3.4383263740191339 4.9428706390255126 19.7612771802194089 Sn
atom 3.4383420205498516 6.5904650642690425 16.3228992652053506 Sn
atom 5.5537847882250784 4.9428400290255015 19.7612746732593898 O
atom 1.3228675497120248 4.9428402190254488 19.7612622074995699 O
atom 3.4383303924520798 0.0000003133479207 18.4383521286062582 O
atom 3.4383228296283139 3.2952343442691991 16.3229358933138045 Sn
atom 5.5537824335589967 1.6476260890255030 19.7612751045916468 O
atom 1.3228656405231143 1.6476267890254501 19.7612627307562363 O
atom 3.4383376968083903 3.2952326433481263 18.4383998653937375 O
atom 10.3150340783991155 4.9428293990255048 19.7612754796214531 Sn
atom 10.3150354130402473 0.0000014442692098 16.3229382797986666 Sn
atom 8.1995752540850475 4.9428619690254658 19.7612663617454913 O
atom 10.3150533278513521 6.5904657833481330 18.4384015518465105 O
atom 10.3150357047450818 1.6476364290255034 19.7612751826383644 Sn
atom 10.3150533877389812 3.2952317442690502 16.3229009304398502 Sn
atom 8.1995776370348050 1.6476040890254660 19.7612664536723130 O
atom 10.3150452173933207 3.2952331933479280 18.4383538009159338 O
atom 13.7533982313619738 4.9428283442691434 16.3229224671308586 Sn
atom 2.1154314787096551 4.9428602242692357 16.3229441644367412 O
atom 11.6379396545304505 4.9428594442691205 16.3229174151191927 O
atom 13.7534170424064754 0.0000000585917759 15.0000498545740015 O
atom 13.7533982929944969 0.0000001799465184 17.6457976182233054 O
atom 13.7534003526825188 1.6476382442691406 16.3229223115697017 Sn
atom 6.8766919005595044 3.2952318890254459 19.7612616716107361 Sn
atom 2.1154341515737074 1.6476061042692340 16.3229438250287515 O
atom 11.6379426668059125 1.6476068142691185 16.3229169484323755 O
atom 13.7534114563204533 3.2952333685915693 15.0000014036107139 O
atom 13.7533980313053625 3.2952333299467345 17.6458477874491138 O
atom 13.7533886606698097 4.9428711637819047 23.1996370728594457 Sn
atom 6.8766766942282214 6.5904658185382008 26.6379746439161451 Sn
atom 2.1154207342459030 4.9428431737819043 23.1996371609809593 O
atom 11.6379296312918310 4.9428430737818756 23.1996304369283060 O
atom 13.7533919578521093 0.0000002981043195 21.8767134778854135 O
atom 13.7533659392639365 6.5904660494594900 24.5225609294400932 O
atom 13.7533865534911470 1.6475952737819062 23.1996374688369222 Sn
atom 13.7533813191104404 3.2952343290256101 19.7613001063717704 Sn
atom 2.1154177502551077 1.6476231437819058 23.1996373306829859 O
atom 11.6379270291388242 1.6476233237818763 23.1996304934936965 O
atom 13.7533972398808064 3.2952331281045324 21.8767630814323901 O
atom 13.7533655645565034 3.2952335094592753 24.5225111561933211 O
atom 10.3150230581373687 4.9428706785382701 26.6379906581048189 Sn
atom 10.3150387046680923 6.5904651037817992 23.1996127430907606 Sn
atom 12.4304814723433097 4.9428400685382590 26.6379881511448033 O
atom 8.1995642338302659 4.9428402585382063 26.6379756853849798 O
atom 10.3150270765703151 0.0000003528606780 25.3150656064916646 O
atom 3.4383053708864413 6.5904656847030862 21.0841979184611930 O
atom 3.4383247476725622 1.6475954390255159 19.7612780146036613 Sn
atom 10.3150195137465488 3.2952343837819567 23.1996493711992144 Sn
atom 12.4304791176772369 1.6476261285382603 26.6379885824770568 O
atom 8.1995623246413487 1.6476268285382076 26.6379762086416534 O
atom 10.3150343809266314 3.2952326828608833 25.3151133432791440 O
atom 3.4383146693976383 3.2952334747028793 21.0841499412771363 O
atom 3.4383047118043693 4.9428294385382623 26.6379889575068702 Sn
atom 3.4383060464455011 0.0000014837819671 23.1996517576840695 Sn
atom 12.4304935603193041 4.9428634890255552 19.7612872774326078 O
atom 1.3228458874903064 4.9428620085382233 26.6379798396309084 O
atom 3.4383239612566059 6.5904658228608906 25.3151150297319205 O
atom 10.3150336238454550 0.0000000647028759 21.0841491387179829 O
atom 3.4383063381503391 1.6476364685382612 26.6379886605237743 Sn
atom 3.4383240211442412 3.2952317837818077 23.1996144083252638 Sn
atom 12.4304955331469547 1.6476034590255562 19.7612875107803063 O
atom 1.3228482704400659 1.6476041285382235 26.6379799315577230 O
atom 3.4383158507985794 3.2952332328606850 25.3150672788013438 O
atom 10.3150239647096882 3.2952327447030814 21.0841972219676279 O
atom 6.8766688647672343 4.9428283837819009 23.1996359450162721 Sn
atom 6.8766685872033522 0.0000010790256103 19.7613000462680404 Sn
atom 8.9921281628278908 4.9428602637819923 23.1996576423221512 O
atom 4.7612102879357074 4.9428594837818780 23.1996308930046027 O
atom 6.8766876758117341 0.0000000981045332 21.8767633324594115 O
atom 6.8766689263997547 0.0000002194592757 24.5225110961087154 O
atom 6.8766709860877739 1.6476382837818984 23.1996357894551117 Sn
atom 13.7533885846777455 3.2952319285382030 26.6379751494961496 Sn
atom 8.9921308356919454 1.6476061437819916 23.1996573029141651 O
atom 4.7612133002111703 1.6476068537818760 23.1996304263177855 O
atom 6.8766820897257128 3.2952334081043255 21.8767148814961239 O
atom 6.8766686647106194 3.2952333694594920 24.5225612653345237 O
atom 6.8766519525156911 3.2952343685383685 26.6380135842571732 Sn
atom 10.3150020550046815 6.5904657242158429 27.9609113963466100 O
atom 10.3150214317908002 1.6475954785382732 26.6379914924890713 Sn
atom 10.3150113535158745 3.2952335142156355 27.9608634191625427 O
atom 5.5537641937245663 4.9428635285383127 26.6380007553180178 O
atom 3.4383042572507123 0.0000001042156332 27.9608626166033858 O
atom 5.5537661665522151 1.6476034985383134 26.6380009886657163 O
atom 3.4382945981149371 3.2952327842158389 27.9609106998530379 O
atom 13.7533652713215897 0.0000011185383676 26.6380135241534575 Sn
