#===============================================================================
# Created using the Atomic Simulation Environment (ASE)

# Mon Mar 23 14:01:28 2026

#=======================================================
lattice_vector 9.7251295900000052 0.0000000000000000 0.0000000000000000 
lattice_vector 0.0000006400007604 9.7251526999999847 0.0000000000000000 
lattice_vector 0.0000000000000000 0.0000000000000000 43.1809349499999442 
atom 1.4958396656662445 1.4958380072267812 15.0000011780762037 O
atom 1.4958365856665223 6.3584112372268864 15.0000011430762008 O
atom 4.8625700964471488 0.0000188964463823 15.0000000000000000 Sn
atom 4.8625724564476949 4.8626003164463087 15.0000003850000070 Sn
atom 6.3584462156675832 6.3584434272254109 15.0000013780762771 O
atom 8.2292614272264455 8.2292805856672739 15.0000012719236793 O
atom 2.4312867147525270 2.4312874347522557 16.6475965099999783 Sn
atom 9.7251273664466051 9.7251318864466345 15.0000018749999491 Sn
atom 3.9271397355321684 0.9354308855320118 16.6476244999999778 O
atom 0.9354284239726974 3.9271399939726157 16.6476245999999719 O
atom 1.4958396388895054 1.4958379804500601 21.5904673680762045 O
atom 3.3667202272275931 3.3667507956664942 15.0000016319237517 O
atom 2.4312854913641724 2.4312891913638914 19.9428723999999811 Sn
atom 0.0000071630589514 0.0000242030579596 18.2952333250000052 Sn
atom 3.9271377321438856 0.9354331021437300 19.9428445299999773 O
atom 0.9354266105844032 3.9271418605843285 19.9428443499999695 O
atom 1.4958784622789063 1.4958693338371436 18.2952345380762758 O
atom 3.3666847538380749 3.3667158522793006 18.2952341719236813 O
atom 2.4312841547528552 7.2938622047523447 16.6475970149999739 Sn
atom 9.7251215064461647 4.8625537764468234 15.0000025699999426 Sn
atom 3.9271355455324266 5.7980036155321493 16.6476276249999700 O
atom 0.9354201139728240 8.7897087239728915 16.6476274349999542 O
atom 1.4958365588897831 6.3584112104501642 21.5904673330761980 O
atom 3.3667166772278092 8.2293221456666146 15.0000019769237412 O
atom 2.4312835813644997 7.2938639313639575 19.9428722149999729 Sn
atom 0.0000042330590908 4.8625932330580603 18.2952332899999952 Sn
atom 3.9271341721441413 5.7980055721438539 19.9428415649999700 O
atom 0.9354191205845310 8.7897104305845843 19.9428408649999547 O
atom 1.4958754922790927 6.3584398138372444 18.2952350030762645 O
atom 3.3666893138381075 8.2292816322791573 18.2952341869236754 O
atom 7.2938436647525204 2.4312884147524714 16.6476382549999720 Sn
atom 4.8625700696704097 0.0000188696696608 21.5904661900000008 Sn
atom 8.7897059255324645 0.9354391855319868 16.6476041649999900 O
atom 5.7979837639726890 3.9271390739729481 16.6476056849999594 O
atom 6.3584430156670653 1.4958628272255119 15.0000018630762710 O
atom 8.2292574272259422 3.3667005356674022 15.0000014069236727 O
atom 7.2938445913641461 2.4312870413641212 19.9428312249999706 Sn
atom 4.8625570230582493 9.7251324630584559 18.2952358899999439 Sn
atom 8.7897074721440269 0.9354379421435470 19.9428641949999914 O
atom 5.7979855005842404 3.9271374405845032 19.9428635649999606 O
atom 6.3584035022777714 1.4958347838384516 18.2952344530762012 O
atom 8.2292845838389148 3.3667413522781473 18.2952349169237394 O
atom 7.2938462447529968 7.2938677747523881 16.6476392899999794 Sn
atom 4.8625724296709567 4.8626002896695875 21.5904665750000078 Sn
atom 8.7897153755331736 5.7980256755316750 16.6476074100000098 O
atom 5.7979893939732552 8.7897211339727637 16.6476081899999677 O
atom 6.3584461888908450 6.3584434004486887 21.5904675680762814 O
atom 8.2292614004497064 8.2292805588905527 21.5904674619236765 O
atom 7.2938476213646206 7.2938661513640275 19.9428293899999787 Sn
atom 4.8625617930578882 4.8625566830582958 18.2952357649999549 Sn
atom 8.7897170121447150 5.7980235321432394 19.9428615300000089 O
atom 5.7979911805847832 8.7897186605843221 19.9428608199999680 O
atom 6.3584079922782166 6.3584131038383092 18.2952342580762064 O
atom 8.2292967038392479 8.2293162322777516 18.2952343119237533 O
atom 2.4312866879757875 2.4312874079755344 23.2380626999999755 Sn
atom 9.7251273396698661 9.7251318596699132 21.5904680649999534 Sn
atom 3.9271397087554294 0.9354308587552904 23.2380906899999822 O
atom 0.9354283971959582 3.9271399671958949 23.2380907899999656 O
atom 1.4958396121127657 1.4958379536733386 28.1809335580762124 O
atom 3.3667202004508536 3.3667507688897729 21.5904678219237525 O
atom 2.4312854645874329 2.4312891645871701 26.5333385899999783 Sn
atom 0.0000071362822121 0.0000241762812381 24.8856995150000060 Sn
atom 3.9271377053671461 0.9354330753670086 26.5333107199999816 O
atom 0.9354265838076640 3.9271418338076076 26.5333105399999702 O
atom 1.4958784355021666 1.4958693070604219 24.8857007280762730 O
atom 3.3666847270613363 3.3667158255025789 24.8857003619236785 O
atom 2.4312841279761157 7.2938621779756234 23.2380632049999711 Sn
atom 9.7251214796694239 4.8625537496701021 21.5904687599999434 Sn
atom 3.9271355187556871 5.7980035887554289 23.2380938149999672 O
atom 0.9354200871960846 8.7897086971961684 23.2380936249999479 O
atom 1.4958365321130436 6.3584111836734420 28.1809335230761988 O
atom 3.3667166504510702 8.2293221188898915 21.5904681669237384 O
atom 2.4312835545877598 7.2938639045872371 26.5333384049999772 Sn
atom 0.0000042062823515 4.8625932062813391 24.8856994799999995 Sn
atom 3.9271341453674018 5.7980055453671326 26.5333077549999743 O
atom 0.9354190938077918 8.7897104038078613 26.5333070549999519 O
atom 1.4958754655023532 6.3584397870605232 24.8857011930762653 O
atom 3.3666892870613685 8.2292816055024343 24.8857003769236726 O
atom 7.2938436379757814 2.4312883879757510 23.2381044449999692 Sn
atom 4.8625700428936707 0.0000188428929393 28.1809323799999945 Sn
atom 8.7897058987557273 0.9354391587552653 23.2380703549999872 O
atom 5.7979837371959491 3.9271390471962264 23.2380718749999566 O
atom 6.3584429888903253 1.4958628004487904 21.5904680530762683 O
atom 8.2292574004492032 3.3667005088906805 21.5904675969236699 O
atom 7.2938445645874062 2.4312870145873999 26.5332974149999714 Sn
atom 4.8625569962815094 9.7251324362817329 24.8857020799999447 Sn
atom 8.7897074453672897 0.9354379153668257 26.5333303849999922 O
atom 5.7979854738075014 3.9271374138077824 26.5333297549999578 O
atom 6.3584034755010324 1.4958347570617299 24.8857006430762020 O
atom 8.2292845570621758 3.3667413255014251 24.8857011069237402 O
atom 7.2938462179762578 7.2938677479756668 23.2381054799999731 Sn
atom 4.8625724028942168 4.8626002628928662 28.1809327650000014 Sn
atom 8.7897153487564363 5.7980256487549537 23.2380736000000070 O
atom 5.7979893671965153 8.7897211071960442 23.2380743799999685 O
atom 6.3584461621141051 6.3584433736719674 28.1809337580762715 O
atom 8.2292613736729656 8.2292805321138296 28.1809336519236808 O
atom 7.2938475945878816 7.2938661245873062 26.5332955799999759 Sn
atom 4.8625617662811482 4.8625566562815763 24.8857019549999485 Sn
atom 8.7897169853679742 5.7980235053665190 26.5333277200000097 O
atom 5.7979911538080442 8.7897186338076008 26.5333270099999687 O
atom 6.3584079655014767 6.3584130770615870 24.8857004480762036 O
atom 8.2292966770625089 8.2293162055010303 24.8857005019237505 O
atom 9.7251273128931270 9.7251318328931919 28.1809342549999471 Sn
atom 3.3667201736741146 3.3667507421130520 28.1809340119237461 O
atom 9.7251214528926848 4.8625537228933799 28.1809349499999442 Sn
atom 3.3667166236743307 8.2293220921131720 28.1809343569237427 O
atom 6.3584429621135854 1.4958627736720691 28.1809342430762726 O
atom 8.2292573736724624 3.3667004821139588 28.1809337869236671 O
