#===============================================================================
# Created using the Atomic Simulation Environment (ASE)

# Mon Mar 23 14:01:28 2026

#=======================================================
lattice_vector 11.7478674943430175 0.0000000000000000 0.0000000000000000 
lattice_vector 3.6972030342828979 11.1509430042465603 0.0000000000000000 
lattice_vector 0.0000000000000000 0.0000000000000000 32.3791037571185427 
atom 5.4418443613152494 3.9289033421951691 17.3790736514750961 Sn
atom 6.6801269700126378 2.2137300981784360 17.3790939204833919 O
atom 4.2035259295394178 5.6440518392903929 17.3790893401687043 O
atom 5.5917505041662690 4.0371272573011208 15.2741952883829128 O
atom 7.1405041844817339 5.1553155622258657 17.1049125494624050 O
atom 7.2904205931309702 5.2635255303320294 15.0000342143666110 Sn
atom 2.5048684736308213 1.8084991379555635 16.1895666610716660 Sn
atom 8.5287338931722143 3.5483755260432850 15.0000139973766444 O
atom 6.0521331670628626 6.9786970231633338 15.0000091366278241 O
atom 9.1390444521866492 10.8390116974894894 15.0000012260180426 Sn
atom 4.3534557805995595 7.3839331613025498 16.1895378352426391 Sn
atom 10.3773242417355025 9.1238360605478714 15.0000215910056767 O
atom 4.2035169190452235 1.4032125571448872 15.0000128285119914 O
atom 7.2904191268602316 9.5043586701116727 17.3791028099802247 Sn
atom 8.5287326205563172 7.7892082649077388 17.3790786679979377 O
atom 2.3549258985441628 0.0685846457316507 17.3790696009022270 O
atom 7.4403810159803454 9.6126109278499658 15.2742256555128080 O
atom 8.9890801599910244 10.7307561698312917 17.1048746234318472 O
atom 13.1643494367533211 5.2635270877369429 15.0000298235215119 Sn
atom 8.3788007976663810 1.8084951059751884 16.1895629747804009 Sn
atom 2.6548070265903263 3.5483828353292011 15.0000133745998099 O
atom 11.9260637019942433 6.9786989382274180 15.0000000000000000 O
atom 11.3157714835758672 3.9289042498784936 17.3790712567952355 Sn
atom 0.8061919665010668 2.2137327799873252 17.3791035903559674 O
atom 10.0774500053249323 5.6440493613968652 17.3790885656613199 O
atom 11.4656833680683174 4.0371246442128879 15.2741933854562255 O
atom 13.0144374732405232 5.1553073776683860 17.1049078649665205 O
atom 13.1643510029874040 9.5043625302861638 17.3791037571185427 Sn
atom 2.6548130401602759 7.7892217154986518 17.3790957534245294 O
atom 8.2288639341400369 0.0685922987806362 17.3790778081540651 O
atom 13.3143199570383164 9.6126126587032275 15.2742299281952683 O
atom 14.8630198534151159 10.7307531674442806 17.1048778088325051 O
atom 15.0129775146884992 10.8390158036985103 15.0000020002918646 Sn
atom 10.2273936894191060 7.3839342690064713 16.1895418288753987 Sn
atom 4.5034038523514113 9.1238485346112306 15.0000400901268272 O
atom 10.0774557063832013 1.4032193923979861 15.0000209810491398 O
