#===============================================================================
# Created using the Atomic Simulation Environment (ASE)

# Mon Mar 23 14:01:29 2026

#=======================================================
lattice_vector 11.7478674943430175 0.0000000000000000 0.0000000000000000 
lattice_vector 0.0000005519723523 9.7251526999999900 0.0000000000000000 
lattice_vector 0.0000000000000000 0.0000000000000000 45.3176352660237782 
atom 1.0883812796209738 2.4312875865323309 15.8391446592344103 Sn
atom 8.0506629629412938 9.7251321230661514 18.5670214999434862 Sn
atom 2.3266638883183544 0.9354310654709566 16.6783302917376623 O
atom 11.5979303421881585 3.9271401175955054 15.0000024944935184 O
atom 2.7870411027874544 3.3667509125951760 15.0000024728983412 O
atom 9.8992728862795634 0.0000243615329153 15.8391631270830402 Sn
atom 9.7493350974010600 3.9271420891281728 17.7278530808973009 O
atom 11.1375856547246528 1.4958695204704586 16.6783367367111275 O
atom 0.9384108184548332 3.3667160741287110 17.7278447641220005 O
atom 1.0883788881818264 7.2938623565323804 15.8391434616254063 Sn
atom 8.0506577109377488 4.8625540130662532 18.5670189673802533 Sn
atom 2.3266586777306766 5.7980037954711108 16.6783303486014454 O
atom 11.5979218836663200 8.7897088475957119 15.0000000000000000 O
atom 2.7870379815643807 8.2293222625952360 15.0000005874554319 O
atom 9.8992704914825200 4.8625933915329558 15.8391612748836366 Sn
atom 9.7493308631652571 8.7897106591281720 17.7278458145899371 O
atom 11.1375829463185365 6.3584400004705133 16.6783352759824197 O
atom 0.9384145959862031 8.2292818541286454 17.7278471551479306 O
atom 4.0253377159721042 0.0000190415329346 15.8391618848232980 Sn
atom 3.8753981379894240 3.9271392891281094 17.7278441755372356 O
atom 5.2636514608417659 1.4958630004704752 16.6783369413428986 O
atom 6.8123508913093085 3.3667007441286105 17.7278494495095948 O
atom 6.9623084018815922 2.4312872065324780 15.8391421266505930 Sn
atom 2.1767241176682663 9.7251327130662535 18.5670191564448643 Sn
atom 8.2005963791498075 0.9354381354711184 16.6783374130881192 O
atom 5.7239869236306591 3.9271375775957962 15.0000030313542911 O
atom 8.6609743915462456 3.3667414825951880 15.0000023917626297 O
atom 4.0253394647308198 4.8626004615329128 15.8391633479590457 Sn
atom 3.8754014044181067 8.7897213491281061 17.7278492280988189 O
atom 5.2636543930334918 6.3584436004704123 16.6783381555082677 O
atom 6.8123542894103037 8.2292807941285488 17.7278514022063192 O
atom 6.9623119506836781 7.2938663165323785 15.8391421278891169 Sn
atom 2.1767281254142810 4.8625569330661840 18.5670219084193491 Sn
atom 8.2006057826896139 5.7980237254709008 16.6783403792967562 O
atom 5.7239931766612751 8.7897187975956275 15.0000037659060759 O
atom 8.6609847752188571 8.2293163625949965 15.0000085106431911 O
atom 9.1390462916534467 2.4312877695984358 21.2948699461536322 Sn
atom 4.3534604806307442 9.7251323061322541 24.0227467868627116 Sn
atom 10.3773289003508307 0.9354312485370618 22.1340555786568842 O
atom 7.9007278598776125 3.9271403006616112 20.4557277814127403 O
atom 9.2889524345044610 1.4958382720040491 19.4061773886777118 O
atom 10.8377061148199267 3.3667510956612814 20.4557277598175631 O
atom 10.9876225234691596 2.4312894480667180 18.5670420504861120 Sn
atom 6.2020704039690191 0.0000245445990206 21.2948884140022656 Sn
atom 0.4780683291673942 0.9354333870036349 19.4061810033426951 O
atom 6.0521326150905121 3.9271422721942786 23.1835783678165264 O
atom 7.4403831724141076 1.4958697035365638 22.1340620236303529 O
atom 8.9890758304873017 3.3667162571948164 23.1835700510412224 O
atom 9.1390439002142969 7.2938625395984866 21.2948687485446300 Sn
atom 4.3534552286272001 4.8625541961323586 24.0227442542994751 Sn
atom 10.3773236897631449 5.7980039785372171 22.1340556355206708 O
atom 7.9007194013557740 8.7897090306618164 20.4557252869192254 O
atom 9.2889499155344115 6.3584115020040883 19.4061754523293502 O
atom 10.8377029935968512 8.2293224456613423 20.4557258743746573 O
atom 10.9876210571984263 7.2938641880667383 18.5670406463258821 Sn
atom 6.2020680091719740 4.8625935745990594 21.2948865618028584 Sn
atom 0.4780670565514966 5.7980058570035924 19.4061763722028395 O
atom 6.0521283808547128 8.7897108421942782 23.1835711015091590 O
atom 7.4403804640079860 6.3584401835366187 22.1340605629016416 O
atom 8.9890796080186686 8.2292820371947499 23.1835724420671561 O
atom 5.1136838727484983 2.4312886580667801 18.5670374590886347 Sn
atom 0.3281352336615599 0.0000192245990400 21.2948871717425199 Sn
atom 6.3520089569285174 0.9354394570033631 19.4061768840448359 O
atom 0.1781956556788808 3.9271394721942148 23.1835694624564574 O
atom 1.5664489785312177 1.4958631835365805 22.1340622282621275 O
atom 3.1151484089987576 3.3667009271947155 23.1835747364288167 O
atom 3.2651059195710461 2.4312873895985829 21.2948674135698184 Sn
atom 10.2273891297007378 9.7251328961323598 24.0227444433640862 Sn
atom 4.5033938968392615 0.9354383185372237 22.1340627000073447 O
atom 2.0267844413201130 3.9271377606619007 20.4557283182735148 O
atom 3.4150178040634995 1.4958350620040679 19.4061770075475586 O
atom 4.9637719092356960 3.3667416656612934 20.4557276786818534 O
atom 5.1136854389825794 7.2938680180667737 18.5670395837263342 Sn
atom 0.3281369824202740 4.8626006445990182 21.2948886348782693 Sn
atom 6.3520149704984679 5.7980259470033273 19.4061846921853274 O
atom 0.1781989221075605 8.7897215321942124 23.1835745150180408 O
atom 1.5664519107229478 6.3584437835365168 22.1340634424274931 O
atom 3.1151518070997550 8.2292809771946533 23.1835766891255375 O
atom 3.2651094683731308 7.2938664995984821 21.2948674148083441 Sn
atom 10.2273931374467537 4.8625571161322902 24.0227471953385745 Sn
atom 4.5034033003790697 5.7980239085370062 22.1340656662159816 O
atom 2.0267906943507281 8.7897189806617320 20.4557290528253013 O
atom 3.4150216414562116 6.3584133820039987 19.4061791854614114 O
atom 4.9637822929083093 8.2293165456610993 20.4557337975624165 O
atom 5.4418438093429016 2.4312879526645412 26.7505952330728576 Sn
atom 0.6562579983201977 9.7251324891983604 29.4784720737819370 Sn
atom 6.6801264180402855 0.9354314316031671 27.5897808655761096 O
atom 4.2035253775670620 3.9271404837277171 25.9114530683319657 O
atom 5.5917499521939131 1.4958384550701549 24.8619026755969372 O
atom 7.1405036325093834 3.3667512787273872 25.9114530467367885 O
atom 7.2904200411586126 2.4312896311328243 24.0227673374053339 Sn
atom 2.5048679216584784 0.0000247276651260 26.7506137009214910 Sn
atom 8.5287333411998709 0.9354335700697402 24.8619062902619170 O
atom 2.3549301327799714 3.9271424552603844 28.6393036547357482 O
atom 3.7431806901035589 1.4958698866026696 27.5897873105495819 O
atom 5.2918733481767610 3.3667164402609222 28.6392953379604478 O
atom 5.4418414179037544 7.2938627226645902 26.7505940354638483 Sn
atom 0.6562527463166546 4.8625543791984649 29.4784695412187006 Sn
atom 6.6801212074526042 5.7980041616033207 27.5897809224398927 O
atom 4.2035169190452280 8.7897092137279209 25.9114505738384509 O
atom 5.5917474332238628 6.3584116850701946 24.8619007392485756 O
atom 7.1405005112863060 8.2293226287274468 25.9114511612938756 O
atom 7.2904185748878794 7.2938643711328446 24.0227659332451111 Sn
atom 2.5048655268614248 4.8625937576651648 26.7506118487220874 Sn
atom 8.5287320685839685 5.7980060400696960 24.8619016591220650 O
atom 2.3549258985441672 8.7897110252603809 28.6392963884283844 O
atom 3.7431779816974471 6.3584403666027232 27.5897858498208635 O
atom 5.2918771257081341 8.2292822202608562 28.6392977289863815 O
atom 1.4164813904379496 2.4312888411328863 24.0227627460078601 Sn
atom 8.3788002456940305 0.0000194076651453 26.7506124586617453 Sn
atom 2.6548064746179714 0.9354396400694683 24.8619021709640577 O
atom 8.2288606677113538 3.9271396552603197 28.6392947493756829 O
atom 9.6171139905636895 1.4958633666026857 27.5897875151813423 O
atom 11.1658134210312401 3.3667011102608213 28.6393000233480421 O
atom 11.3157709316035167 2.4312875726646888 26.7505927004890438 Sn
atom 6.5301866473901882 9.7251330791984625 29.4784697302833152 Sn
atom 0.8061914145287148 0.9354385016033290 27.5897879869265665 O
atom 10.0774494533525854 3.9271379437280065 25.9114536051927402 O
atom 11.4656828160959670 1.4958352450701733 24.8619022944667876 O
atom 1.2665694269251500 3.3667418487273983 25.9114529656010788 O
atom 1.4164829566720307 7.2938682011328790 24.0227648706455525 Sn
atom 8.3788019944527399 4.8626008276651236 26.7506139217974948 Sn
atom 2.6548124881879192 5.7980261300694318 24.8619099791045528 O
atom 8.2288639341400316 8.7897217152603151 28.6392998019372662 O
atom 9.6171169227554216 6.3584439666026222 27.5897887293467150 O
atom 11.1658168191322282 8.2292811602607578 28.6393019760447629 O
atom 11.3157744804056009 7.2938666826645875 26.7505927017275624 Sn
atom 6.5301906551362121 4.8625572991983956 29.4784724822577999 Sn
atom 0.8062008180685238 5.7980240916031116 27.5897909531352070 O
atom 10.0774557063831995 8.7897191637278382 25.9114543397445267 O
atom 11.4656866534886781 6.3584135650701041 24.8619044723806368 O
atom 1.2665798105977664 8.2293167287272038 25.9114590844816419 O
atom 1.8945474698833642 1.4958386381362601 30.3176279625161627 O
atom 3.5932175588480697 2.4312898141989292 29.4784926243245522 Sn
atom 4.8315308588893222 0.9354337531358455 30.3176315771811389 O
atom 1.8945449509133165 6.3584118681363000 30.3176260261677939 O
atom 3.5932160925773364 7.2938645541989500 29.4784912201643294 Sn
atom 4.8315295862734216 5.7980062231358023 30.3176269460412939 O
atom 9.4671464024704264 2.4312890241989908 29.4784880329270820 Sn
atom 10.7054714866504366 0.9354398231355738 30.3176274578832832 O
atom 7.7684803337854191 1.4958354281362785 30.3176275813860059 O
atom 9.4671479687045021 7.2938683841989853 29.4784901575647780 Sn
atom 10.7054775002203897 5.7980263131355381 30.3176352660237782 O
atom 7.7684841711781312 6.3584137481362095 30.3176297592998623 O
