#===============================================================================
# Created using the Atomic Simulation Environment (ASE)

# Mon Mar 23 14:01:29 2026

#=======================================================
lattice_vector 13.7534260507129780 0.0000000000000000 0.0000000000000000 
lattice_vector -0.0000000000000336 6.5904661899999999 0.0000000000000000 
lattice_vector 0.0000000000000000 0.0000000000000000 32.6458457898549455 
atom 6.8766766942282214 6.5904658185382008 16.3229090374244805 Sn
atom 10.3150230581373687 4.9428706785382701 16.3229250516131543 Sn
atom 12.4304814723433097 4.9428400685382590 16.3229225446531387 O
atom 8.1995642338302659 4.9428402585382063 16.3229100788933152 O
atom 10.3150270765703151 0.0000003528606780 15.0000000000000000 O
atom 12.4304791176772369 1.6476261285382603 16.3229229759853922 O
atom 8.1995623246413487 1.6476268285382076 16.3229106021499888 O
atom 10.3150343809266314 3.2952326828608833 15.0000477367874794 O
atom 3.4383047118043693 4.9428294385382623 16.3229233510152056 Sn
atom 1.3228458874903064 4.9428620085382233 16.3229142331392438 O
atom 3.4383239612566059 6.5904658228608906 15.0000494232402559 O
atom 3.4383063381503391 1.6476364685382612 16.3229230540321097 Sn
atom 1.3228482704400659 1.6476041285382235 16.3229143250660584 O
atom 3.4383158507985794 3.2952332328606850 15.0000016723096792 O
atom 13.7533885846777455 3.2952319285382030 16.3229095430044850 Sn
atom 6.8766519525156911 3.2952343685383685 16.3229479777655087 Sn
atom 10.3150020550046815 6.5904657242158429 17.6458457898549455 O
atom 10.3150214317908002 1.6475954785382732 16.3229258859974067 Sn
atom 10.3150113535158745 3.2952335142156355 17.6457978126708781 O
atom 5.5537641937245663 4.9428635285383127 16.3229351488263532 O
atom 3.4383042572507123 0.0000001042156332 17.6457970101117212 O
atom 5.5537661665522151 1.6476034985383134 16.3229353821740517 O
atom 3.4382945981149371 3.2952327842158389 17.6458450933613733 O
atom 13.7533652713215897 0.0000011185383676 16.3229479176617929 Sn
