#===============================================================================
# Created using the Atomic Simulation Environment (ASE)

# Mon Mar 23 14:01:29 2026

#=======================================================
lattice_vector 11.7478674943430175 0.0000000000000000 0.0000000000000000 
lattice_vector 0.0000005519723523 9.7251526999999900 0.0000000000000000 
lattice_vector 0.0000000000000000 0.0000000000000000 34.4061846921853274 
atom 5.4418438093429016 2.4312879526645412 15.8391446592344067 Sn
atom 0.6562579983201977 9.7251324891983604 18.5670214999434862 Sn
atom 6.6801264180402855 0.9354314316031671 16.6783302917376588 O
atom 4.2035253775670620 3.9271404837277171 15.0000024944935149 O
atom 7.1405036325093834 3.3667512787273872 15.0000024728983377 O
atom 2.5048679216584784 0.0000247276651260 15.8391631270830402 Sn
atom 2.3549301327799714 3.9271424552603844 17.7278530808972974 O
atom 3.7431806901035589 1.4958698866026696 16.6783367367111310 O
atom 5.2918733481767610 3.3667164402609222 17.7278447641219969 O
atom 5.4418414179037544 7.2938627226645902 15.8391434616253974 Sn
atom 0.6562527463166546 4.8625543791984649 18.5670189673802497 Sn
atom 6.6801212074526042 5.7980041616033207 16.6783303486014418 O
atom 4.2035169190452280 8.7897092137279209 15.0000000000000000 O
atom 7.1405005112863060 8.2293226287274468 15.0000005874554247 O
atom 2.5048655268614248 4.8625937576651648 15.8391612748836366 Sn
atom 2.3549258985441672 8.7897110252603809 17.7278458145899336 O
atom 3.7431779816974471 6.3584403666027232 16.6783352759824126 O
atom 5.2918771257081341 8.2292822202608562 17.7278471551479306 O
atom 8.3788002456940305 0.0000194076651453 15.8391618848232945 Sn
atom 8.2288606677113538 3.9271396552603197 17.7278441755372320 O
atom 9.6171139905636895 1.4958633666026857 16.6783369413428915 O
atom 11.1658134210312401 3.3667011102608213 17.7278494495095913 O
atom 11.3157709316035167 2.4312875726646888 15.8391421266505930 Sn
atom 6.5301866473901882 9.7251330791984625 18.5670191564448643 Sn
atom 0.8061914145287148 0.9354385016033290 16.6783374130881157 O
atom 10.0774494533525854 3.9271379437280065 15.0000030313542894 O
atom 1.2665694269251500 3.3667418487273983 15.0000023917626280 O
atom 8.3788019944527399 4.8626008276651236 15.8391633479590439 Sn
atom 8.2288639341400316 8.7897217152603151 17.7278492280988154 O
atom 9.6171169227554216 6.3584439666026222 16.6783381555082642 O
atom 11.1658168191322282 8.2292811602607578 17.7278514022063121 O
atom 11.3157744804056009 7.2938666826645875 15.8391421278891116 Sn
atom 6.5301906551362121 4.8625572991983956 18.5670219084193491 Sn
atom 0.8062008180685238 5.7980240916031116 16.6783403792967562 O
atom 10.0774557063831995 8.7897191637278382 15.0000037659060759 O
atom 1.2665798105977664 8.2293167287272038 15.0000085106431911 O
atom 1.8945474698833642 1.4958386381362601 19.4061773886777118 O
atom 3.5932175588480697 2.4312898141989292 18.5670420504861013 Sn
atom 4.8315308588893222 0.9354337531358455 19.4061810033426880 O
atom 1.8945449509133165 6.3584118681363000 19.4061754523293430 O
atom 3.5932160925773364 7.2938645541989500 18.5670406463258786 Sn
atom 4.8315295862734216 5.7980062231358023 19.4061763722028431 O
atom 9.4671464024704264 2.4312890241989908 18.5670374590886311 Sn
atom 10.7054714866504366 0.9354398231355738 19.4061768840448323 O
atom 7.7684803337854191 1.4958354281362785 19.4061770075475550 O
atom 9.4671479687045021 7.2938683841989853 18.5670395837263271 Sn
atom 10.7054775002203897 5.7980263131355381 19.4061846921853274 O
atom 7.7684841711781312 6.3584137481362095 19.4061791854614114 O
