#===============================================================================
# Created using the Atomic Simulation Environment (ASE)

# Mon Mar 23 14:01:28 2026

#=======================================================
lattice_vector 9.7251527000000060 0.0000000000000000 0.0000000000000000 
lattice_vector -0.0000000267767232 6.5904661899999999 0.0000000000000000 
lattice_vector 0.0000000000000000 0.0000000000000000 53.7524136349993498 
atom 2.4312882883050300 1.6475950756090869 15.9354503942194583 Sn
atom 9.7251332199983906 0.0000004109745479 23.2292905592201748 Sn
atom 0.9354318375251020 1.6476230595315107 17.4313035134397580 O
atom 1.4958387724421738 6.5904659374859893 15.0000033999998976 O
atom 3.3667517107790346 0.0000001937322406 16.8708838384386937 O
atom 2.4312900449165844 4.9428709656090923 15.9354491842195323 Sn
atom 0.9354340541366882 4.9428430895315181 17.4313015234396431 O
atom 1.4958701258318121 3.2952331074859025 15.0000422099988668 O
atom 3.3667167673895069 3.2952327337323131 16.8708483784398453 O
atom 7.2938630583049351 1.6475955806090943 15.9354475142195184 Sn
atom 4.8625551099982056 0.0000011059745629 23.2292850192202351 Sn
atom 5.7980045675249512 1.6476261845315197 17.4312990034398858 O
atom 6.3584120024420621 6.5904659024859962 15.0000000000000000 O
atom 8.2293230607789116 0.0000005387322472 16.8708799684388637 O
atom 7.2938647849165124 4.9428707806090983 15.9354469542195858 Sn
atom 5.7980065241365635 4.9428401245315268 17.4312976434397626 O
atom 6.3584406058317047 3.2952335724859076 15.0000389199990600 O
atom 8.2292825473896460 3.2952327487322894 16.8708526184401890 O
atom 2.4312895883043493 1.6476368008527522 20.7980073442195454 Sn
atom 0.0000198832223138 6.5904647457309231 18.3667339292188672 Sn
atom 0.9354404575247887 1.6476027047751545 22.2938697034394124 O
atom 3.9271401490840558 1.6476042369303441 19.3021473449994332 O
atom 1.4958639392197850 0.0000004127295374 19.8626067499990739 O
atom 3.3667017440010234 6.5904661389759127 21.7334210384403406 O
atom 2.4312882149160595 4.9428297708527476 20.7980082842194705 Sn
atom 9.7251334766102246 3.2952344457309248 18.3667202292201637 Sn
atom 0.9354392141364506 4.9428627347751499 22.2938712634395380 O
atom 3.9271385156957259 4.9428621169303364 19.3021490949995567 O
atom 1.4958358958301239 3.2952330027296282 19.8625672499999979 O
atom 3.3667425873902790 3.2952334589758725 21.7334482084389968 O
atom 7.2938689483044223 1.6476378358527481 20.7980096042194518 Sn
atom 4.8626013032223820 6.5904651307309230 18.3667359692187055 Sn
atom 5.7980269475250834 1.6476059497751372 22.2938788334390914 O
atom 8.7897222090842302 1.6476067419303335 19.3021526549992473 O
atom 6.3584445124431577 6.5904661177295338 19.8626096299989285 O
atom 8.2292817940011442 6.5904660039759051 21.7334247184402152 O
atom 7.2938673249161532 4.9428279358527432 20.7980109942193785 Sn
atom 4.8625576966103905 3.2952343207309100 18.3667253192201443 Sn
atom 5.7980248041367588 4.9428600697751301 22.2938804834392279 O
atom 8.7897197356959058 4.9428593719303260 19.3021544549993891 O
atom 6.3584142158302628 3.2952328077296178 19.8625714199999273 O
atom 8.2293174673906684 3.2952328539758353 21.7334600084390424 O
atom 2.4312889283042693 1.6475950360963671 25.6605799842194457 Sn
atom 9.7251338599976282 0.0000003714618282 32.9544201492201552 Sn
atom 0.9354324775243416 1.6476230200187907 27.1564331034397384 O
atom 3.9271413890839666 1.6476231321739561 24.1647215949994489 O
atom 1.4958394124414134 6.5904658979732691 24.7251329899998780 O
atom 3.3667523507782748 0.0000001542195210 26.5960134284386811 O
atom 2.4312906849158247 4.9428709260963730 25.6605787742195126 Sn
atom 0.0000255366103566 3.2952318609745639 23.2293005992186892 Sn
atom 0.9354346941359277 4.9428430500187988 27.1564311134396306 O
atom 3.9271432556955608 4.9428428821739638 24.1647197949993462 O
atom 1.4958707658310517 3.2952330679731827 24.7251717999988507 O
atom 3.3667174073887471 3.2952326942195933 26.5959779684398221 O
atom 7.2938636983041754 1.6475955410963745 25.6605771042194988 Sn
atom 4.8625557499974450 0.0000010664618432 32.9544146092202155 Sn
atom 5.7980052075241897 1.6476261450188001 27.1564285934398697 O
atom 8.7897101190836811 1.6476259671739750 24.1647129649997083 O
atom 6.3584126424413023 6.5904658629732769 24.7251295899999803 O
atom 8.2293237007781510 0.0000004992195276 26.5960095584388405 O
atom 7.2938654249157526 4.9428707410963781 25.6605765442195697 Sn
atom 4.8625945666102508 3.2952318259745663 23.2292973492189319 Sn
atom 5.7980071641358020 4.9428400850188066 27.1564272334397430 O
atom 8.7897118256953082 4.9428393971739792 24.1647119849995917 O
atom 6.3584412458309449 3.2952335329731874 24.7251685099990439 O
atom 8.2292831873888854 3.2952327092195701 26.5959822084401729 O
atom 2.4312902283035891 1.6476367613400327 30.5231369342195293 Sn
atom 0.0000205232215534 6.5904647062182038 28.0918635192188546 Sn
atom 0.9354410975240280 1.6476026652624347 32.0189992934393999 O
atom 3.9271407890832961 1.6476041974176243 29.0272769349994135 O
atom 1.4958645792190244 0.0000003732168177 29.5877363399990614 O
atom 3.3667023840002632 6.5904660994631934 31.4585506284403280 O
atom 2.4312888549152993 4.9428297313400282 30.5231378742194579 Sn
atom 9.7251341166094658 3.2952344062182060 28.0918498192201511 Sn
atom 0.9354398541356902 4.9428626952624297 32.0190008534395147 O
atom 3.9271391556949662 4.9428620774176171 29.0272786849995441 O
atom 1.4958365358293637 3.2952329632169088 29.5876968399999853 O
atom 3.3667432273895193 3.2952334194631523 31.4585777984389807 O
atom 7.2938695883036626 1.6476377963400286 30.5231391942194392 Sn
atom 4.8626019432216223 6.5904650912182028 28.0918655592186823 Sn
atom 5.7980275875243237 1.6476059102624174 32.0190084234390682 O
atom 8.7897228490834696 1.6476067024176138 29.0272822449992347 O
atom 6.3584451524423971 6.5904660782168145 29.5877392199989160 O
atom 8.2292824340003836 6.5904659644631858 31.4585543084401991 O
atom 7.2938679649153926 4.9428278963400230 30.5231405842193624 Sn
atom 4.8625583366096308 3.2952342812181903 28.0918549092201317 Sn
atom 5.7980254441359973 4.9428600302624099 32.0190100734392047 O
atom 8.7897203756951434 4.9428593324176067 29.0272840449993694 O
atom 6.3584148558295022 3.2952327682168985 29.5877010099999112 O
atom 8.2293181073899078 3.2952328144631156 31.4585895984390262 O
atom 2.4312895683035092 1.6475949965836474 35.3857095742194261 Sn
atom 0.9354331175235812 1.6476229805060711 36.8815626934397258 O
atom 3.9271420290832064 1.6476230926612363 33.8898511849994293 O
atom 1.4958400524406530 6.5904658584605498 34.4502625799998654 O
atom 3.3667529907775147 0.0000001147068013 36.3211430184386543 O
atom 2.4312913249150636 4.9428708865836537 35.3857083642195036 Sn
atom 0.0000261766095962 3.2952318214618441 32.9544301892186766 Sn
atom 0.9354353341351674 4.9428430105060794 36.8815607034396109 O
atom 3.9271438956947997 4.9428428426612445 33.8898493849993301 O
atom 1.4958714058302913 3.2952330284604634 34.4503013899988346 O
atom 3.3667180473879861 3.2952326547068735 36.3211075584398131 O
atom 7.2938643383034156 1.6475955015836548 35.3857066942194791 Sn
atom 5.7980058475234300 1.6476261055060806 36.8815581834398571 O
atom 8.7897107590829222 1.6476259276612553 33.8898425549996958 O
atom 6.3584132824405426 6.5904658234605575 34.4502591799999678 O
atom 8.2293243407773904 0.0000004597068079 36.3211391484388244 O
atom 7.2938660649149929 4.9428707015836588 35.3857061342195536 Sn
atom 4.8625952066094911 3.2952317864618466 32.9544269392189122 Sn
atom 5.7980078041350431 4.9428400455060872 36.8815568234397304 O
atom 8.7897124656945493 4.9428393576612599 33.8898415749995792 O
atom 6.3584418858301852 3.2952334934604681 34.4502980999990243 O
atom 8.2292838273881248 3.2952326697068504 36.3211117984401639 O
atom 0.0000211632207930 6.5904646667054845 37.8169931092188349 Sn
atom 3.9271414290825351 1.6476041579049048 38.7524065249993939 O
atom 9.7251347566087052 3.2952343667054858 37.8169794092201315 Sn
atom 3.9271397956942051 4.9428620379048978 38.7524082749995316 O
atom 4.8626025832208626 6.5904650517054835 37.8169951492186769 Sn
atom 8.7897234890827090 1.6476066629048942 38.7524118349992150 O
atom 4.8625589766088710 3.2952342417054710 37.8169844992201050 Sn
atom 8.7897210156943846 4.9428592929048865 38.7524136349993498 O
