#===============================================================================
# Created using the Atomic Simulation Environment (ASE)

# Mon Mar 23 14:01:35 2026

#=======================================================
lattice_vector 9.2839361000000000 0.0000000000000000 0.0000000000000000 
lattice_vector 0.0000000000000000 5.9471245399999999 0.0000000000000000 
lattice_vector 0.0000000000000000 0.0000000000000000 52.6947216500000053 
atom 9.2839360399999986 0.0000000100000000 15.9029553600000035 Ti
atom 9.2839360299999996 2.9735622699999991 15.9029553600000035 Ti
atom 4.6419680000000003 0.0000000100000000 15.9029553700000008 Ti
atom 4.6419680100000003 2.9735622799999990 15.9029553700000008 Ti
atom 0.9029265000000000 1.4867811399999995 15.0000000000000000 O
atom 0.9029265000000000 4.4603434099999992 15.0000000000000000 O
atom 5.5448945200000006 1.4867811399999995 15.0000000000000000 O
atom 5.5448945200000006 4.4603434199999983 15.0000000100000044 O
atom 2.3209840400000008 1.4867811399999995 18.2239343900000037 Ti
atom 9.2839360399999986 0.0000000100000000 25.1868712400000021 Ti
atom 0.9029265000000000 1.4867811300000000 19.6419579600000063 O
atom 3.7390416200000010 1.4867811399999995 16.8059109000000042 O
atom 1.4180575900000001 0.0000000000000000 17.3209789700000059 O
atom 3.2239105299999999 0.0000000000000000 19.1268898700000030 O
atom 2.3209840400000008 4.4603433999999993 18.2239343900000037 Ti
atom 9.2839360299999996 2.9735622699999991 25.1868712400000021 Ti
atom 0.9029265000000000 4.4603433999999993 19.6419579600000063 O
atom 3.7390416300000004 4.4603434099999992 16.8059109000000042 O
atom 1.4180575900000001 2.9735622699999991 17.3209789700000059 O
atom 3.2239105299999999 2.9735622699999991 19.1268898700000030 O
atom 6.9629519999999996 1.4867811300000000 18.2239344000000045 Ti
atom 4.6419680000000003 0.0000000100000000 25.1868712500000029 Ti
atom 5.5448945299999997 1.4867811300000000 19.6419579700000035 O
atom 8.3810096299999994 1.4867811300000000 16.8059109000000042 O
atom 6.0600256000000012 0.0000000000000000 17.3209789900000040 O
atom 7.8658785300000016 0.0000000000000000 19.1268898900000046 O
atom 6.9629519900000014 4.4603434099999992 18.2239344000000045 Ti
atom 4.6419680100000003 2.9735622799999990 25.1868712500000029 Ti
atom 5.5448945299999997 4.4603433999999993 19.6419579700000035 O
atom 8.3810096299999994 4.4603434099999992 16.8059108900000034 O
atom 6.0600256100000003 2.9735622699999991 17.3209789900000040 O
atom 7.8658785300000016 2.9735622699999991 19.1268898900000046 O
atom 2.3209840500000003 1.4867811399999995 22.8658922800000042 Ti
atom 9.2839360500000030 5.9471245299999991 20.5449133400000044 Ti
atom 0.9029265000000000 1.4867811399999995 24.2839158800000021 O
atom 3.7390416400000004 1.4867811300000000 21.4478688400000053 O
atom 1.4180576000000003 0.0000000000000000 21.9629369100000034 O
atom 3.2239105299999999 0.0000000000000000 23.7688477800000015 O
atom 2.3209840500000003 4.4603434099999992 22.8658922900000050 Ti
atom 9.2839360399999986 2.9735622600000000 20.5449133300000035 Ti
atom 0.9029265000000000 4.4603434099999992 24.2839158800000021 O
atom 3.7390416400000004 4.4603434099999992 21.4478688400000053 O
atom 1.4180576000000003 2.9735622699999991 21.9629369100000034 O
atom 3.2239105399999999 2.9735622699999991 23.7688477800000015 O
atom 6.9629519999999996 1.4867811399999995 22.8658923000000023 Ti
atom 4.6419680100000003 0.0000000000000000 20.5449133400000044 Ti
atom 5.5448945200000006 1.4867811399999995 24.2839158800000021 O
atom 8.3810096400000020 1.4867811199999996 21.4478688400000053 O
atom 6.0600256200000020 0.0000000000000000 21.9629369300000015 O
atom 7.8658785400000006 0.0000000000000000 23.7688478000000032 O
atom 6.9629520100000022 4.4603434099999992 22.8658923000000023 Ti
atom 4.6419680100000003 2.9735622699999991 20.5449133400000044 Ti
atom 5.5448945200000006 4.4603434199999983 24.2839158900000029 O
atom 8.3810096400000020 4.4603433999999993 21.4478688300000044 O
atom 6.0600256200000020 2.9735622699999991 21.9629369300000015 O
atom 7.8658785400000006 2.9735622699999991 23.7688478000000032 O
atom 2.3209840400000008 1.4867811399999995 27.5078502700000058 Ti
atom 9.2839360399999986 0.0000000100000000 34.4707871200000042 Ti
atom 0.9029265000000000 1.4867811300000000 28.9258738400000084 O
atom 3.7390416200000010 1.4867811399999995 26.0898267800000028 O
atom 1.4180575900000001 0.0000000000000000 26.6048948500000080 O
atom 3.2239105299999999 0.0000000000000000 28.4108057500000015 O
atom 2.3209840400000008 4.4603433999999993 27.5078502700000058 Ti
atom 9.2839360299999996 2.9735622699999991 34.4707871200000042 Ti
atom 0.9029265000000000 4.4603433999999993 28.9258738400000084 O
atom 3.7390416300000004 4.4603434099999992 26.0898267800000028 O
atom 1.4180575900000001 2.9735622699999991 26.6048948500000080 O
atom 3.2239105299999999 2.9735622699999991 28.4108057500000015 O
atom 6.9629519999999996 1.4867811300000000 27.5078502799999995 Ti
atom 4.6419680000000003 0.0000000100000000 34.4707871300000050 Ti
atom 5.5448945299999997 1.4867811300000000 28.9258738500000021 O
atom 8.3810096299999994 1.4867811300000000 26.0898267800000028 O
atom 6.0600256000000012 0.0000000000000000 26.6048948700000025 O
atom 7.8658785300000016 0.0000000000000000 28.4108057700000032 O
atom 6.9629519900000014 4.4603434099999992 27.5078502799999995 Ti
atom 4.6419680100000003 2.9735622799999990 34.4707871300000050 Ti
atom 5.5448945299999997 4.4603433999999993 28.9258738500000021 O
atom 8.3810096299999994 4.4603434099999992 26.0898267700000019 O
atom 6.0600256100000003 2.9735622699999991 26.6048948700000025 O
atom 7.8658785300000016 2.9735622699999991 28.4108057700000032 O
atom 2.3209840500000003 1.4867811399999995 32.1498081600000063 Ti
atom 9.2839360500000030 5.9471245299999991 29.8288292200000029 Ti
atom 0.9029265000000000 1.4867811399999995 33.5678317600000042 O
atom 3.7390416400000004 1.4867811300000000 30.7317847200000074 O
atom 1.4180576000000003 0.0000000000000000 31.2468527900000055 O
atom 3.2239105299999999 0.0000000000000000 33.0527636599999965 O
atom 2.3209840500000003 4.4603434099999992 32.1498081700000000 Ti
atom 9.2839360399999986 2.9735622600000000 29.8288292100000021 Ti
atom 0.9029265000000000 4.4603434099999992 33.5678317600000042 O
atom 3.7390416400000004 4.4603434099999992 30.7317847200000074 O
atom 1.4180576000000003 2.9735622699999991 31.2468527900000055 O
atom 3.2239105399999999 2.9735622699999991 33.0527636599999965 O
atom 6.9629519999999996 1.4867811399999995 32.1498081800000080 Ti
atom 4.6419680100000003 0.0000000000000000 29.8288292200000029 Ti
atom 5.5448945200000006 1.4867811399999995 33.5678317600000042 O
atom 8.3810096400000020 1.4867811199999996 30.7317847200000074 O
atom 6.0600256200000020 0.0000000000000000 31.2468528100000000 O
atom 7.8658785400000006 0.0000000000000000 33.0527636800000053 O
atom 6.9629520100000022 4.4603434099999992 32.1498081800000080 Ti
atom 4.6419680100000003 2.9735622699999991 29.8288292200000029 Ti
atom 5.5448945200000006 4.4603434199999983 33.5678317700000051 O
atom 8.3810096400000020 4.4603433999999993 30.7317847100000066 O
atom 6.0600256200000020 2.9735622699999991 31.2468528100000000 O
atom 7.8658785400000006 2.9735622699999991 33.0527636800000053 O
atom 2.3209840400000008 1.4867811399999995 36.7917661500000008 Ti
atom 3.7390416200000010 1.4867811399999995 35.3737426599999978 O
atom 1.4180575900000001 0.0000000000000000 35.8888107300000030 O
atom 3.2239105299999999 0.0000000000000000 37.6947216300000036 O
atom 2.3209840400000008 4.4603433999999993 36.7917661500000008 Ti
atom 3.7390416300000004 4.4603434099999992 35.3737426599999978 O
atom 1.4180575900000001 2.9735622699999991 35.8888107300000030 O
atom 3.2239105299999999 2.9735622699999991 37.6947216300000036 O
atom 6.9629519999999996 1.4867811300000000 36.7917661600000017 Ti
atom 8.3810096299999994 1.4867811300000000 35.3737426599999978 O
atom 6.0600256000000012 0.0000000000000000 35.8888107500000046 O
atom 7.8658785300000016 0.0000000000000000 37.6947216500000053 O
atom 6.9629519900000014 4.4603434099999992 36.7917661600000017 Ti
atom 8.3810096299999994 4.4603434099999992 35.3737426500000041 O
atom 6.0600256100000003 2.9735622699999991 35.8888107500000046 O
atom 7.8658785300000016 2.9735622699999991 37.6947216500000053 O
