#===============================================================================
# Created using the Atomic Simulation Environment (ASE)

# Mon Mar 23 14:01:31 2026

#=======================================================
lattice_vector 7.6004937600000506 0.0000000000000000 0.0000000000000000 
lattice_vector -0.0000000000000672 7.6004436200000214 0.0000000000000000 
lattice_vector 0.0000000000000000 0.0000000000000000 40.6011670049998941 
atom 1.9001310010072452 1.9001059681678978 17.8652843949999607 Ti
atom 1.9001312129715018 7.6004384323265759 20.3005888899999434 Ti
atom 0.0000071590476857 1.9001061040060985 15.4300210049999862 Ti
atom 0.0000074912195991 1.9001059609826905 17.4352723549999595 O
atom 1.9001312431828492 1.9001057551420582 19.8705676149999420 O
atom 1.9001311007958919 7.6004386653524199 18.2953056199999509 O
atom 0.0000077927590865 7.6004384195118062 20.7306006299999410 O
atom 1.9001315051433874 7.6004383193031879 22.3058399899998960 O
atom 0.0000071492589678 7.6004388568215884 15.0000000399999962 O
atom 1.9001306388353387 1.9001060711913003 15.8600331149999931 O
atom 0.0000081049309926 7.6004383064884049 22.7358518999999148 Ti
atom 0.0000083368952598 1.9001053606471108 25.1711556149998898 Ti
atom 0.0000082971065656 7.6004381034625865 24.7411348399998872 O
atom 0.0000081347196713 1.9001055636729396 23.1658725349999202 O
atom 1.9001318166828196 1.9001053478323746 25.6011669149999079 O
atom 1.9001309910072113 5.7003277981679084 17.8652843949999607 Ti
atom 1.9001312129715340 3.8002166223265657 20.3005888799999639 Ti
atom 0.0000071590476504 5.7003279340061104 15.4300209949999996 Ti
atom 0.0000074812195643 5.7003278309827028 17.4352723449999729 O
atom 1.9001312331828144 5.7003275651420688 19.8705676049999340 O
atom 1.9001311007959227 3.8002168553524101 18.2953055999999492 O
atom 0.0000077927591218 3.8002166195117946 20.7306006399999490 O
atom 1.9001315051434196 3.8002165293031767 22.3058399799999165 O
atom 0.0000071492590047 3.8002170468215755 15.0000000599999908 O
atom 1.9001306388353039 5.7003279511913121 15.8600331049999994 O
atom 0.0000081049310262 3.8002165064883928 22.7358518999999148 Ti
atom 0.0000083068952297 5.7003271706471184 25.1711556449998852 Ti
atom 0.0000082971065992 3.8002162934625754 24.7411348399998872 O
atom 0.0000081047196386 5.7003273836729491 23.1658725449998997 O
atom 1.9001318066827968 5.7003271378323781 25.6011670049998941 O
atom 5.7003778410072705 1.9001059581678976 17.8652843949999607 Ti
atom 5.7003780529715273 7.6004384423265767 20.3005888899999434 Ti
atom 3.8002540290477076 1.9001061040060998 15.4300209849999987 Ti
atom 3.8002543712196184 1.9001059609826951 17.4352722949999617 O
atom 5.7003779531828744 1.9001057551420582 19.8705676149999420 O
atom 5.7003777907959163 7.6004386653524199 18.2953056199999793 O
atom 3.8002546727591211 7.6004384095118001 20.7306006999999397 O
atom 5.7003783951434110 7.6004383393031887 22.3058399799999165 O
atom 3.8002539892589882 7.6004388568215902 15.0000000000000000 O
atom 5.7003775288353618 1.9001060611913017 15.8600330949999915 O
atom 3.8002549849310219 7.6004382864884024 22.7358519299999102 Ti
atom 3.8002551968952885 1.9001053506471088 25.1711556449998852 Ti
atom 3.8002551871065959 7.6004380934625821 24.7411348899998984 O
atom 3.8002550147197023 1.9001055536729359 23.1658725849999030 O
atom 5.7003786866828534 1.9001053478323695 25.6011669849998782 O
atom 5.7003778310072377 5.7003277881679084 17.8652843949999607 Ti
atom 5.7003780429715603 3.8002166223265652 20.3005888899999718 Ti
atom 3.8002540190476726 5.7003279340061104 15.4300209749999908 Ti
atom 3.8002543612195825 5.7003278309827063 17.4352722849999608 O
atom 5.7003779431828416 5.7003275651420680 19.8705676149999420 O
atom 5.7003777907959474 3.8002168553524101 18.2953055999999776 O
atom 3.8002546727591544 3.8002166195117906 20.7306006999999397 O
atom 5.7003783851434449 3.8002165093031772 22.3058399799999165 O
atom 3.8002539892590232 3.8002170468215790 15.0000000200000017 O
atom 5.7003775288353289 5.7003279411913130 15.8600330949999986 O
atom 3.8002549849310552 3.8002164964883911 22.7358519299999102 Ti
atom 3.8002552068952595 5.7003271606471166 25.1711556849998885 Ti
atom 3.8002551871066284 3.8002162834625719 24.7411348799998905 O
atom 3.8002550347196689 5.7003273736729465 23.1658725849999030 O
atom 5.7003786866828179 5.7003271278323826 25.6011669549998828 O
