#===============================================================================
# Created using the Atomic Simulation Environment (ASE)

# Mon Mar 23 14:01:31 2026

#=======================================================
lattice_vector 7.6004937600000506 0.0000000000000000 0.0000000000000000 
lattice_vector -0.0000000000000672 7.6004436200000214 0.0000000000000000 
lattice_vector 0.0000000000000000 0.0000000000000000 47.9070276699998345 
atom 0.0000069470833561 7.6004390698474333 20.3005774249999575 Ti
atom 1.9001298031597824 1.9001067415268111 15.4300114199999996 Ti
atom 1.9001299951239130 7.6004392056855732 17.8653148249999845 Ti
atom 0.0000063433722081 1.9001067643415566 15.0000000000000000 O
atom 1.9001299153353464 1.9001065185009982 17.4352942899999874 O
atom 1.9001297229483578 7.6004394387113807 15.8600320350000104 O
atom 0.0000066349114954 7.6004391928708044 18.2953265249999859 O
atom 1.9001303472957958 7.6004391026621860 19.8705659049999568 O
atom 0.0000069570833897 3.8002172498474218 20.3005774249999433 Ti
atom 1.9001298031597578 5.7003285515268152 15.4300115000000062 Ti
atom 1.9001299951239452 3.8002173756855631 17.8653148149999836 Ti
atom 0.0000063633721814 5.7003285543415618 15.0000000599999908 O
atom 1.9001299153353197 5.7003283385010040 17.4352943499999995 O
atom 1.9001297229483922 3.8002176087113679 15.8600320450000112 O
atom 0.0000066349115273 3.8002173528707952 18.2953265249999717 O
atom 1.9001303572958310 3.8002172826621741 19.8705659149999576 O
atom 3.8002538170833775 7.6004390698474342 20.3005773949999551 Ti
atom 5.7003767431598105 1.9001067315268105 15.4300114300000004 Ti
atom 5.7003769451239377 7.6004392356855730 17.8653148249999774 Ti
atom 3.8002532433722420 1.9001067643415506 15.0000000799999995 O
atom 5.7003769553353809 1.9001065185009927 17.4352943599999648 O
atom 5.7003768829483832 7.6004393987113801 15.8600320349999819 O
atom 3.8002535149115100 7.6004391928708115 18.2953264449999793 O
atom 5.7003772172958209 7.6004391326621850 19.8705659149999576 O
atom 3.8002538170834117 3.8002172498474227 20.3005774049999488 Ti
atom 5.7003767431597838 5.7003285415268135 15.4300114999999991 Ti
atom 5.7003769351239724 3.8002173456855624 17.8653148249999632 Ti
atom 3.8002532133722151 5.7003285543415574 15.0000001299999965 O
atom 5.7003769553353392 5.7003283385010075 17.4352942999999740 O
atom 5.7003768829484178 3.8002176187113683 15.8600320449999828 O
atom 3.8002535149115442 3.8002173628708005 18.2953264549999801 O
atom 5.7003772272958564 3.8002172526621734 19.8705659249999513 O
atom 1.9001310010072452 1.9001059681678978 25.1711450599999012 Ti
atom 1.9001312129715018 7.6004384323265759 27.6064495549998838 Ti
atom 0.0000071590476857 1.9001061040060985 22.7358816699999267 Ti
atom 0.0000074912195991 1.9001059609826905 24.7411330199999000 O
atom 1.9001312431828492 1.9001057551420582 27.1764282799998824 O
atom 1.9001311007958919 7.6004386653524199 25.6011662849998913 O
atom 0.0000077927590865 7.6004384195118062 28.0364612949998815 O
atom 1.9001315051433874 7.6004383193031879 29.6117006549998365 O
atom 0.0000071492589678 7.6004388568215884 22.3058607049999367 O
atom 0.0000069968720915 1.9001063270319303 20.7305985499999537 O
atom 1.9001306388353387 1.9001060711913003 23.1658937799999336 O
atom 0.0000081049309926 7.6004383064884049 30.0417125649998553 Ti
atom 0.0000083368952598 1.9001053606471108 32.4770162799998303 Ti
atom 0.0000082971065656 7.6004381034625865 32.0469955049998276 O
atom 0.0000081347196713 1.9001055636729396 30.4717331999998606 O
atom 1.9001318166828196 1.9001053478323746 32.9070275799998484 O
atom 1.9001309910072113 5.7003277981679084 25.1711450599999012 Ti
atom 1.9001312129715340 3.8002166223265657 27.6064495449999043 Ti
atom 0.0000071590476504 5.7003279340061104 22.7358816599999400 Ti
atom 0.0000074812195643 5.7003278309827028 24.7411330099999134 O
atom 1.9001312331828144 5.7003275651420688 27.1764282699998745 O
atom 1.9001311007959227 3.8002168553524101 25.6011662649998897 O
atom 0.0000077927591218 3.8002166195117946 28.0364613049998894 O
atom 1.9001315051434196 3.8002165293031767 29.6117006449998570 O
atom 0.0000071492590047 3.8002170468215755 22.3058607249999312 O
atom 0.0000069868720568 5.7003281370319412 20.7305985399999528 O
atom 1.9001306388353039 5.7003279511913121 23.1658937699999399 O
atom 0.0000081049310262 3.8002165064883928 30.0417125649998553 Ti
atom 0.0000083068952297 5.7003271706471184 32.4770163099998257 Ti
atom 0.0000082971065992 3.8002162934625754 32.0469955049998276 O
atom 0.0000081047196386 5.7003273836729491 30.4717332099998401 O
atom 1.9001318066827968 5.7003271378323781 32.9070276699998345 O
atom 5.7003778410072705 1.9001059581678976 25.1711450599999012 Ti
atom 5.7003780529715273 7.6004384423265767 27.6064495549998838 Ti
atom 3.8002540290477076 1.9001061040060998 22.7358816499999392 Ti
atom 3.8002543712196184 1.9001059609826951 24.7411329599999021 O
atom 5.7003779531828744 1.9001057551420582 27.1764282799998824 O
atom 5.7003777907959163 7.6004386653524199 25.6011662849999198 O
atom 3.8002546727591211 7.6004384095118001 28.0364613649998802 O
atom 5.7003783951434110 7.6004383393031887 29.6117006449998570 O
atom 3.8002539892589882 7.6004388568215902 22.3058606649999405 O
atom 3.8002538268721140 1.9001063270319327 20.7305985199999583 O
atom 5.7003775288353618 1.9001060611913017 23.1658937599999319 O
atom 3.8002549849310219 7.6004382864884024 30.0417125949998507 Ti
atom 3.8002551968952885 1.9001053506471088 32.4770163099998257 Ti
atom 3.8002551871065959 7.6004380934625821 32.0469955549998389 O
atom 3.8002550147197023 1.9001055536729359 30.4717332499998435 O
atom 5.7003786866828534 1.9001053478323695 32.9070276499998187 O
atom 5.7003778310072377 5.7003277881679084 25.1711450599999012 Ti
atom 5.7003780429715603 3.8002166223265652 27.6064495549999123 Ti
atom 3.8002540190476726 5.7003279340061104 22.7358816399999313 Ti
atom 3.8002543612195825 5.7003278309827063 24.7411329499999013 O
atom 5.7003779431828416 5.7003275651420680 27.1764282799998824 O
atom 5.7003777907959474 3.8002168553524101 25.6011662649999181 O
atom 3.8002546727591544 3.8002166195117906 28.0364613649998802 O
atom 5.7003783851434449 3.8002165093031772 29.6117006449998570 O
atom 3.8002539892590232 3.8002170468215790 22.3058606849999421 O
atom 3.8002538468720779 5.7003281370319439 20.7305985099999575 O
atom 5.7003775288353289 5.7003279411913130 23.1658937599999390 O
atom 3.8002549849310552 3.8002164964883911 30.0417125949998507 Ti
atom 3.8002552068952595 5.7003271606471166 32.4770163499998290 Ti
atom 3.8002551871066284 3.8002162834625719 32.0469955449998309 O
atom 3.8002550347196689 5.7003273736729465 30.4717332499998435 O
atom 5.7003786866828179 5.7003271278323826 32.9070276199998233 O
