#===============================================================================
# Created using the Atomic Simulation Environment (ASE)

# Mon Mar 23 14:01:31 2026

#=======================================================
lattice_vector 7.6004937600000506 0.0000000000000000 0.0000000000000000 
lattice_vector -0.0000000000000672 7.6004436200000214 0.0000000000000000 
lattice_vector 0.0000000000000000 0.0000000000000000 45.4717333799998471 
atom 0.0000069470833561 7.6004390698474333 17.8652831349999701 Ti
atom 1.9001299951239130 7.6004392056855732 15.4300205349999970 Ti
atom 1.9001299153353464 1.9001065185009982 15.0000000000000000 O
atom 0.0000066349114954 7.6004391928708044 15.8600322349999985 O
atom 1.9001303472957958 7.6004391026621860 17.4352716149999694 O
atom 0.0000069570833897 3.8002172498474218 17.8652831349999559 Ti
atom 1.9001299951239452 3.8002173756855631 15.4300205249999962 Ti
atom 1.9001299153353197 5.7003283385010040 15.0000000600000121 O
atom 0.0000066349115273 3.8002173528707952 15.8600322349999843 O
atom 1.9001303572958310 3.8002172826621741 17.4352716249999702 O
atom 3.8002538170833775 7.6004390698474342 17.8652831049999676 Ti
atom 5.7003769451239377 7.6004392356855730 15.4300205349999899 Ti
atom 5.7003769553353809 1.9001065185009927 15.0000000699999774 O
atom 3.8002535149115100 7.6004391928708115 15.8600321549999919 O
atom 5.7003772172958209 7.6004391326621850 17.4352716249999702 O
atom 3.8002538170834117 3.8002172498474227 17.8652831149999614 Ti
atom 5.7003769351239724 3.8002173456855624 15.4300205349999757 Ti
atom 5.7003769553353392 5.7003283385010075 15.0000000099999866 O
atom 3.8002535149115442 3.8002173628708005 15.8600321649999927 O
atom 5.7003772272958564 3.8002172526621734 17.4352716349999639 O
atom 1.9001310010072452 1.9001059681678978 22.7358507699999137 Ti
atom 1.9001312129715018 7.6004384323265759 25.1711552649998964 Ti
atom 0.0000071590476857 1.9001061040060985 20.3005873799999392 Ti
atom 0.0000074912195991 1.9001059609826905 22.3058387299999126 O
atom 1.9001312431828492 1.9001057551420582 24.7411339899998950 O
atom 1.9001311007958919 7.6004386653524199 23.1658719949999039 O
atom 0.0000077927590865 7.6004384195118062 25.6011670049998941 O
atom 1.9001315051433874 7.6004383193031879 27.1764063649998491 O
atom 0.0000071492589678 7.6004388568215884 19.8705664149999492 O
atom 0.0000069968720915 1.9001063270319303 18.2953042599999662 O
atom 1.9001306388353387 1.9001060711913003 20.7305994899999462 O
atom 0.0000081049309926 7.6004383064884049 27.6064182749998679 Ti
atom 0.0000083368952598 1.9001053606471108 30.0417219899998429 Ti
atom 0.0000082971065656 7.6004381034625865 29.6117012149998402 O
atom 0.0000081347196713 1.9001055636729396 28.0364389099998732 O
atom 1.9001318166828196 1.9001053478323746 30.4717332899998610 O
atom 1.9001309910072113 5.7003277981679084 22.7358507699999137 Ti
atom 1.9001312129715340 3.8002166223265657 25.1711552549999169 Ti
atom 0.0000071590476504 5.7003279340061104 20.3005873699999526 Ti
atom 0.0000074812195643 5.7003278309827028 22.3058387199999260 O
atom 1.9001312331828144 5.7003275651420688 24.7411339799998871 O
atom 1.9001311007959227 3.8002168553524101 23.1658719749999022 O
atom 0.0000077927591218 3.8002166195117946 25.6011670149999020 O
atom 1.9001315051434196 3.8002165293031767 27.1764063549998696 O
atom 0.0000071492590047 3.8002170468215755 19.8705664349999438 O
atom 0.0000069868720568 5.7003281370319412 18.2953042499999654 O
atom 1.9001306388353039 5.7003279511913121 20.7305994799999525 O
atom 0.0000081049310262 3.8002165064883928 27.6064182749998679 Ti
atom 0.0000083068952297 5.7003271706471184 30.0417220199998383 Ti
atom 0.0000082971065992 3.8002162934625754 29.6117012149998402 O
atom 0.0000081047196386 5.7003273836729491 28.0364389199998527 O
atom 1.9001318066827968 5.7003271378323781 30.4717333799998471 O
atom 5.7003778410072705 1.9001059581678976 22.7358507699999137 Ti
atom 5.7003780529715273 7.6004384423265767 25.1711552649998964 Ti
atom 3.8002540290477076 1.9001061040060998 20.3005873599999518 Ti
atom 3.8002543712196184 1.9001059609826951 22.3058386699999147 O
atom 5.7003779531828744 1.9001057551420582 24.7411339899998950 O
atom 5.7003777907959163 7.6004386653524199 23.1658719949999323 O
atom 3.8002546727591211 7.6004384095118001 25.6011670749998927 O
atom 5.7003783951434110 7.6004383393031887 27.1764063549998696 O
atom 3.8002539892589882 7.6004388568215902 19.8705663749999530 O
atom 3.8002538268721140 1.9001063270319327 18.2953042299999709 O
atom 5.7003775288353618 1.9001060611913017 20.7305994699999445 O
atom 3.8002549849310219 7.6004382864884024 27.6064183049998633 Ti
atom 3.8002551968952885 1.9001053506471088 30.0417220199998383 Ti
atom 3.8002551871065959 7.6004380934625821 29.6117012649998514 O
atom 3.8002550147197023 1.9001055536729359 28.0364389599998560 O
atom 5.7003786866828534 1.9001053478323695 30.4717333599998312 O
atom 5.7003778310072377 5.7003277881679084 22.7358507699999137 Ti
atom 5.7003780429715603 3.8002166223265652 25.1711552649999248 Ti
atom 3.8002540190476726 5.7003279340061104 20.3005873499999439 Ti
atom 3.8002543612195825 5.7003278309827063 22.3058386599999139 O
atom 5.7003779431828416 5.7003275651420680 24.7411339899998950 O
atom 5.7003777907959474 3.8002168553524101 23.1658719749999307 O
atom 3.8002546727591544 3.8002166195117906 25.6011670749998927 O
atom 5.7003783851434449 3.8002165093031772 27.1764063549998696 O
atom 3.8002539892590232 3.8002170468215790 19.8705663949999547 O
atom 3.8002538468720779 5.7003281370319439 18.2953042199999700 O
atom 5.7003775288353289 5.7003279411913130 20.7305994699999516 O
atom 3.8002549849310552 3.8002164964883911 27.6064183049998633 Ti
atom 3.8002552068952595 5.7003271606471166 30.0417220599998416 Ti
atom 3.8002551871066284 3.8002162834625719 29.6117012549998435 O
atom 3.8002550347196689 5.7003273736729465 28.0364389599998560 O
atom 5.7003786866828179 5.7003271278323826 30.4717333299998359 O
