#===============================================================================
# Created using the Atomic Simulation Environment (ASE)

# Mon Mar 23 14:01:31 2026

#=======================================================
lattice_vector 7.6004937600000506 0.0000000000000000 0.0000000000000000 
lattice_vector -0.0000000000000672 7.6004436200000214 0.0000000000000000 
lattice_vector 0.0000000000000000 0.0000000000000000 77.1304288799995419 
atom 1.9001263896174401 1.9001090216035210 15.4300121099999963 Ti
atom 1.9001266015816967 7.6004414857621994 17.8653166049999754 Ti
atom 0.0000046413884537 7.6004405965652442 30.0417115549998606 Ti
atom 0.0000028798297942 1.9001090144183137 15.0000000699999951 O
atom 1.9001266317930445 1.9001088085776814 17.4352953299999669 O
atom 1.9001264894060867 7.6004417187880433 15.8600333349999865 O
atom 0.0000031813692823 7.6004414729474306 18.2953283449999695 O
atom 1.9001268937535822 7.6004413727388105 19.8705677049999494 O
atom 1.9001274974648799 1.9001082682446226 25.1711455499999097 Ti
atom 1.9001276894290100 7.6004407324033840 27.6064489549998875 Ti
atom 0.0000034935411877 7.6004413599240284 20.3005796149999469 Ti
atom 0.0000037255054556 1.9001084140827340 22.7358833299999255 Ti
atom 0.0000040376773056 1.9001082910593681 24.7411341299999101 O
atom 1.9001276096404438 1.9001080452188095 27.1764284199998976 O
atom 1.9001274172534550 7.6004409654291916 25.6011661649999134 O
atom 0.0000043292165916 7.6004407195886170 28.0364606549998889 O
atom 1.9001280416008932 7.6004406293799978 29.6117000349998598 O
atom 0.0000036857167598 7.6004411568982091 22.3058625549999299 O
atom 0.0000035233298664 1.9001086171085633 20.7306002499999487 O
atom 1.9001272052930152 1.9001084012679978 23.1658946299999293 O
atom 1.9001263796174066 5.7003308516035318 15.4300121099999963 Ti
atom 1.9001266015817289 3.8002196757621887 17.8653165949999746 Ti
atom 0.0000046513884873 3.8002187765652327 30.0417115549998464 Ti
atom 0.0000028698297595 5.7003308844183254 15.0000000600000050 O
atom 1.9001266217930097 5.7003306185776923 17.4352953199999696 O
atom 1.9001264894061181 3.8002199087880340 15.8600333149999848 O
atom 0.0000031813693159 3.8002196729474185 18.2953283549999774 O
atom 1.9001268937536144 3.8002195827388001 19.8705676949999521 O
atom 1.9001274974648552 5.7003300782446269 25.1711456299999092 Ti
atom 1.9001276894290422 3.8002189024033743 27.6064489449998867 Ti
atom 0.0000034935412213 3.8002195599240163 20.3005796149999540 Ti
atom 0.0000036955054255 5.7003302240827427 22.7358833599999350 Ti
atom 0.0000040576772790 5.7003300810593736 24.7411341899999009 O
atom 1.9001276096404167 5.7003298652188157 27.1764284799999025 O
atom 1.9001274172534897 3.8002191354291797 25.6011661749999213 O
atom 0.0000043292166252 3.8002188795886069 28.0364606549998747 O
atom 1.9001280516009280 3.8002188093799862 29.6117000449998535 O
atom 0.0000036857167933 3.8002193468981984 22.3058625549999299 O
atom 0.0000034933298344 5.7003304371085726 20.7306002599999495 O
atom 1.9001271952929917 5.7003301912680016 23.1658947199999297 O
atom 5.7003732296174654 1.9001090116035209 15.4300121099999963 Ti
atom 5.7003734415817222 7.6004414957621993 17.8653166049999754 Ti
atom 3.8002515113884754 7.6004405965652468 30.0417115249998510 Ti
atom 3.8002497598298133 1.9001090144183184 15.0000000100000008 O
atom 5.7003733417930693 1.9001088085776814 17.4352953299999882 O
atom 5.7003731794061112 7.6004417187880433 15.8600333350000078 O
atom 3.8002500613693160 7.6004414629474244 18.2953284149999718 O
atom 5.7003737837536059 7.6004413927388121 19.8705676949999450 O
atom 5.7003744374649061 1.9001082582446223 25.1711455599998963 Ti
atom 5.7003746394290360 7.6004407624033847 27.6064489549998733 Ti
atom 3.8002503735412168 7.6004413399240258 20.3005796449999494 Ti
atom 3.8002505855054833 1.9001084040827321 22.7358833599999350 Ti
atom 3.8002509376773403 1.9001082910593625 24.7411342099999025 O
atom 5.7003746496404775 1.9001080452188042 27.1764284899998749 O
atom 5.7003745772534806 7.6004409254291918 25.6011661649998850 O
atom 3.8002512092166070 7.6004407195886232 28.0364605749998823 O
atom 5.7003749116009192 7.6004406593799967 29.6117000449998677 O
atom 3.8002505757167913 7.6004411468982056 22.3058626049999269 O
atom 3.8002504033298981 1.9001086071085591 20.7306002999999421 O
atom 5.7003740752930492 1.9001084012679927 23.1658946999999280 O
atom 5.7003732196174317 5.7003308416035319 15.4300121099999998 Ti
atom 5.7003734315817551 3.8002196757621878 17.8653166049999754 Ti
atom 3.8002515113885096 3.8002187765652349 30.0417115349998589 Ti
atom 3.8002497498297783 5.7003308844183307 15.0000000000000000 O
atom 5.7003733317930365 5.7003306185776914 17.4352953299999882 O
atom 5.7003731794061423 3.8002199087880340 15.8600333150000061 O
atom 3.8002500613693502 3.8002196729474131 18.2953284149999718 O
atom 5.7003737737536397 3.8002195627388007 19.8705676949999521 O
atom 5.7003744374648821 5.7003300682446261 25.1711456299998950 Ti
atom 5.7003746294290698 3.8002188724033732 27.6064489549998733 Ti
atom 3.8002503735412501 3.8002195499240150 20.3005796449999529 Ti
atom 3.8002505955054544 5.7003302140827392 22.7358833999999241 Ti
atom 3.8002509076773130 5.7003300810593691 24.7411342599999138 O
atom 5.7003746496404366 5.7003298652188192 27.1764284299998842 O
atom 5.7003745772535162 3.8002191454291792 25.6011661749998787 O
atom 3.8002512092166421 3.8002188895886122 28.0364605849998760 O
atom 5.7003749216009538 3.8002187793799851 29.6117000549998615 O
atom 3.8002505757168237 3.8002193368981958 22.3058625949999261 O
atom 3.8002504233298646 5.7003304271085709 20.7306002999999492 O
atom 5.7003740752930128 5.7003301812680052 23.1658946699999326 O
atom 1.9001286953123426 1.9001074948857091 34.9122791899998077 Ti
atom 1.9001289072765992 7.6004399590443876 37.3475836849997904 Ti
atom 0.0000069470833561 7.6004390698474333 49.5239786349996649 Ti
atom 0.0000048533527836 1.9001076307239100 32.4770157999998332 Ti
atom 0.0000051855246966 1.9001074877005020 34.4822671499998137 O
atom 1.9001289374879471 1.9001072818598694 36.9175624099997748 O
atom 1.9001287951009893 7.6004401920702316 35.3423004149997979 O
atom 0.0000054870641861 7.6004399462296170 37.7775954249997881 O
atom 1.9001291994484848 7.6004398460209996 39.3528347849997573 O
atom 0.0000048435640657 7.6004403835393992 32.0469948349998361 O
atom 0.0000046911771891 1.9001078537497420 30.4717326799998496 O
atom 1.9001283331404362 1.9001075979091115 32.9070279099998260 O
atom 1.9001298031597824 1.9001067415268111 44.6534126299997070 Ti
atom 1.9001299951239130 7.6004392056855732 47.0887160349996918 Ti
atom 0.0000057992360902 7.6004398332062166 39.7828466949997619 Ti
atom 0.0000060312003577 1.9001068873649223 42.2181504099997369 Ti
atom 0.0000063433722081 1.9001067643415566 44.2234012099997074 O
atom 1.9001299153353464 1.9001065185009982 46.6586954999996948 O
atom 1.9001297229483578 7.6004394387113807 45.0834332449997248 O
atom 0.0000066349114954 7.6004391928708044 47.5187277349997004 O
atom 1.9001303472957958 7.6004391026621860 49.0939671149996713 O
atom 0.0000059914116635 7.6004396301803974 41.7881296349997342 O
atom 0.0000058290247688 1.9001070903907513 40.2128673299997672 O
atom 1.9001295109879175 1.9001068745501861 42.6481617099997266 O
atom 1.9001286853123092 5.7003293248857192 34.9122791899998077 Ti
atom 1.9001289072766314 3.8002181490443769 37.3475836749997825 Ti
atom 0.0000069570833897 3.8002172498474218 49.5239786349996507 Ti
atom 0.0000048533527483 5.7003294607239203 32.4770157899998395 Ti
atom 0.0000051755246619 5.7003293577005127 34.4822671399998200 O
atom 1.9001289274879123 5.7003290918598797 36.9175623999997811 O
atom 1.9001287951010206 3.8002183820702218 35.3423003949997820 O
atom 0.0000054870642197 3.8002181462296067 37.7775954349997818 O
atom 1.9001291994485170 3.8002180560209888 39.3528347749997636 O
atom 0.0000048435641009 3.8002185735393876 32.0469948549998378 O
atom 0.0000046811771544 5.7003296637497529 30.4717326699998559 O
atom 1.9001283331404015 5.7003294779091229 32.9070278999998465 O
atom 1.9001298031597578 5.7003285515268152 44.6534127099997136 Ti
atom 1.9001299951239452 3.8002173756855631 47.0887160249996981 Ti
atom 0.0000057992361237 3.8002180332062045 39.7828466949997619 Ti
atom 0.0000060012003276 5.7003286973649301 42.2181504399997323 Ti
atom 0.0000063633721814 5.7003285543415618 44.2234012699996981 O
atom 1.9001299153353197 5.7003283385010040 46.6586955599997140 O
atom 1.9001297229483922 3.8002176087113679 45.0834332549997185 O
atom 0.0000066349115273 3.8002173528707952 47.5187277349996862 O
atom 1.9001303572958310 3.8002172826621741 49.0939671249996650 O
atom 0.0000059914116971 3.8002178201803871 41.7881296349997342 O
atom 0.0000057990247365 5.7003289103907600 40.2128673399997609 O
atom 1.9001295009878942 5.7003286645501889 42.6481617999997411 O
atom 5.7003755353123688 1.9001074848857091 34.9122791899998077 Ti
atom 5.7003757472766265 7.6004399690443867 37.3475836849997904 Ti
atom 3.8002538170833775 7.6004390698474342 49.5239786049996695 Ti
atom 3.8002517233528046 1.9001076307239118 32.4770157799998316 Ti
atom 3.8002520655247154 1.9001074877005066 34.4822670899998087 O
atom 5.7003756474879737 1.9001072818598694 36.9175624099998032 O
atom 5.7003754851010147 7.6004401920702316 35.3423004149998121 O
atom 3.8002523670642181 7.6004399362296127 37.7775954949997868 O
atom 5.7003760894485094 7.6004398660209995 39.3528347749997494 O
atom 3.8002516835640852 7.6004403835394019 32.0469947949998328 O
atom 3.8002515211772110 1.9001078537497444 30.4717326499998613 O
atom 5.7003752231404592 1.9001075879091132 32.9070278899998243 O
atom 5.7003767431598105 1.9001067315268105 44.6534126399997149 Ti
atom 5.7003769451239377 7.6004392356855730 47.0887160349996918 Ti
atom 3.8002526792361189 7.6004398132062141 39.7828467249997573 Ti
atom 3.8002528912003855 1.9001068773649201 42.2181504399997323 Ti
atom 3.8002532433722420 1.9001067643415506 44.2234012899997140 O
atom 5.7003769553353809 1.9001065185009927 46.6586955699996793 O
atom 5.7003768829483832 7.6004393987113801 45.0834332449996964 O
atom 3.8002535149115100 7.6004391928708115 47.5187276549996938 O
atom 5.7003772172958209 7.6004391326621850 49.0939671249996650 O
atom 3.8002528814116929 7.6004396201803930 41.7881296849997455 O
atom 3.8002527090248002 1.9001070803907476 40.2128673799997642 O
atom 5.7003763809879526 1.9001068745501808 42.6481617799997395 O
atom 5.7003755253123360 5.7003293148857193 34.9122791899998077 Ti
atom 5.7003757372766586 3.8002181490443765 37.3475836849997904 Ti
atom 3.8002538170834117 3.8002172498474227 49.5239786149996633 Ti
atom 3.8002517133527705 5.7003294607239221 32.4770157699998379 Ti
atom 3.8002520555246804 5.7003293577005181 34.4822670799998150 O
atom 5.7003756374879400 5.7003290918598797 36.9175624099998032 O
atom 5.7003754851010466 3.8002183820702222 35.3423003949998105 O
atom 3.8002523670642523 3.8002181462296023 37.7775954949997868 O
atom 5.7003760794485441 3.8002180360209894 39.3528347749997636 O
atom 3.8002516835641211 3.8002185735393907 32.0469948149998487 O
atom 3.8002515411771758 5.7003296637497556 30.4717326399998676 O
atom 5.7003752231404254 5.7003294679091239 32.9070278899998385 O
atom 5.7003767431597838 5.7003285415268135 44.6534127099997136 Ti
atom 5.7003769351239724 3.8002173456855624 47.0887160349996776 Ti
atom 3.8002526792361522 3.8002180232062037 39.7828467249997573 Ti
atom 3.8002529012003565 5.7003286873649266 42.2181504799997356 Ti
atom 3.8002532133722151 5.7003285543415574 44.2234013399997110 O
atom 5.7003769553353392 5.7003283385010075 46.6586955099996885 O
atom 5.7003768829484178 3.8002176187113683 45.0834332549996901 O
atom 3.8002535149115442 3.8002173628708005 47.5187276649996875 O
atom 5.7003772272958564 3.8002172526621734 49.0939671349996587 O
atom 3.8002528814117258 3.8002178101803841 41.7881296749997375 O
atom 3.8002527290247667 5.7003289003907582 40.2128673799997642 O
atom 5.7003763809879144 5.7003286545501926 42.6481617499997299 O
atom 1.9001310010072452 1.9001059681678978 54.3945462699996085 Ti
atom 1.9001312129715018 7.6004384323265759 56.8298507649995912 Ti
atom 0.0000071590476857 1.9001061040060985 51.9592828799996340 Ti
atom 0.0000074912195991 1.9001059609826905 53.9645342299996145 O
atom 1.9001312431828492 1.9001057551420582 56.3998294899995898 O
atom 1.9001311007958919 7.6004386653524199 54.8245674949995987 O
atom 0.0000077927590865 7.6004384195118062 57.2598625049995889 O
atom 1.9001315051433874 7.6004383193031879 58.8351018649995439 O
atom 0.0000071492589678 7.6004388568215884 51.5292619149996511 O
atom 0.0000069968720915 1.9001063270319303 49.9539997599996610 O
atom 1.9001306388353387 1.9001060711913003 52.3892949899996410 O
atom 0.0000081049309926 7.6004383064884049 59.2651137749995627 Ti
atom 0.0000083368952598 1.9001053606471108 61.7004174899995377 Ti
atom 0.0000082971065656 7.6004381034625865 61.2703967149995350 O
atom 0.0000081347196713 1.9001055636729396 59.6951344099995680 O
atom 1.9001318166828196 1.9001053478323746 62.1304287899995558 O
atom 1.9001309910072113 5.7003277981679084 54.3945462699996085 Ti
atom 1.9001312129715340 3.8002166223265657 56.8298507549996117 Ti
atom 0.0000071590476504 5.7003279340061104 51.9592828699996545 Ti
atom 0.0000074812195643 5.7003278309827028 53.9645342199996207 O
atom 1.9001312331828144 5.7003275651420688 56.3998294799995818 O
atom 1.9001311007959227 3.8002168553524101 54.8245674749995970 O
atom 0.0000077927591218 3.8002166195117946 57.2598625149995968 O
atom 1.9001315051434196 3.8002165293031767 58.8351018549995644 O
atom 0.0000071492590047 3.8002170468215755 51.5292619349996386 O
atom 0.0000069868720568 5.7003281370319412 49.9539997499996673 O
atom 1.9001306388353039 5.7003279511913121 52.3892949799996472 O
atom 0.0000081049310262 3.8002165064883928 59.2651137749995627 Ti
atom 0.0000083068952297 5.7003271706471184 61.7004175199995331 Ti
atom 0.0000082971065992 3.8002162934625754 61.2703967149995350 O
atom 0.0000081047196386 5.7003273836729491 59.6951344199995475 O
atom 1.9001318066827968 5.7003271378323781 62.1304288799995419 O
atom 5.7003778410072705 1.9001059581678976 54.3945462699996085 Ti
atom 5.7003780529715273 7.6004384423265767 56.8298507649995912 Ti
atom 3.8002540290477076 1.9001061040060998 51.9592828599996466 Ti
atom 3.8002543712196184 1.9001059609826951 53.9645341699996095 O
atom 5.7003779531828744 1.9001057551420582 56.3998294899995898 O
atom 5.7003777907959163 7.6004386653524199 54.8245674949996271 O
atom 3.8002546727591211 7.6004384095118001 57.2598625749995875 O
atom 5.7003783951434110 7.6004383393031887 58.8351018549995644 O
atom 3.8002539892589882 7.6004388568215902 51.5292618749996478 O
atom 3.8002538268721140 1.9001063270319327 49.9539997299996656 O
atom 5.7003775288353618 1.9001060611913017 52.3892949699996393 O
atom 3.8002549849310219 7.6004382864884024 59.2651138049995581 Ti
atom 3.8002551968952885 1.9001053506471088 61.7004175199995331 Ti
atom 3.8002551871065959 7.6004380934625821 61.2703967649995462 O
atom 3.8002550147197023 1.9001055536729359 59.6951344599995508 O
atom 5.7003786866828534 1.9001053478323695 62.1304288599995260 O
atom 5.7003778310072377 5.7003277881679084 54.3945462699996085 Ti
atom 5.7003780429715603 3.8002166223265652 56.8298507649996196 Ti
atom 3.8002540190476726 5.7003279340061104 51.9592828499996386 Ti
atom 3.8002543612195825 5.7003278309827063 53.9645341599996158 O
atom 5.7003779431828416 5.7003275651420680 56.3998294899995898 O
atom 5.7003777907959474 3.8002168553524101 54.8245674749996255 O
atom 3.8002546727591544 3.8002166195117906 57.2598625749995875 O
atom 5.7003783851434449 3.8002165093031772 58.8351018549995644 O
atom 3.8002539892590232 3.8002170468215790 51.5292618949996495 O
atom 3.8002538468720779 5.7003281370319439 49.9539997199996719 O
atom 5.7003775288353289 5.7003279411913130 52.3892949699996535 O
atom 3.8002549849310552 3.8002164964883911 59.2651138049995581 Ti
atom 3.8002552068952595 5.7003271606471166 61.7004175599995364 Ti
atom 3.8002551871066284 3.8002162834625719 61.2703967549995383 O
atom 3.8002550347196689 5.7003273736729465 59.6951344599995508 O
atom 5.7003786866828179 5.7003271278323826 62.1304288299995306 O
