#===============================================================================
# Created using the Atomic Simulation Environment (ASE)

# Mon Mar 23 14:01:35 2026

#=======================================================
lattice_vector 9.2839361000000000 0.0000000000000000 0.0000000000000000 
lattice_vector 0.0000000000000000 5.9471245399999999 0.0000000000000000 
lattice_vector 0.0000000000000000 0.0000000000000000 43.4108057700000032 
atom 9.2839360399999986 0.0000000100000000 15.9029553600000000 Ti
atom 9.2839360299999996 2.9735622699999991 15.9029553600000000 Ti
atom 4.6419680000000003 0.0000000100000000 15.9029553700000008 Ti
atom 4.6419680100000003 2.9735622799999990 15.9029553700000008 Ti
atom 0.9029265000000000 1.4867811399999995 15.0000000000000000 O
atom 0.9029265000000000 4.4603434099999992 15.0000000000000000 O
atom 5.5448945200000006 1.4867811399999995 15.0000000000000000 O
atom 5.5448945200000006 4.4603434199999983 15.0000000100000008 O
atom 2.3209840400000008 1.4867811399999995 18.2239343900000037 Ti
atom 9.2839360399999986 0.0000000100000000 25.1868712400000021 Ti
atom 0.9029265000000000 1.4867811300000000 19.6419579600000063 O
atom 3.7390416200000010 1.4867811399999995 16.8059109000000007 O
atom 1.4180575900000001 0.0000000000000000 17.3209789700000059 O
atom 3.2239105299999999 0.0000000000000000 19.1268898699999994 O
atom 2.3209840400000008 4.4603433999999993 18.2239343900000037 Ti
atom 9.2839360299999996 2.9735622699999991 25.1868712400000021 Ti
atom 0.9029265000000000 4.4603433999999993 19.6419579600000063 O
atom 3.7390416300000004 4.4603434099999992 16.8059109000000007 O
atom 1.4180575900000001 2.9735622699999991 17.3209789700000059 O
atom 3.2239105299999999 2.9735622699999991 19.1268898699999994 O
atom 6.9629519999999996 1.4867811300000000 18.2239343999999974 Ti
atom 4.6419680000000003 0.0000000100000000 25.1868712500000029 Ti
atom 5.5448945299999997 1.4867811300000000 19.6419579700000000 O
atom 8.3810096299999994 1.4867811300000000 16.8059109000000007 O
atom 6.0600256000000012 0.0000000000000000 17.3209789900000004 O
atom 7.8658785300000016 0.0000000000000000 19.1268898900000011 O
atom 6.9629519900000014 4.4603434099999992 18.2239343999999974 Ti
atom 4.6419680100000003 2.9735622799999990 25.1868712500000029 Ti
atom 5.5448945299999997 4.4603433999999993 19.6419579700000000 O
atom 8.3810096299999994 4.4603434099999992 16.8059108899999998 O
atom 6.0600256100000003 2.9735622699999991 17.3209789900000004 O
atom 7.8658785300000016 2.9735622699999991 19.1268898900000011 O
atom 2.3209840500000003 1.4867811399999995 22.8658922800000042 Ti
atom 9.2839360500000030 5.9471245299999991 20.5449133400000008 Ti
atom 0.9029265000000000 1.4867811399999995 24.2839158800000021 O
atom 3.7390416400000004 1.4867811300000000 21.4478688400000053 O
atom 1.4180576000000003 0.0000000000000000 21.9629369100000034 O
atom 3.2239105299999999 0.0000000000000000 23.7688477799999944 O
atom 2.3209840500000003 4.4603434099999992 22.8658922899999979 Ti
atom 9.2839360399999986 2.9735622600000000 20.5449133300000000 Ti
atom 0.9029265000000000 4.4603434099999992 24.2839158800000021 O
atom 3.7390416400000004 4.4603434099999992 21.4478688400000053 O
atom 1.4180576000000003 2.9735622699999991 21.9629369100000034 O
atom 3.2239105399999999 2.9735622699999991 23.7688477799999944 O
atom 6.9629519999999996 1.4867811399999995 22.8658923000000058 Ti
atom 4.6419680100000003 0.0000000000000000 20.5449133400000008 Ti
atom 5.5448945200000006 1.4867811399999995 24.2839158800000021 O
atom 8.3810096400000020 1.4867811199999996 21.4478688400000053 O
atom 6.0600256200000020 0.0000000000000000 21.9629369299999979 O
atom 7.8658785400000006 0.0000000000000000 23.7688478000000032 O
atom 6.9629520100000022 4.4603434099999992 22.8658923000000058 Ti
atom 4.6419680100000003 2.9735622699999991 20.5449133400000008 Ti
atom 5.5448945200000006 4.4603434199999983 24.2839158900000029 O
atom 8.3810096400000020 4.4603433999999993 21.4478688300000044 O
atom 6.0600256200000020 2.9735622699999991 21.9629369299999979 O
atom 7.8658785400000006 2.9735622699999991 23.7688478000000032 O
atom 2.3209840400000008 1.4867811399999995 27.5078502699999987 Ti
atom 3.7390416200000010 1.4867811399999995 26.0898267799999957 O
atom 1.4180575900000001 0.0000000000000000 26.6048948500000009 O
atom 3.2239105299999999 0.0000000000000000 28.4108057500000015 O
atom 2.3209840400000008 4.4603433999999993 27.5078502699999987 Ti
atom 3.7390416300000004 4.4603434099999992 26.0898267799999957 O
atom 1.4180575900000001 2.9735622699999991 26.6048948500000009 O
atom 3.2239105299999999 2.9735622699999991 28.4108057500000015 O
atom 6.9629519999999996 1.4867811300000000 27.5078502799999995 Ti
atom 8.3810096299999994 1.4867811300000000 26.0898267799999957 O
atom 6.0600256000000012 0.0000000000000000 26.6048948700000025 O
atom 7.8658785300000016 0.0000000000000000 28.4108057700000032 O
atom 6.9629519900000014 4.4603434099999992 27.5078502799999995 Ti
atom 8.3810096299999994 4.4603434099999992 26.0898267700000019 O
atom 6.0600256100000003 2.9735622699999991 26.6048948700000025 O
atom 7.8658785300000016 2.9735622699999991 28.4108057700000032 O
