#===============================================================================
# Created using the Atomic Simulation Environment (ASE)

# Mon Mar 23 14:01:32 2026

#=======================================================
lattice_vector 10.7486859018486420 0.0000000000000000 0.0000000000000000 
lattice_vector -0.0000027099268353 19.4822670799998114 0.0000000000000000 
lattice_vector 0.0000000000000000 0.0000000000000000 31.3435858976845445 
atom 0.0001401652481477 11.7463936922169268 16.3435857835076916 O
atom 0.0001394009996542 17.4769942822168716 16.3435857997296381 O
atom 0.0001415096048061 2.0052613822170260 16.3435857870432670 O
atom 0.0001407453566542 7.7358594822169708 16.3435858032652064 O
atom 4.0308884918045029 12.1764054802033641 15.0000000530328812 Ti
atom 1.3437162946662828 17.0469733652033071 15.0000000441941879 Ti
atom 1.3437165953252956 15.0417220152033337 15.0000001424612641 O
atom 4.0308882477105028 14.1816887602033503 15.0000001951819364 O
atom 4.0308887641791653 10.1711543802033830 15.0000001371579117 O
atom 1.3437160293588848 19.0522564852032836 15.0000001227037068 O
atom 2.6873109119633494 16.6169612172168719 16.3435858100243685 O
atom 4.0308898078767230 2.4352731302034534 15.0000000000000000 Ti
atom 1.3437176460943063 7.3058387152034037 15.0000000406586693 Ti
atom 1.3437180033217933 5.3005878852034387 15.0000001389255608 O
atom 2.6873128364283385 2.8652935572170093 16.3435857343224917 O
atom 4.0308894506453221 4.4405559002034263 15.0000000290123445 O
atom 4.0308901297490101 0.4300220302034803 15.0000001336223434 O
atom 1.3437173525025949 9.3111218152033821 15.0000001050261460 O
atom 2.6873123128886705 6.8758273172169773 16.3435857852754758 O
atom 9.4052314073734191 12.1764054702033615 15.0000000318197948 Ti
atom 6.7180592526616039 17.0469733752033044 15.0000000229809665 Ti
atom 6.7180595957469693 15.0417220652033379 15.0000001071057625 O
atom 8.0616544429958843 12.6064267072169134 16.3435857307869270 O
atom 9.4052310642840933 14.1816887402033327 15.0000000608320931 O
atom 9.4052317221745732 10.1711543802033830 15.0000001442289488 O
atom 6.7180589519988390 19.0522565052032888 15.0000000944195300 O
atom 8.0616539265271108 16.6169612272168763 16.3435857605266825 O
atom 9.4052327729434584 2.4352731202034614 15.0000000848527648 Ti
atom 6.7180606111607641 7.3058387152034099 15.0000000406586267 Ti
atom 6.7180609401040234 5.3005878652034362 15.0000001530677345 O
atom 9.4052326137022781 4.4405559102034537 15.0000002128594119 O
atom 9.4052330382469691 0.4300220302034776 15.0000001477646165 O
atom 6.7180603387822817 9.3111217752033877 15.0000001120970907 O
atom 8.0616552496708938 6.8758273372169727 16.3435857994176565 O
atom 5.3744831091014342 11.7463936222169281 16.3435857905787856 O
atom 5.3744823236396080 17.4769943022168661 16.3435857714454578 O
atom 5.3744844746712159 2.0052614522170260 16.3435857729010792 O
atom 5.3744837104231182 7.7358594422169720 16.3435858032651602 O
atom 0.0001418173347529 0.0000104822170469 16.3435858640971077 Ti
atom 0.0001404659070968 9.7411424222169529 16.3435858676326298 Ti
atom 2.6873112691908334 14.6117099272169035 16.3435858941491183 Ti
atom 2.6873116052090276 12.6064267172169302 16.3435858439236412 O
atom 2.6873126064764823 4.8705764072170012 16.3435858623293697 Ti
atom 8.0616542201150221 14.6117099272169035 16.3435858517227146 Ti
atom 8.0616556068983805 4.8705764772170026 16.3435858976845445 Ti
atom 8.0616559075611676 2.8652935472170316 16.3435858403881156 O
atom 5.3744847682590278 0.0000105022170479 16.3435858499549802 Ti
atom 5.3744834168314268 9.7411423922169504 16.3435858676326298 Ti
