#===============================================================================
# Created using the Atomic Simulation Environment (ASE)

# Mon Mar 23 14:01:35 2026

#=======================================================
lattice_vector 9.2839361000000000 0.0000000000000000 0.0000000000000000 
lattice_vector 0.0000000000000000 5.9471245399999999 0.0000000000000000 
lattice_vector 0.0000000000000000 0.0000000000000000 45.7317847400000019 
atom 9.2839360399999986 0.0000000100000000 18.2239343299999987 Ti
atom 9.2839360299999996 2.9735622699999991 18.2239343299999987 Ti
atom 4.6419680000000003 0.0000000100000000 18.2239343399999996 Ti
atom 4.6419680100000003 2.9735622799999990 18.2239343399999996 Ti
atom 2.3209840500000003 1.4867811399999995 15.9029553700000008 Ti
atom 0.9029265000000000 1.4867811399999995 17.3209789699999988 O
atom 1.4180576000000003 0.0000000000000000 15.0000000000000000 O
atom 3.2239105299999999 0.0000000000000000 16.8059108699999982 O
atom 2.3209840500000003 4.4603434099999992 15.9029553800000016 Ti
atom 0.9029265000000000 4.4603434099999992 17.3209789699999988 O
atom 1.4180576000000003 2.9735622699999991 15.0000000000000000 O
atom 3.2239105399999999 2.9735622699999991 16.8059108699999982 O
atom 6.9629519999999996 1.4867811399999995 15.9029553899999989 Ti
atom 5.5448945200000006 1.4867811399999995 17.3209789699999988 O
atom 6.0600256200000020 0.0000000000000000 15.0000000199999981 O
atom 7.8658785400000006 0.0000000000000000 16.8059108899999998 O
atom 6.9629520100000022 4.4603434099999992 15.9029553899999989 Ti
atom 5.5448945200000006 4.4603434199999983 17.3209789799999996 O
atom 6.0600256200000020 2.9735622699999991 15.0000000199999981 O
atom 7.8658785400000006 2.9735622699999991 16.8059108899999998 O
atom 2.3209840400000008 1.4867811399999995 20.5449133600000025 Ti
atom 9.2839360399999986 0.0000000100000000 27.5078502100000009 Ti
atom 0.9029265000000000 1.4867811300000000 21.9629369300000050 O
atom 3.7390416200000010 1.4867811399999995 19.1268898699999994 O
atom 1.4180575900000001 0.0000000000000000 19.6419579400000046 O
atom 3.2239105299999999 0.0000000000000000 21.4478688399999982 O
atom 2.3209840400000008 4.4603433999999993 20.5449133600000025 Ti
atom 9.2839360299999996 2.9735622699999991 27.5078502100000009 Ti
atom 0.9029265000000000 4.4603433999999993 21.9629369300000050 O
atom 3.7390416300000004 4.4603434099999992 19.1268898699999994 O
atom 1.4180575900000001 2.9735622699999991 19.6419579400000046 O
atom 3.2239105299999999 2.9735622699999991 21.4478688399999982 O
atom 6.9629519999999996 1.4867811300000000 20.5449133699999962 Ti
atom 4.6419680000000003 0.0000000100000000 27.5078502200000017 Ti
atom 5.5448945299999997 1.4867811300000000 21.9629369399999987 O
atom 8.3810096299999994 1.4867811300000000 19.1268898699999994 O
atom 6.0600256000000012 0.0000000000000000 19.6419579599999992 O
atom 7.8658785300000016 0.0000000000000000 21.4478688599999998 O
atom 6.9629519900000014 4.4603434099999992 20.5449133699999962 Ti
atom 4.6419680100000003 2.9735622799999990 27.5078502200000017 Ti
atom 5.5448945299999997 4.4603433999999993 21.9629369399999987 O
atom 8.3810096299999994 4.4603434099999992 19.1268898599999986 O
atom 6.0600256100000003 2.9735622699999991 19.6419579599999992 O
atom 7.8658785300000016 2.9735622699999991 21.4478688599999998 O
atom 2.3209840500000003 1.4867811399999995 25.1868712500000029 Ti
atom 9.2839360500000030 5.9471245299999991 22.8658923099999996 Ti
atom 0.9029265000000000 1.4867811399999995 26.6048948500000009 O
atom 3.7390416400000004 1.4867811300000000 23.7688478100000040 O
atom 1.4180576000000003 0.0000000000000000 24.2839158800000021 O
atom 3.2239105299999999 0.0000000000000000 26.0898267499999932 O
atom 2.3209840500000003 4.4603434099999992 25.1868712599999967 Ti
atom 9.2839360399999986 2.9735622600000000 22.8658922999999987 Ti
atom 0.9029265000000000 4.4603434099999992 26.6048948500000009 O
atom 3.7390416400000004 4.4603434099999992 23.7688478100000040 O
atom 1.4180576000000003 2.9735622699999991 24.2839158800000021 O
atom 3.2239105399999999 2.9735622699999991 26.0898267499999932 O
atom 6.9629519999999996 1.4867811399999995 25.1868712700000046 Ti
atom 4.6419680100000003 0.0000000000000000 22.8658923099999996 Ti
atom 5.5448945200000006 1.4867811399999995 26.6048948500000009 O
atom 8.3810096400000020 1.4867811199999996 23.7688478100000040 O
atom 6.0600256200000020 0.0000000000000000 24.2839158999999967 O
atom 7.8658785400000006 0.0000000000000000 26.0898267700000019 O
atom 6.9629520100000022 4.4603434099999992 25.1868712700000046 Ti
atom 4.6419680100000003 2.9735622699999991 22.8658923099999996 Ti
atom 5.5448945200000006 4.4603434199999983 26.6048948600000017 O
atom 8.3810096400000020 4.4603433999999993 23.7688478000000032 O
atom 6.0600256200000020 2.9735622699999991 24.2839158999999967 O
atom 7.8658785400000006 2.9735622699999991 26.0898267700000019 O
atom 2.3209840400000008 1.4867811399999995 29.8288292399999975 Ti
atom 3.7390416200000010 1.4867811399999995 28.4108057499999944 O
atom 1.4180575900000001 0.0000000000000000 28.9258738199999996 O
atom 3.2239105299999999 0.0000000000000000 30.7317847200000003 O
atom 2.3209840400000008 4.4603433999999993 29.8288292399999975 Ti
atom 3.7390416300000004 4.4603434099999992 28.4108057499999944 O
atom 1.4180575900000001 2.9735622699999991 28.9258738199999996 O
atom 3.2239105299999999 2.9735622699999991 30.7317847200000003 O
atom 6.9629519999999996 1.4867811300000000 29.8288292499999983 Ti
atom 8.3810096299999994 1.4867811300000000 28.4108057499999944 O
atom 6.0600256000000012 0.0000000000000000 28.9258738400000013 O
atom 7.8658785300000016 0.0000000000000000 30.7317847400000019 O
atom 6.9629519900000014 4.4603434099999992 29.8288292499999983 Ti
atom 8.3810096299999994 4.4603434099999992 28.4108057400000007 O
atom 6.0600256100000003 2.9735622699999991 28.9258738400000013 O
atom 7.8658785300000016 2.9735622699999991 30.7317847400000019 O
