#===============================================================================
# Created using the Atomic Simulation Environment (ASE)

# Mon Mar 23 14:01:35 2026

#=======================================================
lattice_vector 9.2839361000000000 0.0000000000000000 0.0000000000000000 
lattice_vector 0.0000000000000000 5.9471245399999999 0.0000000000000000 
lattice_vector 0.0000000000000000 0.0000000000000000 34.1268898900000011 
atom 9.2839360399999986 0.0000000100000000 15.9029553600000000 Ti
atom 9.2839360299999996 2.9735622699999991 15.9029553600000000 Ti
atom 4.6419680000000003 0.0000000100000000 15.9029553700000008 Ti
atom 4.6419680100000003 2.9735622799999990 15.9029553700000008 Ti
atom 0.9029265000000000 1.4867811399999995 15.0000000000000000 O
atom 0.9029265000000000 4.4603434099999992 15.0000000000000000 O
atom 5.5448945200000006 1.4867811399999995 15.0000000000000000 O
atom 5.5448945200000006 4.4603434199999983 15.0000000100000008 O
atom 2.3209840400000008 1.4867811399999995 18.2239343899999966 Ti
atom 3.7390416200000010 1.4867811399999995 16.8059108999999935 O
atom 1.4180575900000001 0.0000000000000000 17.3209789699999988 O
atom 3.2239105299999999 0.0000000000000000 19.1268898699999994 O
atom 2.3209840400000008 4.4603433999999993 18.2239343899999966 Ti
atom 3.7390416300000004 4.4603434099999992 16.8059108999999935 O
atom 1.4180575900000001 2.9735622699999991 17.3209789699999988 O
atom 3.2239105299999999 2.9735622699999991 19.1268898699999994 O
atom 6.9629519999999996 1.4867811300000000 18.2239343999999974 Ti
atom 8.3810096299999994 1.4867811300000000 16.8059108999999935 O
atom 6.0600256000000012 0.0000000000000000 17.3209789900000004 O
atom 7.8658785300000016 0.0000000000000000 19.1268898900000011 O
atom 6.9629519900000014 4.4603434099999992 18.2239343999999974 Ti
atom 8.3810096299999994 4.4603434099999992 16.8059108899999998 O
atom 6.0600256100000003 2.9735622699999991 17.3209789900000004 O
atom 7.8658785300000016 2.9735622699999991 19.1268898900000011 O
