#===============================================================================
# Created using the Atomic Simulation Environment (ASE)

# Mon Mar 23 14:01:31 2026

#=======================================================
lattice_vector 7.6004937600000506 0.0000000000000000 0.0000000000000000 
lattice_vector -0.0000000000000672 7.6004436200000214 0.0000000000000000 
lattice_vector 0.0000000000000000 0.0000000000000000 84.4362675399994629 
atom 0.0000023356935513 7.6004421232830559 17.8652831349999595 Ti
atom 1.9001253837341074 7.6004422591211958 15.4300205349999899 Ti
atom 1.9001253039455415 1.9001095719366214 15.0000000000000000 O
atom 0.0000020235216895 7.6004422463064287 15.8600322349999878 O
atom 1.9001257359059907 7.6004421560978095 17.4352716149999623 O
atom 0.0000023456935848 3.8002203032830444 17.8652831349999595 Ti
atom 1.9001253837341401 3.8002204291211861 15.4300205249999927 Ti
atom 1.9001253039455146 5.7003313919366274 15.0000000600000050 O
atom 0.0000020235217231 3.8002204063064191 15.8600322349999807 O
atom 1.9001257459060259 3.8002203360977975 17.4352716249999595 O
atom 3.8002492056935724 7.6004421232830586 17.8652831049999605 Ti
atom 5.7003723337341325 7.6004422891211956 15.4300205349999828 Ti
atom 5.7003723439455749 1.9001095719366159 15.0000000699999809 O
atom 3.8002489035217049 7.6004422463064349 15.8600321549999848 O
atom 5.7003726059060158 7.6004421860978084 17.4352716249999631 O
atom 3.8002492056936075 3.8002203032830462 17.8652831149999578 Ti
atom 5.7003723237341672 3.8002203991211854 15.4300205349999793 Ti
atom 5.7003723439455349 5.7003313919366319 15.0000000099999795 O
atom 3.8002489035217399 3.8002204163064235 15.8600321649999820 O
atom 5.7003726159060513 3.8002203060977964 17.4352716349999604 O
atom 1.9001263896174401 1.9001090216035210 22.7358507699999102 Ti
atom 1.9001266015816967 7.6004414857621994 25.1711552649998893 Ti
atom 0.0000046413884537 7.6004405965652442 37.3475502149997709 Ti
atom 0.0000025476578798 1.9001091574417217 20.3005873799999392 Ti
atom 0.0000028798297942 1.9001090144183137 22.3058387299999090 O
atom 1.9001266317930445 1.9001088085776814 24.7411339899998808 O
atom 1.9001264894060867 7.6004417187880433 23.1658719949999004 O
atom 0.0000031813692823 7.6004414729474306 25.6011670049998834 O
atom 1.9001268937535822 7.6004413727388105 27.1764063649998633 O
atom 0.0000025378691636 7.6004419102572127 19.8705664149999421 O
atom 0.0000023854822867 1.9001093804675535 18.2953042599999591 O
atom 1.9001260274455336 1.9001091246269235 20.7305994899999391 O
atom 1.9001274974648799 1.9001082682446226 32.4769842099998272 Ti
atom 1.9001276894290100 7.6004407324033840 34.9122876149997978 Ti
atom 0.0000034935411877 7.6004413599240284 27.6064182749998608 Ti
atom 0.0000037255054556 1.9001084140827340 30.0417219899998393 Ti
atom 0.0000040376773056 1.9001082910593681 32.0469727899998276 O
atom 1.9001276096404438 1.9001080452188095 34.4822670799998150 O
atom 1.9001274172534550 7.6004409654291916 32.9070048249998308 O
atom 0.0000043292165916 7.6004407195886170 35.3422993149998064 O
atom 1.9001280416008932 7.6004406293799978 36.9175386949997772 O
atom 0.0000036857167598 7.6004411568982091 29.6117012149998438 O
atom 0.0000035233298664 1.9001086171085633 28.0364389099998625 O
atom 1.9001272052930152 1.9001084012679978 30.4717332899998432 O
atom 1.9001263796174066 5.7003308516035318 22.7358507699999102 Ti
atom 1.9001266015817289 3.8002196757621887 25.1711552549998885 Ti
atom 0.0000046513884873 3.8002187765652327 37.3475502149997567 Ti
atom 0.0000025476578462 5.7003309874417329 20.3005873699999420 Ti
atom 0.0000028698297595 5.7003308844183254 22.3058387199999189 O
atom 1.9001266217930097 5.7003306185776923 24.7411339799998835 O
atom 1.9001264894061181 3.8002199087880340 23.1658719749998987 O
atom 0.0000031813693159 3.8002196729474185 25.6011670149998913 O
atom 1.9001268937536144 3.8002195827388001 27.1764063549998660 O
atom 0.0000025378691988 3.8002201002571989 19.8705664349999438 O
atom 0.0000023754822519 5.7003311904675664 18.2953042499999583 O
atom 1.9001260274454990 5.7003310046269347 20.7305994799999453 O
atom 1.9001274974648552 5.7003300782446269 32.4769842899998196 Ti
atom 1.9001276894290422 3.8002189024033743 34.9122876049998041 Ti
atom 0.0000034935412213 3.8002195599240163 27.6064182749998679 Ti
atom 0.0000036955054255 5.7003302240827427 30.0417220199998489 Ti
atom 0.0000040576772790 5.7003300810593736 32.0469728499998183 O
atom 1.9001276096404167 5.7003298652188157 34.4822671399998200 O
atom 1.9001274172534897 3.8002191354291797 32.9070048349998387 O
atom 0.0000043292166252 3.8002188795886069 35.3422993149997922 O
atom 1.9001280516009280 3.8002188093799862 36.9175387049997710 O
atom 0.0000036857167933 3.8002193468981984 29.6117012149998438 O
atom 0.0000034933298344 5.7003304371085726 28.0364389199998634 O
atom 1.9001271952929917 5.7003301912680016 30.4717333799998435 O
atom 5.7003732296174654 1.9001090116035209 22.7358507699999102 Ti
atom 5.7003734415817222 7.6004414957621993 25.1711552649998893 Ti
atom 3.8002515113884754 7.6004405965652468 37.3475501849997613 Ti
atom 3.8002494176579025 1.9001091574417230 20.3005873599999411 Ti
atom 3.8002497598298133 1.9001090144183184 22.3058386699999147 O
atom 5.7003733417930693 1.9001088085776814 24.7411339899999021 O
atom 5.7003731794061112 7.6004417187880433 23.1658719949999217 O
atom 3.8002500613693160 7.6004414629474244 25.6011670749998856 O
atom 5.7003737837536059 7.6004413927388121 27.1764063549998589 O
atom 3.8002493778691830 7.6004419102572154 19.8705663749999424 O
atom 3.8002492154823089 1.9001093804675560 18.2953042299999602 O
atom 5.7003729174455566 1.9001091146269251 20.7305994699999374 O
atom 5.7003744374649061 1.9001082582446223 32.4769842199998067 Ti
atom 5.7003746394290360 7.6004407624033847 34.9122876149997836 Ti
atom 3.8002503735412168 7.6004413399240258 27.6064183049998633 Ti
atom 3.8002505855054833 1.9001084040827321 30.0417220199998489 Ti
atom 3.8002509376773403 1.9001082910593625 32.0469728699998200 O
atom 5.7003746496404775 1.9001080452188042 34.4822671499997853 O
atom 5.7003745772534806 7.6004409254291918 32.9070048249998024 O
atom 3.8002512092166070 7.6004407195886232 35.3422992349997998 O
atom 5.7003749116009192 7.6004406593799967 36.9175387049997852 O
atom 3.8002505757167913 7.6004411468982056 29.6117012649998408 O
atom 3.8002504033298981 1.9001086071085591 28.0364389599998560 O
atom 5.7003740752930492 1.9001084012679927 30.4717333599998419 O
atom 5.7003732196174317 5.7003308416035319 22.7358507699999137 Ti
atom 5.7003734315817551 3.8002196757621878 25.1711552649998893 Ti
atom 3.8002515113885096 3.8002187765652349 37.3475501949997692 Ti
atom 3.8002494076578683 5.7003309874417347 20.3005873499999403 Ti
atom 3.8002497498297783 5.7003308844183307 22.3058386599999139 O
atom 5.7003733317930365 5.7003306185776914 24.7411339899999021 O
atom 5.7003731794061423 3.8002199087880340 23.1658719749999200 O
atom 3.8002500613693502 3.8002196729474131 25.6011670749998856 O
atom 5.7003737737536397 3.8002195627388007 27.1764063549998660 O
atom 3.8002493778692190 3.8002201002572020 19.8705663949999440 O
atom 3.8002492354822737 5.7003311904675682 18.2953042199999594 O
atom 5.7003729174455238 5.7003309946269356 20.7305994699999445 O
atom 5.7003744374648821 5.7003300682446261 32.4769842899998054 Ti
atom 5.7003746294290698 3.8002188724033732 34.9122876149997836 Ti
atom 3.8002503735412501 3.8002195499240150 27.6064183049998668 Ti
atom 3.8002505955054544 5.7003302140827392 30.0417220599998380 Ti
atom 3.8002509076773130 5.7003300810593691 32.0469729199998312 O
atom 5.7003746496404366 5.7003298652188192 34.4822670899997945 O
atom 5.7003745772535162 3.8002191454291792 32.9070048349997961 O
atom 3.8002512092166421 3.8002188895886122 35.3422992449997935 O
atom 5.7003749216009538 3.8002187793799851 36.9175387149997789 O
atom 3.8002505757168237 3.8002193368981958 29.6117012549998400 O
atom 3.8002504233298646 5.7003304271085709 28.0364389599998631 O
atom 5.7003740752930128 5.7003301812680052 30.4717333299998465 O
atom 1.9001286953123426 1.9001074948857091 42.2181178499997287 Ti
atom 1.9001289072765992 7.6004399590443876 44.6534223449996972 Ti
atom 0.0000069470833561 7.6004390698474333 56.8298172949995859 Ti
atom 0.0000048533527836 1.9001076307239100 39.7828544599997400 Ti
atom 0.0000051855246966 1.9001074877005020 41.7881058099997205 O
atom 1.9001289374879471 1.9001072818598694 44.2234010699996958 O
atom 1.9001287951009893 7.6004401920702316 42.6481390749997189 O
atom 0.0000054870641861 7.6004399462296170 45.0834340849996948 O
atom 1.9001291994484848 7.6004398460209996 46.6586734449996783 O
atom 0.0000048435640657 7.6004403835393992 39.3528334949997571 O
atom 0.0000046911771891 1.9001078537497420 37.7775713399997670 O
atom 1.9001283331404362 1.9001075979091115 40.2128665699997470 O
atom 1.9001298031597824 1.9001067415268111 51.9592512899996279 Ti
atom 1.9001299951239130 7.6004392056855732 54.3945546949996128 Ti
atom 0.0000057992360902 7.6004398332062166 47.0886853549996687 Ti
atom 0.0000060312003577 1.9001068873649223 49.5239890699996437 Ti
atom 0.0000063433722081 1.9001067643415566 51.5292398699996284 O
atom 1.9001299153353464 1.9001065185009982 53.9645341599996158 O
atom 1.9001297229483578 7.6004394387113807 52.3892719049996316 O
atom 0.0000066349114954 7.6004391928708044 54.8245663949996072 O
atom 1.9001303472957958 7.6004391026621860 56.3998057749995780 O
atom 0.0000059914116635 7.6004396301803974 49.0939682949996552 O
atom 0.0000058290247688 1.9001070903907513 47.5187059899996740 O
atom 1.9001295109879175 1.9001068745501861 49.9540003699996475 O
atom 1.9001286853123092 5.7003293248857192 42.2181178499997287 Ti
atom 1.9001289072766314 3.8002181490443769 44.6534223349996893 Ti
atom 0.0000069570833897 3.8002172498474218 56.8298172949995717 Ti
atom 0.0000048533527483 5.7003294607239203 39.7828544499997605 Ti
atom 0.0000051755246619 5.7003293577005127 41.7881057999997267 O
atom 1.9001289274879123 5.7003290918598797 44.2234010599997021 O
atom 1.9001287951010206 3.8002183820702218 42.6481390549997030 O
atom 0.0000054870642197 3.8002181462296067 45.0834340949997028 O
atom 1.9001291994485170 3.8002180560209888 46.6586734349996846 O
atom 0.0000048435641009 3.8002185735393876 39.3528335149997446 O
atom 0.0000046811771544 5.7003296637497529 37.7775713299997733 O
atom 1.9001283331404015 5.7003294779091229 40.2128665599997532 O
atom 1.9001298031597578 5.7003285515268152 51.9592513699996346 Ti
atom 1.9001299951239452 3.8002173756855631 54.3945546849996049 Ti
atom 0.0000057992361237 3.8002180332062045 47.0886853549996829 Ti
atom 0.0000060012003276 5.7003286973649301 49.5239890999996533 Ti
atom 0.0000063633721814 5.7003285543415618 51.5292399299996191 O
atom 1.9001299153353197 5.7003283385010040 53.9645342199996207 O
atom 1.9001297229483922 3.8002176087113679 52.3892719149996395 O
atom 0.0000066349115273 3.8002173528707952 54.8245663949995929 O
atom 1.9001303572958310 3.8002172826621741 56.3998057849995860 O
atom 0.0000059914116971 3.8002178201803871 49.0939682949996552 O
atom 0.0000057990247365 5.7003289103907600 47.5187059999996677 O
atom 1.9001295009878942 5.7003286645501889 49.9540004599996479 O
atom 5.7003755353123688 1.9001074848857091 42.2181178499997287 Ti
atom 5.7003757472766265 7.6004399690443867 44.6534223449997114 Ti
atom 3.8002538170833775 7.6004390698474342 56.8298172649995763 Ti
atom 3.8002517233528046 1.9001076307239118 39.7828544399997526 Ti
atom 3.8002520655247154 1.9001074877005066 41.7881057499997155 O
atom 5.7003756474879737 1.9001072818598694 44.2234010699997100 O
atom 5.7003754851010147 7.6004401920702316 42.6481390749997331 O
atom 3.8002523670642181 7.6004399362296127 45.0834341549996935 O
atom 5.7003760894485094 7.6004398660209995 46.6586734349996703 O
atom 3.8002516835640852 7.6004403835394019 39.3528334549997538 O
atom 3.8002515211772110 1.9001078537497444 37.7775713099997716 O
atom 5.7003752231404592 1.9001075879091132 40.2128665499997453 O
atom 5.7003767431598105 1.9001067315268105 51.9592512999996217 Ti
atom 5.7003769451239377 7.6004392356855730 54.3945546949995986 Ti
atom 3.8002526792361189 7.6004398132062141 47.0886853849996641 Ti
atom 3.8002528912003855 1.9001068773649201 49.5239890999996533 Ti
atom 3.8002532433722420 1.9001067643415506 51.5292399499996208 O
atom 5.7003769553353809 1.9001065185009927 53.9645342299995860 O
atom 5.7003768829483832 7.6004393987113801 52.3892719049996032 O
atom 3.8002535149115100 7.6004391928708115 54.8245663149996005 O
atom 5.7003772172958209 7.6004391326621850 56.3998057849995860 O
atom 3.8002528814116929 7.6004396201803930 49.0939683449996522 O
atom 3.8002527090248002 1.9001070803907476 47.5187060399996710 O
atom 5.7003763809879526 1.9001068745501808 49.9540004399996604 O
atom 5.7003755253123360 5.7003293148857193 42.2181178499997287 Ti
atom 5.7003757372766586 3.8002181490443765 44.6534223449997114 Ti
atom 3.8002538170834117 3.8002172498474227 56.8298172749995700 Ti
atom 3.8002517133527705 5.7003294607239221 39.7828544299997588 Ti
atom 3.8002520555246804 5.7003293577005181 41.7881057399997218 O
atom 5.7003756374879400 5.7003290918598797 44.2234010699997100 O
atom 5.7003754851010466 3.8002183820702222 42.6481390549997315 O
atom 3.8002523670642523 3.8002181462296023 45.0834341549996935 O
atom 5.7003760794485441 3.8002180360209894 46.6586734349996846 O
atom 3.8002516835641211 3.8002185735393907 39.3528334749997697 O
atom 3.8002515411771758 5.7003296637497556 37.7775712999997779 O
atom 5.7003752231404254 5.7003294679091239 40.2128665499997453 O
atom 5.7003767431597838 5.7003285415268135 51.9592513699996204 Ti
atom 5.7003769351239724 3.8002173456855624 54.3945546949995844 Ti
atom 3.8002526792361522 3.8002180232062037 47.0886853849996641 Ti
atom 3.8002529012003565 5.7003286873649266 49.5239891399996566 Ti
atom 3.8002532133722151 5.7003285543415574 51.5292399999996178 O
atom 5.7003769553353392 5.7003283385010075 53.9645341699995953 O
atom 5.7003768829484178 3.8002176187113683 52.3892719149996111 O
atom 3.8002535149115442 3.8002173628708005 54.8245663249996085 O
atom 5.7003772272958564 3.8002172526621734 56.3998057949995797 O
atom 3.8002528814117258 3.8002178101803841 49.0939683349996585 O
atom 3.8002527290247667 5.7003289003907582 47.5187060399996710 O
atom 5.7003763809879144 5.7003286545501926 49.9540004099996509 O
atom 1.9001310010072452 1.9001059681678978 61.7003849299995295 Ti
atom 1.9001312129715018 7.6004384323265759 64.1356894249995122 Ti
atom 0.0000071590476857 1.9001061040060985 59.2651215399995550 Ti
atom 0.0000074912195991 1.9001059609826905 61.2703728899995212 O
atom 1.9001312431828492 1.9001057551420582 63.7056681499995108 O
atom 1.9001311007958919 7.6004386653524199 62.1304061549995197 O
atom 0.0000077927590865 7.6004384195118062 64.5657011649995098 O
atom 1.9001315051433874 7.6004383193031879 66.1409405249994649 O
atom 0.0000071492589678 7.6004388568215884 58.8351005749995579 O
atom 0.0000069968720915 1.9001063270319303 57.2598384199995820 O
atom 1.9001306388353387 1.9001060711913003 59.6951336499995620 O
atom 0.0000081049309926 7.6004383064884049 66.5709524349994837 Ti
atom 0.0000083368952598 1.9001053606471108 69.0062561499994587 Ti
atom 0.0000082971065656 7.6004381034625865 68.5762353749994560 O
atom 0.0000081347196713 1.9001055636729396 67.0009730699994890 O
atom 1.9001318166828196 1.9001053478323746 69.4362674499994768 O
atom 1.9001309910072113 5.7003277981679084 61.7003849299995295 Ti
atom 1.9001312129715340 3.8002166223265657 64.1356894149995327 Ti
atom 0.0000071590476504 5.7003279340061104 59.2651215299995613 Ti
atom 0.0000074812195643 5.7003278309827028 61.2703728799995417 O
atom 1.9001312331828144 5.7003275651420688 63.7056681399995028 O
atom 1.9001311007959227 3.8002168553524101 62.1304061349995180 O
atom 0.0000077927591218 3.8002166195117946 64.5657011749995178 O
atom 1.9001315051434196 3.8002165293031767 66.1409405149994853 O
atom 0.0000071492590047 3.8002170468215755 58.8351005949995596 O
atom 0.0000069868720568 5.7003281370319412 57.2598384099995741 O
atom 1.9001306388353039 5.7003279511913121 59.6951336399995682 O
atom 0.0000081049310262 3.8002165064883928 66.5709524349994837 Ti
atom 0.0000083068952297 5.7003271706471184 69.0062561799994540 Ti
atom 0.0000082971065992 3.8002162934625754 68.5762353749994560 O
atom 0.0000081047196386 5.7003273836729491 67.0009730799994685 O
atom 1.9001318066827968 5.7003271378323781 69.4362675399994629 O
atom 5.7003778410072705 1.9001059581678976 61.7003849299995295 Ti
atom 5.7003780529715273 7.6004384423265767 64.1356894249995122 Ti
atom 3.8002540290477076 1.9001061040060998 59.2651215199995676 Ti
atom 3.8002543712196184 1.9001059609826951 61.2703728299995305 O
atom 5.7003779531828744 1.9001057551420582 63.7056681499995108 O
atom 5.7003777907959163 7.6004386653524199 62.1304061549995481 O
atom 3.8002546727591211 7.6004384095118001 64.5657012349995085 O
atom 5.7003783951434110 7.6004383393031887 66.1409405149994853 O
atom 3.8002539892589882 7.6004388568215902 58.8351005349995688 O
atom 3.8002538268721140 1.9001063270319327 57.2598383899995866 O
atom 5.7003775288353618 1.9001060611913017 59.6951336299995603 O
atom 3.8002549849310219 7.6004382864884024 66.5709524649994790 Ti
atom 3.8002551968952885 1.9001053506471088 69.0062561799994540 Ti
atom 3.8002551871065959 7.6004380934625821 68.5762354249994672 O
atom 3.8002550147197023 1.9001055536729359 67.0009731199994718 O
atom 5.7003786866828534 1.9001053478323695 69.4362675199994470 O
atom 5.7003778310072377 5.7003277881679084 61.7003849299995295 Ti
atom 5.7003780429715603 3.8002166223265652 64.1356894249995406 Ti
atom 3.8002540190476726 5.7003279340061104 59.2651215099995596 Ti
atom 3.8002543612195825 5.7003278309827063 61.2703728199995226 O
atom 5.7003779431828416 5.7003275651420680 63.7056681499995108 O
atom 5.7003777907959474 3.8002168553524101 62.1304061349995465 O
atom 3.8002546727591544 3.8002166195117906 64.5657012349995085 O
atom 5.7003783851434449 3.8002165093031772 66.1409405149994853 O
atom 3.8002539892590232 3.8002170468215790 58.8351005549995705 O
atom 3.8002538468720779 5.7003281370319439 57.2598383799995787 O
atom 5.7003775288353289 5.7003279411913130 59.6951336299995603 O
atom 3.8002549849310552 3.8002164964883911 66.5709524649994790 Ti
atom 3.8002552068952595 5.7003271606471166 69.0062562199994574 Ti
atom 3.8002551871066284 3.8002162834625719 68.5762354149994593 O
atom 3.8002550347196689 5.7003273736729465 67.0009731199994718 O
atom 5.7003786866828179 5.7003271278323826 69.4362674899994516 O
