#===============================================================================
# Created using the Atomic Simulation Environment (ASE)

# Mon Mar 23 14:01:33 2026

#=======================================================
lattice_vector 10.7486859018486420 0.0000000000000000 0.0000000000000000 
lattice_vector -10.7486177031074206 22.2506846489501129 0.0000000000000000 
lattice_vector 0.0000000000000000 0.0000000000000000 36.6430536909913087 
atom -5.3742208631494837 21.8804129307335700 15.9686868163345324 Ti
atom 0.0000709086666886 5.1924001902967474 15.9686863783555246 Ti
atom -4.0306439058429984 20.8548459232955423 15.0000005688823848 O
atom -5.3742382400102082 18.0735000913934201 15.0000060538052544 O
atom 5.3743965110145782 1.3854872458868803 15.0000056737948242 O
atom 0.0000879495132578 10.7550706818612039 15.9686867463579141 Ti
atom -5.3742379393512572 16.3177411155508310 15.9686871543665845 Ti
atom 1.3436647795400189 9.7295041470424550 15.0000000927889268 O
atom 0.0000706009367427 6.9481588455903802 15.0000054627221928 O
atom 0.0000876488544517 12.5108293649139473 15.0000058396369909 O
atom 1.3436478306176600 4.1668332552617686 15.0000000344265203 O
atom -4.0306610527557645 15.2921745817912704 15.0000005648199064 O
atom 6.7179907532576104 4.1668332591100858 15.0000000000000000 O
atom 1.3436819335239236 15.2921745501838267 15.0000005903339755 O
atom 0.0001220453483359 21.8804129170702950 15.9686867915694961 Ti
atom 5.3744138595909536 5.1924002009766870 15.9686863563115011 Ti
atom -9.4049869911180597 20.8548458759064701 15.0000004415868347 O
atom 0.0001047038430776 18.0735000335186307 15.0000060938116135 O
atom 0.0000535247350754 1.3854872873093920 15.0000057074725142 O
atom 5.3744309499351788 10.7550706288938702 15.9686868159599840 Ti
atom 0.0001050115730658 16.3177410892834125 15.9686871688587502 Ti
atom -4.0306779663227026 9.7295042305139177 15.0000002647838571 O
atom 5.3744135660031427 6.9481589000493216 15.0000054165245231 O
atom -5.3742552879278245 12.5108293162273583 15.0000058341946811 O
atom 0.0000893433676442 2.2259235115901554 20.6743570641973520 Ti
atom -4.0306436617489911 19.0990588195685795 15.9686969296311645 Ti
atom 5.3744493139250382 7.7885954201034444 20.6743566262183478 Ti
atom -1.3435056382279948 3.7091439129302390 18.3215314948155346 Ti
atom 9.4051805996349245 1.9533848636253137 19.2902126278312380 O
atom -5.3742205412733846 20.1246259220230606 16.9373832457988129 O
atom 1.3436663006741298 1.2003565041521260 19.7056708167452079 O
atom 0.0001401652481388 20.6696953212001162 19.7056763016680776 O
atom -4.0306433752322457 17.3432999857430374 16.9373779356876923 O
atom 0.0000712022584303 3.4366131153880994 16.9373828120390648 O
atom -1.3435059106064007 5.4649308648251402 17.3528351693799223 O
atom 0.0000890144242855 3.9816824756935780 19.7056759216576438 O
atom -5.3742195470770344 13.3512659116679018 20.6743569942207372 Ti
atom 1.3436651367714203 7.9737175182473656 15.9686963207233745 Ti
atom 0.0001404659070880 18.9139363453575307 20.6743574022294077 Ti
atom -6.7178144862459250 14.8344853159053649 18.3215320395635146 Ti
atom 4.0308717233326474 13.0787267481697871 19.2902129068896322 O
atom 0.0000881865361660 8.9992839317823154 16.9373829200691475 O
atom -4.0306427170502754 12.3256993768491530 19.7056703406517499 O
atom 5.3744490061950936 9.5443540753970773 19.7056757105850160 O
atom 1.3436654586436643 6.2179587258442286 16.9373773604573863 O
atom -5.3742376599016985 14.5619543383395946 16.9373834238056418 O
atom -6.7178147727665927 16.5902722122820521 17.3528356963030959 O
atom -5.3742198477358434 15.1070245947206434 19.7056760874998105 O
atom 2.6872430704496102 0.9278259001026794 18.3215219464572954 Ti
atom -6.7177974100441409 20.3971564432277361 18.3215320487318500 Ti
atom -2.6870828254863279 6.4904978052000759 18.3215215022868954 Ti
atom 1.3436480959250576 2.4110463136143867 15.9686963784360181 Ti
atom 1.3436483965840615 0.6552872745570296 16.9373775300257030 O
atom -8.0613742966396220 21.4227235422663895 19.2902183587082341 O
atom -6.7177976541381499 22.1529435557105039 17.3528356831523496 O
atom -8.0613919953763968 19.3715977009568086 17.3528411887587026 O
atom -6.7177971376694821 18.6413976162338813 19.2902130671710026 O
atom 8.0616033558119291 4.7347107127798331 19.2902179456319161 O
atom 6.7180262358760086 6.7630284850684710 19.7056702822893470 O
atom 2.6872427132221155 2.6835848934569602 17.3528408362346838 O
atom -2.6870657987818802 12.0531682267181139 18.3215219089350967 Ti
atom -1.3434885973816391 9.2718151350748244 18.3215314274414496 Ti
atom -8.0613916947174484 17.6158387338700244 18.3215222844893049 Ti
atom -4.0306607591640473 13.5363876644871155 15.9686969115504631 Ti
atom -4.0306604019365748 11.7806290807315666 16.9373778119424649 O
atom -2.6870655688300200 10.2973814975666702 19.2902180791761992 O
atom -1.3434889546130400 11.0276017463583056 17.3528352091684397 O
atom -2.6870831261452666 8.2462564502461877 17.3528405680796780 O
atom -1.3434882755093565 7.5160563319917504 19.2902124892194777 O
atom 2.6872944936517964 15.8600519532429409 19.2902185477370480 O
atom 1.3437173525025854 17.8883698115979684 19.7056708126827331 O
atom -2.6870660923696894 13.8089268907675287 17.3528409884710051 O
atom 8.0615860213737953 0.9278258796076657 18.3215219093095563 Ti
atom -1.3434544944752267 20.3971564242244767 18.3215320349888096 Ti
atom 2.6872601042247668 6.4904978280516845 18.3215214816035044 Ti
atom 6.7179910539203780 2.4110463121226724 15.9686963550314118 Ti
atom 6.7179913970057354 0.6552873012568060 16.9373774749155004 O
atom -2.6870314588527608 21.4227234788573782 19.2902182644786606 O
atom -1.3434548375645556 22.1529434732982118 17.3528355751796930 O
atom -2.6870490303099777 19.3715976415902809 17.3528412053604058 O
atom -1.3434541796740753 18.6413976196497053 19.2902130733622741 O
atom 2.6872603766032399 4.7347107516513667 19.2902178918825129 O
atom 1.3436832566673154 6.7630284889167891 19.7056702478628267 O
atom 8.0615857277858858 2.6835848783018199 17.3528407880647499 O
atom 2.6872772016400241 12.0531683050878566 18.3215219060763488 Ti
atom 4.0308543676850981 9.2718151673090343 18.3215315065675988 Ti
atom -2.6870487225799913 17.6158386973550698 18.3215222804075424 Ti
atom 1.3436822059024076 13.5363876644871013 15.9686969115504240 Ti
atom 1.3436825348456631 11.7806290700516456 16.9373778339865275 O
atom 2.6872775023028108 10.2973815400482280 19.2902181768759071 O
atom 4.0308542084439258 11.0276018439255328 17.3528353653106180 O
atom 2.6872598035659090 8.2462565305401743 17.3528405480078334 O
atom 4.0308546329886088 7.5160563388234900 19.2902125016021770 O
atom -2.6870484431303825 15.8600519094638912 19.2902185718906161 O
atom -4.0306255630663692 17.8883697799905264 19.7056708381968022 O
atom 2.6872768444125397 13.8089269151108276 17.3528409911921884 O
atom 5.3744322518654659 2.2259234979268823 20.6743570394323193 Ti
atom 1.3436992538198733 19.0990588024894521 15.9686968986748212 Ti
atom 0.0001063630006643 7.7885954307833840 20.6743566041743208 Ti
atom 4.0308372844120450 3.7091439391976944 18.3215314803234541 Ti
atom 4.0308375992132381 1.9533849419952047 19.2902126249727885 O
atom 0.0001222823712926 20.1246258605382060 16.9373831343559758 O
atom 6.7180091172477168 1.2003564567630549 19.7056706894496614 O
atom -5.3742027927472114 20.6696952633253268 19.7056763416744367 O
atom 1.3436995756920744 17.3432999944988424 16.9373779308569716 O
atom 5.3744141248983830 3.4366131192364073 16.9373827776125481 O
atom 4.0308370191046459 5.4649308896008915 17.3528351314832250 O
atom 5.3744319299934249 3.9816825171160897 19.7056759553353338 O
atom 0.0001234533448886 13.3512658587005664 20.6743570638228107 Ti
atom 6.7180081654775057 7.9737175216630876 15.9686963269144364 Ti
atom -5.3742024850172259 18.9139363190901122 20.6743574167215733 Ti
atom -1.3434715353216373 14.8344852477830500 18.3215320609959917 Ti
atom -1.3434712205206663 13.0787266240967934 19.2902129511151159 O
atom 5.3744312435269048 8.9992839810955587 16.9373830301514801 O
atom 1.3437004389356435 12.3256994603206138 19.7056705126466802 O
atom 0.0001060694128522 9.5443541298560213 19.7056756643873463 O
atom 6.7180084378521618 6.2179586946692327 16.9373773453535890 O
atom 0.0001053051647622 14.5619543033163517 16.9373834431284820 O
atom -1.3434718077000851 16.5902721753346718 17.3528357328392460 O
atom 0.0001231173305217 15.1070245460340544 19.7056760820575008 O
atom -9.4049511583392817 21.6952540493752792 20.6743671774939912 Ti
atom 0.0000896652437434 0.4701365028796460 21.6430534936616397 O
atom -9.4049508718225390 19.9394952155497336 21.6430481835505155 O
atom 5.3744496075167802 6.0328083451947974 21.6430530599018880 O
atom -4.0306423598188772 10.5699127480540636 20.6743665685861977 Ti
atom -5.3742193100541265 11.5954791615890134 21.6430531679319742 O
atom -4.0306420379466212 8.8141539556509265 21.6430476083202130 O
atom 0.0001407453566476 17.1581495681462890 21.6430536716684614 O
atom 6.7180265011834122 5.0072415434210846 20.6743666262988448 Ti
atom 6.7180268018424165 3.2514825043637274 21.6430477778885262 O
atom 1.3437176460943052 16.1325828942938152 20.6743671594132863 Ti
atom 1.3437180033217819 14.3768243105382609 21.6430480598052917 O
atom 1.3436835573300834 5.0072415419293650 20.6743666028942386 Ti
atom 1.3436839004154451 3.2514825310635036 21.6430477227783271 O
atom -4.0306252906878788 16.1325828942937974 20.6743671594132508 Ti
atom -4.0306249617446328 14.3768242998583471 21.6430480818493507 O
atom -4.0306082427704206 21.6952540322961518 20.6743671465376408 Ti
atom 5.3744324888884218 0.4701364413947879 21.6430533822188060 O
atom -4.0306079208982171 19.9394952243055386 21.6430481787197948 O
atom 0.0001066283080949 6.0328083490430995 21.6430530254753712 O
atom 1.3437006688872120 10.5699127514697864 20.6743665747772596 Ti
atom 0.0001237469366096 11.5954792109022566 21.6430532780142997 O
atom 1.3437009412618690 8.8141539244759315 21.6430475932164086 O
atom -5.3742021914255345 17.1581495331230478 21.6430536909913087 O
