#===============================================================================
# Created using the Atomic Simulation Environment (ASE)

# Mon Mar 23 14:01:32 2026

#=======================================================
lattice_vector 7.6004436200000214 0.0000000000000000 0.0000000000000000 
lattice_vector -0.0000015267178117 19.4822670799999393 0.0000000000000000 
lattice_vector 0.0000000000000000 0.0000000000000000 43.3008642622072131 
atom 1.9001105483211815 4.8705585688889013 15.0000001761036188 Ti
atom 7.6004430124798601 7.3058630638888866 15.0000000998535654 Ti
atom 1.9001106841593318 2.4352958535185412 20.7003703823535652 Ti
atom 1.9001103352953415 6.8758417888888896 15.0000001809571870 O
atom -0.0000003744943175 5.3005797938888985 15.0000002249999973 O
atom 7.6004429996650380 7.7358754785185262 20.7003703887499668 O
atom -0.0000007205435498 9.3111141638888846 15.0000001547072124 O
atom 7.6004434369748219 2.0052748885185436 20.7003704234571906 O
atom 1.9001106513445838 2.8653072888889017 15.0000000512499696 O
atom 1.9001097949622834 14.6116920088888715 15.0000001311036222 Ti
atom 7.6004422591210439 17.0469954138888546 15.0000000348535707 Ti
atom 1.9001099408003439 12.1764304635185105 20.7003704073535602 Ti
atom 1.9001095719364700 16.6169748788888576 15.0000000059571867 O
atom -0.0000011278531692 15.0417126238888716 15.0000000000000000 O
atom 7.6004422463062262 17.4770077885184953 20.7003703837499700 O
atom -0.0000014639023633 19.0522464938888518 15.0000001497072191 O
atom 7.6004426836158183 11.7464096885185132 20.7003704184571831 O
atom 1.9001099279856581 12.6064410888888734 15.0000000762499681 O
atom 5.7003323783211917 4.8705585688889013 15.0000001661036180 Ti
atom 3.8002212024798503 7.3058630538888867 15.0000000998535654 Ti
atom 5.7003325141593413 2.4352958435185426 20.7003703823535687 Ti
atom 5.7003321452953513 6.8758417788888906 15.0000001709571862 O
atom 3.8002214355056947 5.3005797738888996 15.0000002249999973 O
atom 3.8002211996650281 7.7358754885185261 20.7003703887499668 O
atom 3.8002211094564609 9.3111141538888855 15.0000001547072159 O
atom 3.8002216269748090 2.0052749085185440 20.7003704234571870 O
atom 5.7003325313445945 2.8653072788889076 15.0000000512499696 O
atom 5.7003316049622867 14.6116920888888675 15.0000001311036222 Ti
atom 3.8002204291210346 17.0469954038888574 15.0000000348535707 Ti
atom 5.7003317508003510 12.1764304935185130 20.7003703773535648 Ti
atom 5.7003313919364746 16.6169749388888626 15.0000000059571867 O
atom 3.8002206621468408 15.0417126338888654 15.0000000000000000 O
atom 3.8002204063062170 17.4770077885184953 20.7003703837499700 O
atom 3.8002203360976465 19.0522465038888598 15.0000001597072199 O
atom 3.8002208736158094 11.7464096885185132 20.7003704184571831 O
atom 5.7003319638261827 10.1711473935185239 20.7003704124999928 O
atom 5.7003317179856614 12.6064411788888702 15.0000000662499673 O
atom 1.9001105383211483 4.8705590186419920 18.8002470161036221 Ti
atom 7.6004430224798263 7.3058635136419801 18.8002469398535652 Ti
atom -0.0000014967171310 19.4822582087654048 16.9001235686036217 Ti
atom 1.9001106841593667 2.4352953837654501 16.9001234923535684 Ti
atom 1.9001105411359622 4.4405466937654445 16.9001235972072195 O
atom 1.9001103352953084 6.8758422386419804 18.8002468909571867 O
atom -0.0000003744943511 5.3005802436419911 18.8002469149999918 O
atom 7.6004429896650674 7.7358750987654323 16.9001235087499673 O
atom -0.0000007005435826 9.3111146036419772 18.8002470447072128 O
atom 7.6004434369748584 2.0052743987654518 16.9001235034571877 O
atom 1.9001109071851996 0.4300122537654615 16.9001235274999999 O
atom 1.9001106413445521 2.8653077186419940 18.8002469412499664 O
atom 1.9001097849622486 14.6116924686419605 18.8002470711036160 Ti
atom -0.0000013308790097 17.0469958636419463 18.8002469848535654 Ti
atom -0.0000007533583518 9.7411263287654268 16.9001235836036159 Ti
atom 1.9001099308003753 12.1764300437654178 16.9001235073535661 Ti
atom 1.9001098177770062 14.1816808937654137 16.9001236222072144 O
atom 1.9001095719364314 16.6169753986419444 18.8002470459571853 O
atom -0.0000011678532028 15.0417130736419562 18.8002471599999978 O
atom 7.6004422463062671 17.4770072587654006 16.9001235037499740 O
atom -0.0000014339023976 19.0522469536419479 18.8002470197072142 O
atom 7.6004426736158495 11.7464092887654186 16.9001235484571879 O
atom 1.9001101338262028 10.1711469837654302 16.9001235624999957 O
atom 1.9001099279856193 12.6064416086419673 18.8002469462499704 O
atom 5.7003323683211597 4.8705590186419929 18.8002470061036178 Ti
atom 3.8002212024798152 7.3058635136419801 18.8002469298535644 Ti
atom 3.8002203032828787 19.4822582187653985 16.9001235686036217 Ti
atom 5.7003325141593777 2.4352953737654506 16.9001234823535675 Ti
atom 5.7003324111359737 4.4405466837654490 16.9001235872072151 O
atom 5.7003321452953175 6.8758422386419804 18.8002468809571859 O
atom 3.8002214355056605 5.3005802236419921 18.8002469149999953 O
atom 3.8002211996650570 7.7358750987654332 16.9001235087499673 O
atom 3.8002210894564277 9.3111146036419754 18.8002470347072155 O
atom 3.8002216269748459 2.0052744187654516 16.9001235034571877 O
atom 5.7003327171852112 0.4300122437654616 16.9001235474999980 O
atom 5.7003325213445617 2.8653077186419993 18.8002469412499664 O
atom 5.7003315949622531 14.6116925386419609 18.8002470711036160 Ti
atom 3.8002203991210002 17.0469958636419463 18.8002469748535646 Ti
atom 3.8002210766416584 9.7411263287654322 16.9001235836036159 Ti
atom 5.7003317408003822 12.1764300837654176 16.9001235173535669 Ti
atom 5.7003316077770130 14.1816809437654143 16.9001235922072190 O
atom 5.7003313919364453 16.6169753386419501 18.8002470459571853 O
atom 3.8002206721468070 15.0417130836419641 18.8002471599999978 O
atom 3.8002204163062561 17.4770072687654050 16.9001235037499669 O
atom 3.8002203060976121 19.0522469636419416 18.8002470297072186 O
atom 3.8002208636158392 11.7464092787654213 16.9001235484571843 O
atom 5.7003319538262138 10.1711469837654302 16.9001235824999974 O
atom 5.7003317079856304 12.6064415786419630 18.8002469462499704 O
atom 1.9001105483211140 4.8705594683950837 22.6004939361036179 Ti
atom 7.6004430124797935 7.3058639633950717 22.6004938598535681 Ti
atom -0.0000014967171668 19.4822586885184954 20.7003704586036186 Ti
atom 1.9001106841592645 2.4352967530247258 28.3008641423535678 Ti
atom 1.9001105411359240 4.4405472035185376 20.7003704772072190 O
atom 1.9001103352952742 6.8758426883950730 22.6004939409571861 O
atom -0.0000003744943847 5.3005806933950836 22.6004939849999964 O
atom 7.6004429996649714 7.7358763780247095 28.3008641487499659 O
atom -0.0000007205436169 9.3111150633950679 22.6004939147072150 O
atom 7.6004434369747536 2.0052757880247274 28.3008641834571861 O
atom 1.9001109071851641 0.4300127335185536 20.7003704575000000 O
atom 1.9001106513445167 2.8653081883950864 22.6004938112499687 O
atom 1.9001097949622157 14.6116929083950531 22.6004938911036177 Ti
atom 7.6004422591209764 17.0469963133950415 22.6004937948535698 Ti
atom -0.0000007333583831 9.7411267485185231 20.7003704636036225 Ti
atom 1.9001099408002768 12.1764313630246956 28.3008641673535593 Ti
atom 1.9001098177769786 14.1816812635185059 20.7003704822072159 O
atom 1.9001095719364032 16.6169757783950409 22.6004937659571858 O
atom -0.0000011278532363 15.0417135233950567 22.6004937599999955 O
atom 7.6004422463061587 17.4770086880246787 28.3008641437499691 O
atom -0.0000014639024304 19.0522473933950387 22.6004939097072146 O
atom 7.6004426836157508 11.7464105880246983 28.3008641784571822 O
atom 1.9001101438261734 10.1711473835185231 20.7003704424999952 O
atom 1.9001099279855913 12.6064419883950585 22.6004938362499708 O
atom 5.7003323783211242 4.8705594683950855 22.6004939261036206 Ti
atom 3.8002212024797823 7.3058639533950700 22.6004938598535645 Ti
atom 3.8002203032828437 19.4822586885184919 20.7003704686036230 Ti
atom 5.7003325141592747 2.4352967430247272 28.3008641423535678 Ti
atom 5.7003324111359346 4.4405471935185412 20.7003704672072182 O
atom 5.7003321452952846 6.8758426783950739 22.6004939309571924 O
atom 3.8002214355056276 5.3005806733950829 22.6004939849999964 O
atom 3.8002211996649611 7.7358763880247103 28.3008641487499659 O
atom 3.8002211094563938 9.3111150533950688 22.6004939147072150 O
atom 3.8002216269747415 2.0052758080247282 28.3008641834571861 O
atom 5.7003327171851748 0.4300127235185535 20.7003704475000028 O
atom 5.7003325313445270 2.8653081783950918 22.6004938112499687 O
atom 5.7003316049622210 14.6116929883950508 22.6004938911036177 Ti
atom 3.8002204291209680 17.0469963033950407 22.6004937948535698 Ti
atom 3.8002210866416264 9.7411267485185249 20.7003704636036225 Ti
atom 5.7003317508002835 12.1764313930246963 28.3008641373535639 Ti
atom 5.7003316077769846 14.1816813235185037 20.7003705022072175 O
atom 5.7003313919364080 16.6169758383950494 22.6004937659571858 O
atom 3.8002206621467725 15.0417135333950505 22.6004937599999955 O
atom 3.8002204063061495 17.4770086880246787 28.3008641437499691 O
atom 3.8002203360975790 19.0522474033950431 22.6004939197072154 O
atom 3.8002208736157419 11.7464105880246947 28.3008641784571822 O
atom 5.7003319638261161 10.1711482930247055 28.3008641724999919 O
atom 5.7003317179855939 12.6064420783950517 22.6004938262499699 O
atom 1.9001105383210810 4.8705599181481762 26.4007407761036177 Ti
atom 7.6004430224797597 7.3058644131481643 26.4007406998535643 Ti
atom -0.0000014967171981 19.4822591082715881 24.5006173286036173 Ti
atom 1.9001106841592996 2.4352962832716343 24.5006172523535710 Ti
atom 1.9001105411358947 4.4405475932716287 24.5006173572072115 O
atom 1.9001103352952409 6.8758431381481655 26.4007406509571894 O
atom -0.0000003744944183 5.3005811431481753 26.4007406749999944 O
atom 7.6004429896649999 7.7358759982716165 24.5006172687499628 O
atom -0.0000007005436497 9.3111155031481623 26.4007408047072190 O
atom 7.6004434369747917 2.0052752982716355 24.5006172634571939 O
atom 1.9001109071851328 0.4300131532716456 24.5006172874999990 O
atom 1.9001106413444850 2.8653086181481782 26.4007407012499655 O
atom 1.9001097849621817 14.6116933681481456 26.4007408311036258 Ti
atom -0.0000013308790769 17.0469967631481332 26.4007407448535574 Ti
atom -0.0000007533584190 9.7411272282716119 24.5006173436036150 Ti
atom 1.9001099308003080 12.1764309432716011 24.5006172673535616 Ti
atom 1.9001098177769391 14.1816817932715953 24.5006173822072171 O
atom 1.9001095719363641 16.6169762981481313 26.4007408059571844 O
atom -0.0000011678532699 15.0417139731481395 26.4007409199999969 O
atom 7.6004422463061987 17.4770081582715875 24.5006172637499660 O
atom -0.0000014339024648 19.0522478531481347 26.4007407797072204 O
atom 7.6004426736157820 11.7464101882716037 24.5006173084571870 O
atom 1.9001101338261355 10.1711478832716153 24.5006173224999984 O
atom 1.9001099279855524 12.6064425081481488 26.4007407062499695 O
atom 5.7003323683210914 4.8705599181481771 26.4007407661036169 Ti
atom 3.8002212024797482 7.3058644131481625 26.4007406898535564 Ti
atom 3.8002203032828108 19.4822591182715854 24.5006173286036173 Ti
atom 5.7003325141593102 2.4352962732716352 24.5006172423535631 Ti
atom 5.7003324111359062 4.4405475832716332 24.5006173472072177 O
atom 5.7003321452952500 6.8758431381481655 26.4007406409571885 O
atom 3.8002214355055934 5.3005811231481763 26.4007406749999944 O
atom 3.8002211996649895 7.7358759982716183 24.5006172687499699 O
atom 3.8002210894563602 9.3111155031481569 26.4007407947072181 O
atom 3.8002216269747784 2.0052753182716354 24.5006172634571939 O
atom 5.7003327171851437 0.4300131432716456 24.5006173075000007 O
atom 5.7003325213444942 2.8653086181481835 26.4007407012499655 O
atom 5.7003315949621873 14.6116934381481425 26.4007408311036258 Ti
atom 3.8002203991209331 17.0469967631481296 26.4007407348535637 Ti
atom 3.8002210766415923 9.7411272282716155 24.5006173436036150 Ti
atom 5.7003317408003147 12.1764309832715991 24.5006172773535624 Ti
atom 5.7003316077769446 14.1816818432715994 24.5006173522072146 O
atom 5.7003313919363778 16.6169762381481334 26.4007408059571844 O
atom 3.8002206721467400 15.0417139831481457 26.4007409199999969 O
atom 3.8002204163061886 17.4770081682715883 24.5006172637499660 O
atom 3.8002203060975446 19.0522478631481285 26.4007407897072213 O
atom 3.8002208636157722 11.7464101782716028 24.5006173084571870 O
atom 5.7003319538261463 10.1711478832716153 24.5006173424999929 O
atom 5.7003317079855638 12.6064424781481481 26.4007407062499695 O
atom -0.0000014967172340 19.4822595880246787 28.3008642186036212 Ti
atom 1.9001105411358572 4.4405481030247209 28.3008642372072146 O
atom 1.9001109071850970 0.4300136330247377 28.3008642174999991 O
atom -0.0000007333584503 9.7411276480247064 28.3008642236036181 Ti
atom 1.9001098177769113 14.1816821630246910 28.3008642422072114 O
atom 1.9001101438261057 10.1711482830247046 28.3008642024999872 O
atom 3.8002203032827757 19.4822595880246752 28.3008642286036221 Ti
atom 5.7003324111358671 4.4405480930247254 28.3008642272072137 O
atom 5.7003327171851081 0.4300136230247376 28.3008642074999983 O
atom 3.8002210866415593 9.7411276480247082 28.3008642236036181 Ti
atom 5.7003316077769179 14.1816822230246888 28.3008642622072131 O
