#===============================================================================
# Created using the Atomic Simulation Environment (ASE)

# Mon Mar 23 14:01:33 2026

#=======================================================
lattice_vector 11.0253972427838800 0.0000000000000000 0.0000000000000000 
lattice_vector 3.2078926060844428 10.5484209638685815 0.0000000000000000 
lattice_vector 0.0000000000000000 0.0000000000000000 40.7741331316418751 
atom 12.1778002393201419 9.0250929211425159 16.9591924391538420 Ti
atom 7.8175045723620435 5.7936400136093091 18.0610581244279622 Ti
atom 2.3464471937033853 7.4139019061406488 16.9591777709876901 O
atom 7.7758635088264461 0.0878629909922771 16.9592071568778806 O
atom 12.2194414092955412 9.0559772343820448 15.0000000047473883 O
atom 13.7401054283038722 10.1829038595858670 16.7146534223060534 O
atom 9.4214508807982913 6.9823352366504796 15.8573266209521755 Ti
atom 10.6154951062533218 7.8672820065371649 17.2037314960646803 O
atom 7.8175045807825239 1.7081247657603935 15.8573266426054929 Ti
atom 9.0115488200520630 2.5930714842763232 17.2037314865698896 O
atom 10.5738539446983992 3.7508823486348972 16.9591923964271807 Ti
atom 6.2135582777403062 0.5194295467167691 18.0610581386701945 Ti
atom 0.7425008990816518 2.1396914040430821 16.9591777662402912 O
atom 9.3798098034481843 5.3620734402823027 16.9592071331408327 O
atom 10.6154951230942842 3.7817667209224601 15.0000000000000000 O
atom 12.1361591421026151 4.9086933285237677 16.7146534080638531 O
atom 3.9087522984823000 6.9823352480074874 15.8573266420255834 Ti
atom 5.1027964848613854 7.8672820153384198 17.2037315008120935 O
atom 6.6651015842462717 9.0250929401868252 16.9591924249115742 Ti
atom 2.3048059870195985 5.7936400139221131 18.0610581238480492 Ti
atom 7.8591457928603417 7.4139019072646288 16.9591777689039347 O
atom 2.2631648874345096 0.0878630085947901 16.9592071663726962 O
atom 6.7067427879036012 9.0559772431833014 15.0000000094947943 O
atom 8.2274067816504868 10.1829038760694122 16.7146534128112023 O
atom 5.0611552896245300 3.7508823676792042 16.9591923821849129 Ti
atom 0.7008596870038317 0.5194295430320269 18.0610581455013666 Ti
atom 6.2551994898181187 2.1396913989265678 16.9591777546617131 O
atom 3.8671112012647795 5.3620734545178923 16.9592071278134959 O
atom 5.1027965017023469 3.7817667297237176 15.0000000047474096 O
atom 6.6234604954492280 4.9086933450073138 16.7146533985690020 O
atom 2.3048059900460549 1.7081247708769083 15.8573266541840745 Ti
atom 3.4988501986601213 2.5930715018788364 17.2037314960647016 O
atom 8.9699076332356995 6.6477024654527535 21.3666554217884297 Ti
atom 4.6096119662776065 3.4162495579195462 22.4685211070625535 Ti
atom 10.1639518304028247 5.0365114504508854 21.3666407536222813 O
atom 7.7758635088264505 8.2588934991710961 21.3666701395124754 O
atom 9.0115488032111006 6.6785867786922823 19.4074629873819795 O
atom 10.5322128222194316 7.8055134038961036 21.1221164049406447 O
atom 10.5738539416719384 7.8363976972951805 19.1629239230600525 Ti
atom 6.2135582747138471 4.6049447809607154 20.2647896035867703 Ti
atom 11.7678981334450441 6.2252066782957662 19.1629092623049821 O
atom 9.3798098118686699 9.4475887358172326 19.1629386529425858 O
atom 7.4076025001688803 5.4898915508474024 21.6111944786992716 O
atom 12.1361591252616527 8.9942086317409853 18.9183849136233491 O
atom 8.9699076470501975 2.5621871335888176 19.1629238850808008 Ti
atom 7.8175045807825327 9.8791552739392117 20.2647896252400841 Ti
atom 10.1639518388233032 0.9509961761982004 19.1629092575575832 O
atom 7.7758635142204726 4.1733782138742050 19.1629386217944635 O
atom 5.8036562139676242 0.2156810285865595 21.6111944692044808 O
atom 10.5322128390603922 3.7199981006788865 18.9183848993811452 O
atom 7.3659613386139577 1.3734918929451347 21.3666553790617648 Ti
atom 6.2135582777403080 8.6904600548955866 22.4685211213047857 Ti
atom 11.7678981418655333 10.3107219122219007 21.3666407488748824 O
atom 6.1719171973637490 2.9846829845925402 21.3666701157754240 O
atom 7.4076025170098454 1.4043762652326974 19.4074629826345877 O
atom 8.9282665360181710 2.5313028728340052 21.1221163906984408 O
atom 5.0611552727835676 7.8363977149027058 19.1629239114814531 Ti
atom 11.7262569351817341 4.6049447923177249 20.2647896246601711 Ti
atom 6.2551994898181231 6.2252066794197463 19.1629092602212303 O
atom 3.8671111958707560 9.4475887486160364 19.1629386502789103 O
atom 1.8949038787769446 5.4898915596486582 21.6111944834466847 O
atom 6.6234604786082674 8.9942086394232721 18.9183848993810919 O
atom 3.4572089781618298 6.6477024844970600 21.3666554075461654 Ti
atom 10.1223106237190379 3.4162495582323520 22.4685211064826369 Ti
atom 4.6512531867758966 5.0365114515748646 21.3666407515385259 O
atom 13.2885621302183914 8.2588935167736075 21.3666701490072874 O
atom 3.4988501818191606 6.6785867874935390 19.4074629921293855 O
atom 5.0195141755660471 7.8055134203796488 21.1221163954457971 O
atom 1.8532626835400940 1.3734919119894409 21.3666553648195041 Ti
atom 11.7262569297877164 8.6904600512108452 22.4685211281359578 Ti
atom 6.2551994898181178 10.3107219071053855 21.3666407372963043 O
atom 11.6846158379642127 2.9846829988281294 21.3666701104480872 O
atom 1.8949038956179007 1.4043762740339552 19.4074629873819973 O
atom 3.4155678893647914 2.5313028893175504 21.1221163812035932 O
atom 3.4572089865823155 2.5621871486355805 19.1629238782496181 Ti
atom 13.3302032328299358 9.8791552790557269 20.2647896368186586 Ti
atom 4.6512531898023592 0.9509961645233768 19.1629092581375104 O
atom 2.2631648844080505 4.1733782252362275 19.1629386217944528 O
atom 0.2909575925756900 0.2156810461890742 21.6111944786992929 O
atom 5.0195141924070068 3.7199981171624317 18.9183848898862976 O
atom 5.7620150271512527 4.2703120097629919 25.7741184044230174 Ti
atom 6.9560592243183876 2.6591209947611230 25.7741037362568726 O
atom 4.5679709027420046 5.8815030434813336 25.7741331221470631 O
atom 5.8036561971266627 4.3011963230025199 23.8149259700165707 O
atom 7.3243202161349910 5.4281229482063402 25.5295793875752395 O
atom 7.3659613355875040 5.4590072416054189 23.5703869056946438 Ti
atom 3.0056656686294057 2.2275543252709542 24.6722525862213580 Ti
atom 8.5600055273606035 3.8478162226060042 23.5703722449395734 O
atom 6.1719172057842249 7.0701982801274701 23.5704016355771806 O
atom 8.9282665191772068 6.6168181760512228 23.3258478962579368 O
atom 5.7620150409657578 0.1847966778990548 23.5703868677153920 Ti
atom 4.6096119746980824 7.5017648182494518 24.6722526078746718 Ti
atom 10.1639518388233032 9.1220266843770190 23.5703722401921780 O
atom 4.5679709081360365 1.7959877581844412 23.5704016044290618 O
atom 7.3243202329759516 1.3426076449891244 23.3258478820157329 O
atom 7.3659613386139648 9.5445224011239524 25.7741183616963596 Ti
atom 8.5600055357810874 7.9333314565321400 25.7741037315094736 O
atom 2.9640245912793080 0.6072925289027785 25.7741330984100117 O
atom 7.4076025170098516 9.5754067734115171 23.8149259652691825 O
atom 5.7203739299337304 0.1539124171442419 25.5295793733330321 O
atom 1.8532626666991261 5.4590072592129424 23.5703868941160444 Ti
atom 8.5183643290972952 2.2275543366279607 24.6722526072947623 Ti
atom 3.0473068837336861 3.8478162237299829 23.5703722428558216 O
atom 11.6846158325701897 7.0701982929262730 23.5704016329134980 O
atom 3.4155678725238157 6.6168181837335105 23.3258478820156832 O
atom 11.2747136148612590 4.2703120288072984 25.7741183901807531 Ti
atom 1.4433605806914562 2.6591209958851039 25.7741037341731136 O
atom 10.0806695241339490 5.8815030610838450 25.7741331316418787 O
atom 11.3163548185185991 4.3011963318037782 23.8149259747639768 O
atom 1.8116215694816007 5.4281229646898872 25.5295793780803848 O
atom 12.8786599263239712 9.5445224201682599 25.7741183474540989 Ti
atom 3.0473068837336763 7.9333314514156239 25.7741037199308956 O
atom 8.4767232318797756 0.6072925431383657 25.7741330930826784 O
atom 12.9203011384017881 9.5754067822127755 23.8149259700165850 O
atom 0.2076752832803403 0.1539124336277889 25.5295793638381845 O
atom 0.2493163804978789 0.1847966929458179 23.5703868608842093 Ti
atom 10.1223106267454970 7.5017648233659626 24.6722526194532499 Ti
atom 4.6512531898023513 9.1220266727021979 23.5703722407720981 O
atom 10.0806695211074846 1.7959877695464654 23.5704016044290405 O
atom 1.8116215863225660 1.3426076614726701 23.3258478725208924 O
