#===============================================================================
# Created using the Atomic Simulation Environment (ASE)

# Mon Mar 23 14:01:33 2026

#=======================================================
lattice_vector 11.0253972427838800 0.0000000000000000 0.0000000000000000 
lattice_vector 3.2078926060844428 10.5484209638685815 0.0000000000000000 
lattice_vector 0.0000000000000000 0.0000000000000000 36.3666701490072910 
atom 8.9699076332356995 6.6477024654527535 16.9591924391538420 Ti
atom 4.6096119662776065 3.4162495579195462 18.0610581244279658 Ti
atom 10.1639518304028247 5.0365114504508854 16.9591777709876936 O
atom 7.7758635088264505 8.2588934991710961 16.9592071568778877 O
atom 9.0115488032111006 6.6785867786922823 15.0000000047473918 O
atom 10.5322128222194316 7.8055134038961036 16.7146534223060570 O
atom 6.2135582747138471 4.6049447809607154 15.8573266209521826 Ti
atom 7.4076025001688803 5.4898915508474024 17.2037314960646839 O
atom 7.8175045807825327 9.8791552739392117 15.8573266426054964 Ti
atom 5.8036562139676242 0.2156810285865595 17.2037314865698931 O
atom 7.3659613386139577 1.3734918929451347 16.9591923964271771 Ti
atom 6.2135582777403080 8.6904600548955866 18.0610581386701980 Ti
atom 11.7678981418655333 10.3107219122219007 16.9591777662402947 O
atom 6.1719171973637490 2.9846829845925402 16.9592071331408363 O
atom 7.4076025170098454 1.4043762652326974 15.0000000000000000 O
atom 8.9282665360181710 2.5313028728340052 16.7146534080638531 O
atom 11.7262569351817341 4.6049447923177249 15.8573266420255834 Ti
atom 1.8949038787769446 5.4898915596486582 17.2037315008120970 O
atom 3.4572089781618298 6.6477024844970600 16.9591924249115777 Ti
atom 10.1223106237190379 3.4162495582323520 18.0610581238480492 Ti
atom 4.6512531867758966 5.0365114515748646 16.9591777689039382 O
atom 13.2885621302183914 8.2588935167736075 16.9592071663726998 O
atom 3.4988501818191606 6.6785867874935390 15.0000000094947978 O
atom 5.0195141755660471 7.8055134203796488 16.7146534128112094 O
atom 1.8532626835400940 1.3734919119894409 16.9591923821849164 Ti
atom 11.7262569297877164 8.6904600512108452 18.0610581455013701 Ti
atom 6.2551994898181178 10.3107219071053855 16.9591777546617166 O
atom 11.6846158379642127 2.9846829988281294 16.9592071278134995 O
atom 1.8949038956179007 1.4043762740339552 15.0000000047474096 O
atom 3.4155678893647914 2.5313028893175504 16.7146533985690056 O
atom 13.3302032328299358 9.8791552790557269 15.8573266541840709 Ti
atom 0.2909575925756900 0.2156810461890742 17.2037314960647052 O
atom 5.7620150271512527 4.2703120097629919 21.3666554217884297 Ti
atom 6.9560592243183876 2.6591209947611230 21.3666407536222849 O
atom 4.5679709027420046 5.8815030434813336 21.3666701395124754 O
atom 5.8036561971266627 4.3011963230025199 19.4074629873819831 O
atom 7.3243202161349910 5.4281229482063402 21.1221164049406518 O
atom 7.3659613355875040 5.4590072416054189 19.1629239230600561 Ti
atom 3.0056656686294057 2.2275543252709542 20.2647896035867703 Ti
atom 8.5600055273606035 3.8478162226060042 19.1629092623049857 O
atom 6.1719172057842249 7.0701982801274701 19.1629386529425929 O
atom 8.9282665191772068 6.6168181760512228 18.9183849136233491 O
atom 5.7620150409657578 0.1847966778990548 19.1629238850808044 Ti
atom 4.6096119746980824 7.5017648182494518 20.2647896252400841 Ti
atom 10.1639518388233032 9.1220266843770190 19.1629092575575903 O
atom 4.5679709081360365 1.7959877581844412 19.1629386217944742 O
atom 7.3243202329759516 1.3426076449891244 18.9183848993811452 O
atom 7.3659613386139648 9.5445224011239524 21.3666553790617719 Ti
atom 8.5600055357810874 7.9333314565321400 21.3666407488748860 O
atom 2.9640245912793080 0.6072925289027785 21.3666701157754240 O
atom 7.4076025170098516 9.5754067734115171 19.4074629826345948 O
atom 5.7203739299337304 0.1539124171442419 21.1221163906984444 O
atom 1.8532626666991261 5.4590072592129424 19.1629239114814567 Ti
atom 8.5183643290972952 2.2275543366279607 20.2647896246601746 Ti
atom 3.0473068837336861 3.8478162237299829 19.1629092602212339 O
atom 11.6846158325701897 7.0701982929262730 19.1629386502789103 O
atom 3.4155678725238157 6.6168181837335105 18.9183848993810955 O
atom 11.2747136148612590 4.2703120288072984 21.3666554075461654 Ti
atom 1.4433605806914562 2.6591209958851039 21.3666407515385259 O
atom 10.0806695241339490 5.8815030610838450 21.3666701490072910 O
atom 11.3163548185185991 4.3011963318037782 19.4074629921293891 O
atom 1.8116215694816007 5.4281229646898872 21.1221163954457971 O
atom 12.8786599263239712 9.5445224201682599 21.3666553648195112 Ti
atom 3.0473068837336763 7.9333314514156239 21.3666407372963079 O
atom 8.4767232318797756 0.6072925431383657 21.3666701104480907 O
atom 12.9203011384017881 9.5754067822127755 19.4074629873819973 O
atom 0.2076752832803403 0.1539124336277889 21.1221163812035968 O
atom 0.2493163804978789 0.1847966929458179 19.1629238782496216 Ti
atom 10.1223106267454970 7.5017648233659626 20.2647896368186622 Ti
atom 4.6512531898023513 9.1220266727021979 19.1629092581375104 O
atom 10.0806695211074846 1.7959877695464654 19.1629386217944528 O
atom 1.8116215863225660 1.3426076614726701 18.9183848898863047 O
