#===============================================================================
# Created using the Atomic Simulation Environment (ASE)

# Mon Mar 23 14:01:31 2026

#=======================================================
lattice_vector 7.6004937600000506 0.0000000000000000 0.0000000000000000 
lattice_vector -0.0000000000000672 7.6004436200000214 0.0000000000000000 
lattice_vector 0.0000000000000000 0.0000000000000000 55.2128664799997608 
atom 1.9001289072765992 7.6004399590443876 15.4300212850000023 Ti
atom 0.0000069470833561 7.6004390698474333 27.6064162349998838 Ti
atom 1.9001289374879471 1.9001072818598694 15.0000000099999937 O
atom 0.0000054870641861 7.6004399462296170 15.8600330249999999 O
atom 1.9001291994484848 7.6004398460209996 17.4352723849999762 O
atom 1.9001298031597824 1.9001067415268111 22.7358502299999259 Ti
atom 1.9001299951239130 7.6004392056855732 25.1711536349999108 Ti
atom 0.0000057992360902 7.6004398332062166 17.8652842949999737 Ti
atom 0.0000060312003577 1.9001068873649223 20.3005880099999487 Ti
atom 0.0000063433722081 1.9001067643415566 22.3058388099999263 O
atom 1.9001299153353464 1.9001065185009982 24.7411330999999137 O
atom 1.9001297229483578 7.6004394387113807 23.1658708449999367 O
atom 0.0000066349114954 7.6004391928708044 25.6011653349999122 O
atom 1.9001303472957958 7.6004391026621860 27.1764047149998831 O
atom 0.0000059914116635 7.6004396301803974 19.8705672349999531 O
atom 0.0000058290247688 1.9001070903907513 18.2953049299999790 O
atom 1.9001295109879175 1.9001068745501861 20.7305993099999455 O
atom 1.9001289072766314 3.8002181490443769 15.4300212749999943 Ti
atom 0.0000069570833897 3.8002172498474218 27.6064162349998696 Ti
atom 1.9001289274879123 5.7003290918598797 15.0000000000000000 O
atom 0.0000054870642197 3.8002181462296067 15.8600330350000007 O
atom 1.9001291994485170 3.8002180560209888 17.4352723749999825 O
atom 1.9001298031597578 5.7003285515268152 22.7358503099999325 Ti
atom 1.9001299951239452 3.8002173756855631 25.1711536249999099 Ti
atom 0.0000057992361237 3.8002180332062045 17.8652842949999808 Ti
atom 0.0000060012003276 5.7003286973649301 20.3005880399999512 Ti
atom 0.0000063633721814 5.7003285543415618 22.3058388699999171 O
atom 1.9001299153353197 5.7003283385010040 24.7411331599999258 O
atom 1.9001297229483922 3.8002176087113679 23.1658708549999375 O
atom 0.0000066349115273 3.8002173528707952 25.6011653349998980 O
atom 1.9001303572958310 3.8002172826621741 27.1764047249998839 O
atom 0.0000059914116971 3.8002178201803871 19.8705672349999531 O
atom 0.0000057990247365 5.7003289103907600 18.2953049399999728 O
atom 1.9001295009878942 5.7003286645501889 20.7305993999999529 O
atom 5.7003757472766265 7.6004399690443867 15.4300212850000094 Ti
atom 3.8002538170833775 7.6004390698474342 27.6064162049998814 Ti
atom 5.7003756474879737 1.9001072818598694 15.0000000100000150 O
atom 3.8002523670642181 7.6004399362296127 15.8600330949999986 O
atom 5.7003760894485094 7.6004398660209995 17.4352723749999683 O
atom 5.7003767431598105 1.9001067315268105 22.7358502399999267 Ti
atom 5.7003769451239377 7.6004392356855730 25.1711536349999037 Ti
atom 3.8002526792361189 7.6004398132062141 17.8652843249999691 Ti
atom 3.8002528912003855 1.9001068773649201 20.3005880399999512 Ti
atom 3.8002532433722420 1.9001067643415506 22.3058388899999258 O
atom 5.7003769553353809 1.9001065185009927 24.7411331699998911 O
atom 5.7003768829483832 7.6004393987113801 23.1658708449999082 O
atom 3.8002535149115100 7.6004391928708115 25.6011652549999056 O
atom 5.7003772172958209 7.6004391326621850 27.1764047249998839 O
atom 3.8002528814116929 7.6004396201803930 19.8705672849999573 O
atom 3.8002527090248002 1.9001070803907476 18.2953049799999761 O
atom 5.7003763809879526 1.9001068745501808 20.7305993799999584 O
atom 5.7003757372766586 3.8002181490443765 15.4300212850000094 Ti
atom 3.8002538170834117 3.8002172498474227 27.6064162149998751 Ti
atom 5.7003756374879400 5.7003290918598797 15.0000000100000150 O
atom 3.8002523670642523 3.8002181462296023 15.8600330949999986 O
atom 5.7003760794485441 3.8002180360209894 17.4352723749999825 O
atom 5.7003767431597838 5.7003285415268135 22.7358503099999254 Ti
atom 5.7003769351239724 3.8002173456855624 25.1711536349998894 Ti
atom 3.8002526792361522 3.8002180232062037 17.8652843249999691 Ti
atom 3.8002529012003565 5.7003286873649266 20.3005880799999545 Ti
atom 3.8002532133722151 5.7003285543415574 22.3058389399999228 O
atom 5.7003769553353392 5.7003283385010075 24.7411331099999003 O
atom 5.7003768829484178 3.8002176187113683 23.1658708549999091 O
atom 3.8002535149115442 3.8002173628708005 25.6011652649999064 O
atom 5.7003772272958564 3.8002172526621734 27.1764047349998776 O
atom 3.8002528814117258 3.8002178101803841 19.8705672749999565 O
atom 3.8002527290247667 5.7003289003907582 18.2953049799999761 O
atom 5.7003763809879144 5.7003286545501926 20.7305993499999488 O
atom 1.9001310010072452 1.9001059681678978 32.4769838699998274 Ti
atom 1.9001312129715018 7.6004384323265759 34.9122883649998101 Ti
atom 0.0000071590476857 1.9001061040060985 30.0417204799998530 Ti
atom 0.0000074912195991 1.9001059609826905 32.0469718299998263 O
atom 1.9001312431828492 1.9001057551420582 34.4822670899998087 O
atom 1.9001311007958919 7.6004386653524199 32.9070050949998176 O
atom 0.0000077927590865 7.6004384195118062 35.3423001049998078 O
atom 1.9001315051433874 7.6004383193031879 36.9175394649997628 O
atom 0.0000071492589678 7.6004388568215884 29.6116995149998630 O
atom 0.0000069968720915 1.9001063270319303 28.0364373599998800 O
atom 1.9001306388353387 1.9001060711913003 30.4717325899998599 O
atom 0.0000081049309926 7.6004383064884049 37.3475513749997816 Ti
atom 0.0000083368952598 1.9001053606471108 39.7828550899997566 Ti
atom 0.0000082971065656 7.6004381034625865 39.3528343149997539 O
atom 0.0000081347196713 1.9001055636729396 37.7775720099997869 O
atom 1.9001318166828196 1.9001053478323746 40.2128663899997747 O
atom 1.9001309910072113 5.7003277981679084 32.4769838699998274 Ti
atom 1.9001312129715340 3.8002166223265657 34.9122883549998306 Ti
atom 0.0000071590476504 5.7003279340061104 30.0417204699998663 Ti
atom 0.0000074812195643 5.7003278309827028 32.0469718199998397 O
atom 1.9001312331828144 5.7003275651420688 34.4822670799998008 O
atom 1.9001311007959227 3.8002168553524101 32.9070050749998160 O
atom 0.0000077927591218 3.8002166195117946 35.3423001149998157 O
atom 1.9001315051434196 3.8002165293031767 36.9175394549997833 O
atom 0.0000071492590047 3.8002170468215755 29.6116995349998575 O
atom 0.0000069868720568 5.7003281370319412 28.0364373499998791 O
atom 1.9001306388353039 5.7003279511913121 30.4717325799998662 O
atom 0.0000081049310262 3.8002165064883928 37.3475513749997816 Ti
atom 0.0000083068952297 5.7003271706471184 39.7828551199997520 Ti
atom 0.0000082971065992 3.8002162934625754 39.3528343149997539 O
atom 0.0000081047196386 5.7003273836729491 37.7775720199997664 O
atom 1.9001318066827968 5.7003271378323781 40.2128664799997608 O
atom 5.7003778410072705 1.9001059581678976 32.4769838699998274 Ti
atom 5.7003780529715273 7.6004384423265767 34.9122883649998101 Ti
atom 3.8002540290477076 1.9001061040060998 30.0417204599998655 Ti
atom 3.8002543712196184 1.9001059609826951 32.0469717699998284 O
atom 5.7003779531828744 1.9001057551420582 34.4822670899998087 O
atom 5.7003777907959163 7.6004386653524199 32.9070050949998461 O
atom 3.8002546727591211 7.6004384095118001 35.3423001749998065 O
atom 5.7003783951434110 7.6004383393031887 36.9175394549997833 O
atom 3.8002539892589882 7.6004388568215902 29.6116994749998668 O
atom 3.8002538268721140 1.9001063270319327 28.0364373299998846 O
atom 5.7003775288353618 1.9001060611913017 30.4717325699998582 O
atom 3.8002549849310219 7.6004382864884024 37.3475514049997770 Ti
atom 3.8002551968952885 1.9001053506471088 39.7828551199997520 Ti
atom 3.8002551871065959 7.6004380934625821 39.3528343649997652 O
atom 3.8002550147197023 1.9001055536729359 37.7775720599997697 O
atom 5.7003786866828534 1.9001053478323695 40.2128664599997450 O
atom 5.7003778310072377 5.7003277881679084 32.4769838699998274 Ti
atom 5.7003780429715603 3.8002166223265652 34.9122883649998386 Ti
atom 3.8002540190476726 5.7003279340061104 30.0417204499998576 Ti
atom 3.8002543612195825 5.7003278309827063 32.0469717599998276 O
atom 5.7003779431828416 5.7003275651420680 34.4822670899998087 O
atom 5.7003777907959474 3.8002168553524101 32.9070050749998444 O
atom 3.8002546727591544 3.8002166195117906 35.3423001749998065 O
atom 5.7003783851434449 3.8002165093031772 36.9175394549997833 O
atom 3.8002539892590232 3.8002170468215790 29.6116994949998684 O
atom 3.8002538468720779 5.7003281370319439 28.0364373199998838 O
atom 5.7003775288353289 5.7003279411913130 30.4717325699998653 O
atom 3.8002549849310552 3.8002164964883911 37.3475514049997770 Ti
atom 3.8002552068952595 5.7003271606471166 39.7828551599997553 Ti
atom 3.8002551871066284 3.8002162834625719 39.3528343549997572 O
atom 3.8002550347196689 5.7003273736729465 37.7775720599997697 O
atom 5.7003786866828179 5.7003271278323826 40.2128664299997496 O
