#===============================================================================
# Created using the Atomic Simulation Environment (ASE)

# Mon Mar 23 14:01:31 2026

#=======================================================
lattice_vector 7.6004937600000506 0.0000000000000000 0.0000000000000000 
lattice_vector -0.0000000000000672 7.6004436200000214 0.0000000000000000 
lattice_vector 0.0000000000000000 0.0000000000000000 79.5657011649995241 
atom 1.9001263896174401 1.9001090216035210 17.8652843949999678 Ti
atom 1.9001266015816967 7.6004414857621994 20.3005888899999469 Ti
atom 0.0000046413884537 7.6004405965652442 32.4769838399998321 Ti
atom 0.0000025476578798 1.9001091574417217 15.4300210049999968 Ti
atom 0.0000028798297942 1.9001090144183137 17.4352723549999666 O
atom 1.9001266317930445 1.9001088085776814 19.8705676149999384 O
atom 1.9001264894060867 7.6004417187880433 18.2953056199999580 O
atom 0.0000031813692823 7.6004414729474306 20.7306006299999410 O
atom 1.9001268937535822 7.6004413727388105 22.3058399899999209 O
atom 0.0000025378691636 7.6004419102572127 15.0000000399999998 O
atom 1.9001260274455336 1.9001091246269235 15.8600331149999967 O
atom 1.9001274974648799 1.9001082682446226 27.6064178349998812 Ti
atom 1.9001276894290100 7.6004407324033840 30.0417212399998590 Ti
atom 0.0000034935411877 7.6004413599240284 22.7358518999999184 Ti
atom 0.0000037255054556 1.9001084140827340 25.1711556149998970 Ti
atom 0.0000040376773056 1.9001082910593681 27.1764064149998816 O
atom 1.9001276096404438 1.9001080452188095 29.6117007049998691 O
atom 1.9001274172534550 7.6004409654291916 28.0364384499998849 O
atom 0.0000043292165916 7.6004407195886170 30.4717329399998604 O
atom 1.9001280416008932 7.6004406293799978 32.0469723199998313 O
atom 0.0000036857167598 7.6004411568982091 24.7411348399999014 O
atom 0.0000035233298664 1.9001086171085633 23.1658725349999202 O
atom 1.9001272052930152 1.9001084012679978 25.6011669149999008 O
atom 1.9001263796174066 5.7003308516035318 17.8652843949999678 Ti
atom 1.9001266015817289 3.8002196757621887 20.3005888799999461 Ti
atom 0.0000046513884873 3.8002187765652327 32.4769838399998179 Ti
atom 0.0000025476578462 5.7003309874417329 15.4300209949999996 Ti
atom 0.0000028698297595 5.7003308844183254 17.4352723449999765 O
atom 1.9001266217930097 5.7003306185776923 19.8705676049999411 O
atom 1.9001264894061181 3.8002199087880340 18.2953055999999563 O
atom 0.0000031813693159 3.8002196729474185 20.7306006399999490 O
atom 1.9001268937536144 3.8002195827388001 22.3058399799999236 O
atom 0.0000025378691988 3.8002201002571989 15.0000000600000014 O
atom 1.9001260274454990 5.7003310046269347 15.8600331050000030 O
atom 1.9001274974648552 5.7003300782446269 27.6064179149998807 Ti
atom 1.9001276894290422 3.8002189024033743 30.0417212299998582 Ti
atom 0.0000034935412213 3.8002195599240163 22.7358518999999255 Ti
atom 0.0000036955054255 5.7003302240827427 25.1711556449999065 Ti
atom 0.0000040576772790 5.7003300810593736 27.1764064749998724 O
atom 1.9001276096404167 5.7003298652188157 29.6117007649998740 O
atom 1.9001274172534897 3.8002191354291797 28.0364384599998928 O
atom 0.0000043292166252 3.8002188795886069 30.4717329399998462 O
atom 1.9001280516009280 3.8002188093799862 32.0469723299998250 O
atom 0.0000036857167933 3.8002193468981984 24.7411348399999014 O
atom 0.0000034933298344 5.7003304371085726 23.1658725449999210 O
atom 1.9001271952929917 5.7003301912680016 25.6011670049999012 O
atom 5.7003732296174654 1.9001090116035209 17.8652843949999678 Ti
atom 5.7003734415817222 7.6004414957621993 20.3005888899999469 Ti
atom 3.8002515113884754 7.6004405965652468 32.4769838099998225 Ti
atom 3.8002494176579025 1.9001091574417230 15.4300209849999987 Ti
atom 3.8002497598298133 1.9001090144183184 17.4352722949999723 O
atom 5.7003733417930693 1.9001088085776814 19.8705676149999597 O
atom 5.7003731794061112 7.6004417187880433 18.2953056199999793 O
atom 3.8002500613693160 7.6004414629474244 20.7306006999999433 O
atom 5.7003737837536059 7.6004413927388121 22.3058399799999165 O
atom 3.8002493778691830 7.6004419102572154 15.0000000000000000 O
atom 5.7003729174455566 1.9001091146269251 15.8600330949999950 O
atom 5.7003744374649061 1.9001082582446223 27.6064178449998678 Ti
atom 5.7003746394290360 7.6004407624033847 30.0417212399998448 Ti
atom 3.8002503735412168 7.6004413399240258 22.7358519299999209 Ti
atom 3.8002505855054833 1.9001084040827321 25.1711556449999065 Ti
atom 3.8002509376773403 1.9001082910593625 27.1764064949998740 O
atom 5.7003746496404775 1.9001080452188042 29.6117007749998464 O
atom 5.7003745772534806 7.6004409254291918 28.0364384499998565 O
atom 3.8002512092166070 7.6004407195886232 30.4717328599998538 O
atom 5.7003749116009192 7.6004406593799967 32.0469723299998392 O
atom 3.8002505757167913 7.6004411468982056 24.7411348899998984 O
atom 3.8002504033298981 1.9001086071085591 23.1658725849999136 O
atom 5.7003740752930492 1.9001084012679927 25.6011669849998995 O
atom 5.7003732196174317 5.7003308416035319 17.8652843949999713 Ti
atom 5.7003734315817551 3.8002196757621878 20.3005888899999469 Ti
atom 3.8002515113885096 3.8002187765652349 32.4769838199998304 Ti
atom 3.8002494076578683 5.7003309874417347 15.4300209749999979 Ti
atom 3.8002497498297783 5.7003308844183307 17.4352722849999715 O
atom 5.7003733317930365 5.7003306185776914 19.8705676149999597 O
atom 5.7003731794061423 3.8002199087880340 18.2953055999999776 O
atom 3.8002500613693502 3.8002196729474131 20.7306006999999433 O
atom 5.7003737737536397 3.8002195627388007 22.3058399799999236 O
atom 3.8002493778692190 3.8002201002572020 15.0000000200000017 O
atom 5.7003729174455238 5.7003309946269356 15.8600330950000021 O
atom 5.7003744374648821 5.7003300682446261 27.6064179149998665 Ti
atom 5.7003746294290698 3.8002188724033732 30.0417212399998448 Ti
atom 3.8002503735412501 3.8002195499240150 22.7358519299999244 Ti
atom 3.8002505955054544 5.7003302140827392 25.1711556849998956 Ti
atom 3.8002509076773130 5.7003300810593691 27.1764065449998853 O
atom 5.7003746496404366 5.7003298652188192 29.6117007149998557 O
atom 5.7003745772535162 3.8002191454291792 28.0364384599998502 O
atom 3.8002512092166421 3.8002188895886122 30.4717328699998475 O
atom 5.7003749216009538 3.8002187793799851 32.0469723399998330 O
atom 3.8002505757168237 3.8002193368981958 24.7411348799998976 O
atom 3.8002504233298646 5.7003304271085709 23.1658725849999207 O
atom 5.7003740752930128 5.7003301812680052 25.6011669549999041 O
atom 1.9001286953123426 1.9001074948857091 37.3475514749997828 Ti
atom 1.9001289072765992 7.6004399590443876 39.7828559699997584 Ti
atom 0.0000069470833561 7.6004390698474333 51.9592509199996400 Ti
atom 0.0000048533527836 1.9001076307239100 34.9122880849998012 Ti
atom 0.0000051855246966 1.9001074877005020 36.9175394349997816 O
atom 1.9001289374879471 1.9001072818598694 39.3528346949997498 O
atom 1.9001287951009893 7.6004401920702316 37.7775726999997730 O
atom 0.0000054870641861 7.6004399462296170 40.2128677099997560 O
atom 1.9001291994484848 7.6004398460209996 41.7881070699997323 O
atom 0.0000048435640657 7.6004403835393992 34.4822671199998112 O
atom 0.0000046911771891 1.9001078537497420 32.9070049649998211 O
atom 1.9001283331404362 1.9001075979091115 35.3423001949998010 O
atom 1.9001298031597824 1.9001067415268111 47.0886849149996820 Ti
atom 1.9001299951239130 7.6004392056855732 49.5239883199996669 Ti
atom 0.0000057992360902 7.6004398332062166 42.2181189799997298 Ti
atom 0.0000060312003577 1.9001068873649223 44.6534226949997048 Ti
atom 0.0000063433722081 1.9001067643415566 46.6586734949996824 O
atom 1.9001299153353464 1.9001065185009982 49.0939677849996698 O
atom 1.9001297229483578 7.6004394387113807 47.5187055299996928 O
atom 0.0000066349114954 7.6004391928708044 49.9540000199996683 O
atom 1.9001303472957958 7.6004391026621860 51.5292393999996392 O
atom 0.0000059914116635 7.6004396301803974 44.2234019199997093 O
atom 0.0000058290247688 1.9001070903907513 42.6481396149997352 O
atom 1.9001295109879175 1.9001068745501861 45.0834339949997016 O
atom 1.9001286853123092 5.7003293248857192 37.3475514749997828 Ti
atom 1.9001289072766314 3.8002181490443769 39.7828559599997504 Ti
atom 0.0000069570833897 3.8002172498474218 51.9592509199996258 Ti
atom 0.0000048533527483 5.7003294607239203 34.9122880749998146 Ti
atom 0.0000051755246619 5.7003293577005127 36.9175394249997879 O
atom 1.9001289274879123 5.7003290918598797 39.3528346849997561 O
atom 1.9001287951010206 3.8002183820702218 37.7775726799997571 O
atom 0.0000054870642197 3.8002181462296067 40.2128677199997568 O
atom 1.9001291994485170 3.8002180560209888 41.7881070599997386 O
atom 0.0000048435641009 3.8002185735393876 34.4822671399998057 O
atom 0.0000046811771544 5.7003296637497529 32.9070049549998274 O
atom 1.9001283331404015 5.7003294779091229 35.3423001849998144 O
atom 1.9001298031597578 5.7003285515268152 47.0886849949996886 Ti
atom 1.9001299951239452 3.8002173756855631 49.5239883099996661 Ti
atom 0.0000057992361237 3.8002180332062045 42.2181189799997370 Ti
atom 0.0000060012003276 5.7003286973649301 44.6534227249997073 Ti
atom 0.0000063633721814 5.7003285543415618 46.6586735549996732 O
atom 1.9001299153353197 5.7003283385010040 49.0939678449996819 O
atom 1.9001297229483922 3.8002176087113679 47.5187055399996936 O
atom 0.0000066349115273 3.8002173528707952 49.9540000199996541 O
atom 1.9001303572958310 3.8002172826621741 51.5292394099996400 O
atom 0.0000059914116971 3.8002178201803871 44.2234019199997093 O
atom 0.0000057990247365 5.7003289103907600 42.6481396249997289 O
atom 1.9001295009878942 5.7003286645501889 45.0834340849997091 O
atom 5.7003755353123688 1.9001074848857091 37.3475514749997828 Ti
atom 5.7003757472766265 7.6004399690443867 39.7828559699997655 Ti
atom 3.8002538170833775 7.6004390698474342 51.9592508899996375 Ti
atom 3.8002517233528046 1.9001076307239118 34.9122880649998066 Ti
atom 3.8002520655247154 1.9001074877005066 36.9175393749997767 O
atom 5.7003756474879737 1.9001072818598694 39.3528346949997712 O
atom 5.7003754851010147 7.6004401920702316 37.7775726999997872 O
atom 3.8002523670642181 7.6004399362296127 40.2128677799997547 O
atom 5.7003760894485094 7.6004398660209995 41.7881070599997244 O
atom 3.8002516835640852 7.6004403835394019 34.4822670799998079 O
atom 3.8002515211772110 1.9001078537497444 32.9070049349998328 O
atom 5.7003752231404592 1.9001075879091132 35.3423001749997994 O
atom 5.7003767431598105 1.9001067315268105 47.0886849249996828 Ti
atom 5.7003769451239377 7.6004392356855730 49.5239883199996598 Ti
atom 3.8002526792361189 7.6004398132062141 42.2181190099997252 Ti
atom 3.8002528912003855 1.9001068773649201 44.6534227249997073 Ti
atom 3.8002532433722420 1.9001067643415506 46.6586735749996819 O
atom 5.7003769553353809 1.9001065185009927 49.0939678549996472 O
atom 5.7003768829483832 7.6004393987113801 47.5187055299996643 O
atom 3.8002535149115100 7.6004391928708115 49.9539999399996617 O
atom 5.7003772172958209 7.6004391326621850 51.5292394099996400 O
atom 3.8002528814116929 7.6004396201803930 44.2234019699997134 O
atom 3.8002527090248002 1.9001070803907476 42.6481396649997322 O
atom 5.7003763809879526 1.9001068745501808 45.0834340649997145 O
atom 5.7003755253123360 5.7003293148857193 37.3475514749997828 Ti
atom 5.7003757372766586 3.8002181490443765 39.7828559699997655 Ti
atom 3.8002538170834117 3.8002172498474227 51.9592508999996312 Ti
atom 3.8002517133527705 5.7003294607239221 34.9122880549998129 Ti
atom 3.8002520555246804 5.7003293577005181 36.9175393649997829 O
atom 5.7003756374879400 5.7003290918598797 39.3528346949997712 O
atom 5.7003754851010466 3.8002183820702222 37.7775726799997855 O
atom 3.8002523670642523 3.8002181462296023 40.2128677799997547 O
atom 5.7003760794485441 3.8002180360209894 41.7881070599997386 O
atom 3.8002516835641211 3.8002185735393907 34.4822670999998238 O
atom 3.8002515411771758 5.7003296637497556 32.9070049249998391 O
atom 5.7003752231404254 5.7003294679091239 35.3423001749998065 O
atom 5.7003767431597838 5.7003285415268135 47.0886849949996815 Ti
atom 5.7003769351239724 3.8002173456855624 49.5239883199996456 Ti
atom 3.8002526792361522 3.8002180232062037 42.2181190099997252 Ti
atom 3.8002529012003565 5.7003286873649266 44.6534227649997106 Ti
atom 3.8002532133722151 5.7003285543415574 46.6586736249996790 O
atom 5.7003769553353392 5.7003283385010075 49.0939677949996565 O
atom 5.7003768829484178 3.8002176187113683 47.5187055399996652 O
atom 3.8002535149115442 3.8002173628708005 49.9539999499996625 O
atom 5.7003772272958564 3.8002172526621734 51.5292394199996338 O
atom 3.8002528814117258 3.8002178101803841 44.2234019599997126 O
atom 3.8002527290247667 5.7003289003907582 42.6481396649997322 O
atom 5.7003763809879144 5.7003286545501926 45.0834340349997049 O
atom 1.9001310010072452 1.9001059681678978 56.8298185549995836 Ti
atom 1.9001312129715018 7.6004384323265759 59.2651230499995663 Ti
atom 0.0000071590476857 1.9001061040060985 54.3945551649996091 Ti
atom 0.0000074912195991 1.9001059609826905 56.3998065149995824 O
atom 1.9001312431828492 1.9001057551420582 58.8351017749995648 O
atom 1.9001311007958919 7.6004386653524199 57.2598397799995738 O
atom 0.0000077927590865 7.6004384195118062 59.6951347899995639 O
atom 1.9001315051433874 7.6004383193031879 61.2703741499995189 O
atom 0.0000071492589678 7.6004388568215884 53.9645341999996191 O
atom 0.0000069968720915 1.9001063270319303 52.3892720449996361 O
atom 1.9001306388353387 1.9001060711913003 54.8245672749996160 O
atom 0.0000081049309926 7.6004383064884049 61.7003860599995377 Ti
atom 0.0000083368952598 1.9001053606471108 64.1356897749995198 Ti
atom 0.0000082971065656 7.6004381034625865 63.7056689999995100 O
atom 0.0000081347196713 1.9001055636729396 62.1304066949995430 O
atom 1.9001318166828196 1.9001053478323746 64.5657010749995379 O
atom 1.9001309910072113 5.7003277981679084 56.8298185549995836 Ti
atom 1.9001312129715340 3.8002166223265657 59.2651230399995868 Ti
atom 0.0000071590476504 5.7003279340061104 54.3945551549996225 Ti
atom 0.0000074812195643 5.7003278309827028 56.3998065049995958 O
atom 1.9001312331828144 5.7003275651420688 58.8351017649995569 O
atom 1.9001311007959227 3.8002168553524101 57.2598397599995721 O
atom 0.0000077927591218 3.8002166195117946 59.6951347999995718 O
atom 1.9001315051434196 3.8002165293031767 61.2703741399995394 O
atom 0.0000071492590047 3.8002170468215755 53.9645342199996136 O
atom 0.0000069868720568 5.7003281370319412 52.3892720349996353 O
atom 1.9001306388353039 5.7003279511913121 54.8245672649996223 O
atom 0.0000081049310262 3.8002165064883928 61.7003860599995377 Ti
atom 0.0000083068952297 5.7003271706471184 64.1356898049995152 Ti
atom 0.0000082971065992 3.8002162934625754 63.7056689999995100 O
atom 0.0000081047196386 5.7003273836729491 62.1304067049995226 O
atom 1.9001318066827968 5.7003271378323781 64.5657011649995241 O
atom 5.7003778410072705 1.9001059581678976 56.8298185549995836 Ti
atom 5.7003780529715273 7.6004384423265767 59.2651230499995663 Ti
atom 3.8002540290477076 1.9001061040060998 54.3945551449996216 Ti
atom 3.8002543712196184 1.9001059609826951 56.3998064549995846 O
atom 5.7003779531828744 1.9001057551420582 58.8351017749995648 O
atom 5.7003777907959163 7.6004386653524199 57.2598397799996022 O
atom 3.8002546727591211 7.6004384095118001 59.6951348599995626 O
atom 5.7003783951434110 7.6004383393031887 61.2703741399995394 O
atom 3.8002539892589882 7.6004388568215902 53.9645341599996229 O
atom 3.8002538268721140 1.9001063270319327 52.3892720149996407 O
atom 5.7003775288353618 1.9001060611913017 54.8245672549996144 O
atom 3.8002549849310219 7.6004382864884024 61.7003860899995331 Ti
atom 3.8002551968952885 1.9001053506471088 64.1356898049995152 Ti
atom 3.8002551871065959 7.6004380934625821 63.7056690499995213 O
atom 3.8002550147197023 1.9001055536729359 62.1304067449995259 O
atom 5.7003786866828534 1.9001053478323695 64.5657011449995082 O
atom 5.7003778310072377 5.7003277881679084 56.8298185549995836 Ti
atom 5.7003780429715603 3.8002166223265652 59.2651230499995947 Ti
atom 3.8002540190476726 5.7003279340061104 54.3945551349996137 Ti
atom 3.8002543612195825 5.7003278309827063 56.3998064449995837 O
atom 5.7003779431828416 5.7003275651420680 58.8351017749995648 O
atom 5.7003777907959474 3.8002168553524101 57.2598397599996005 O
atom 3.8002546727591544 3.8002166195117906 59.6951348599995626 O
atom 5.7003783851434449 3.8002165093031772 61.2703741399995394 O
atom 3.8002539892590232 3.8002170468215790 53.9645341799996245 O
atom 3.8002538468720779 5.7003281370319439 52.3892720049996399 O
atom 5.7003775288353289 5.7003279411913130 54.8245672549996215 O
atom 3.8002549849310552 3.8002164964883911 61.7003860899995331 Ti
atom 3.8002552068952595 5.7003271606471166 64.1356898449995185 Ti
atom 3.8002551871066284 3.8002162834625719 63.7056690399995134 O
atom 3.8002550347196689 5.7003273736729465 62.1304067449995259 O
atom 5.7003786866828179 5.7003271278323826 64.5657011149995128 O
