#===============================================================================
# Created using the Atomic Simulation Environment (ASE)

# Mon Mar 23 14:01:31 2026

#=======================================================
lattice_vector 7.6004937600000506 0.0000000000000000 0.0000000000000000 
lattice_vector -0.0000000000000672 7.6004436200000214 0.0000000000000000 
lattice_vector 0.0000000000000000 0.0000000000000000 82.0009959249995006 
atom 0.0000023356935513 7.6004421232830559 15.4300115199999972 Ti
atom 1.9001257359059907 7.6004421560978095 15.0000000000000000 O
atom 0.0000023456935848 3.8002203032830444 15.4300115199999972 Ti
atom 1.9001257459060259 3.8002203360977975 15.0000000099999973 O
atom 3.8002492056935724 7.6004421232830586 15.4300114899999983 Ti
atom 5.7003726059060158 7.6004421860978084 15.0000000100000008 O
atom 3.8002492056936075 3.8002203032830462 15.4300114999999956 Ti
atom 5.7003726159060513 3.8002203060977964 15.0000000199999981 O
atom 1.9001263896174401 1.9001090216035210 20.3005791549999479 Ti
atom 1.9001266015816967 7.6004414857621994 22.7358836499999271 Ti
atom 0.0000046413884537 7.6004405965652442 34.9122785999998086 Ti
atom 0.0000025476578798 1.9001091574417217 17.8653157649999770 Ti
atom 0.0000028798297942 1.9001090144183137 19.8705671149999468 O
atom 1.9001266317930445 1.9001088085776814 22.3058623749999185 O
atom 1.9001264894060867 7.6004417187880433 20.7306003799999381 O
atom 0.0000031813692823 7.6004414729474306 23.1658953899999212 O
atom 1.9001268937535822 7.6004413727388105 24.7411347499999010 O
atom 0.0000025378691636 7.6004419102572127 17.4352947999999799 O
atom 0.0000023854822867 1.9001093804675535 15.8600326449999969 O
atom 1.9001260274455336 1.9001091246269235 18.2953278749999768 O
atom 1.9001274974648799 1.9001082682446226 30.0417125949998614 Ti
atom 1.9001276894290100 7.6004407324033840 32.4770159999998356 Ti
atom 0.0000034935411877 7.6004413599240284 25.1711466599998985 Ti
atom 0.0000037255054556 1.9001084140827340 27.6064503749998771 Ti
atom 0.0000040376773056 1.9001082910593681 29.6117011749998618 O
atom 1.9001276096404438 1.9001080452188095 32.0469954649998527 O
atom 1.9001274172534550 7.6004409654291916 30.4717332099998650 O
atom 0.0000043292165916 7.6004407195886170 32.9070276999998441 O
atom 1.9001280416008932 7.6004406293799978 34.4822670799998150 O
atom 0.0000036857167598 7.6004411568982091 27.1764295999998815 O
atom 0.0000035233298664 1.9001086171085633 25.6011672949999003 O
atom 1.9001272052930152 1.9001084012679978 28.0364616749998810 O
atom 1.9001263796174066 5.7003308516035318 20.3005791549999479 Ti
atom 1.9001266015817289 3.8002196757621887 22.7358836399999262 Ti
atom 0.0000046513884873 3.8002187765652327 34.9122785999997944 Ti
atom 0.0000025476578462 5.7003309874417329 17.8653157549999797 Ti
atom 0.0000028698297595 5.7003308844183254 19.8705671049999566 O
atom 1.9001266217930097 5.7003306185776923 22.3058623649999213 O
atom 1.9001264894061181 3.8002199087880340 20.7306003599999364 O
atom 0.0000031813693159 3.8002196729474185 23.1658953999999291 O
atom 1.9001268937536144 3.8002195827388001 24.7411347399999038 O
atom 0.0000025378691988 3.8002201002571989 17.4352948199999815 O
atom 0.0000023754822519 5.7003311904675664 15.8600326349999960 O
atom 1.9001260274454990 5.7003310046269347 18.2953278649999831 O
atom 1.9001274974648552 5.7003300782446269 30.0417126749998609 Ti
atom 1.9001276894290422 3.8002189024033743 32.4770159899998418 Ti
atom 0.0000034935412213 3.8002195599240163 25.1711466599999056 Ti
atom 0.0000036955054255 5.7003302240827427 27.6064504049998867 Ti
atom 0.0000040576772790 5.7003300810593736 29.6117012349998525 O
atom 1.9001276096404167 5.7003298652188157 32.0469955249998577 O
atom 1.9001274172534897 3.8002191354291797 30.4717332199998729 O
atom 0.0000043292166252 3.8002188795886069 32.9070276999998299 O
atom 1.9001280516009280 3.8002188093799862 34.4822670899998087 O
atom 0.0000036857167933 3.8002193468981984 27.1764295999998815 O
atom 0.0000034933298344 5.7003304371085726 25.6011673049999011 O
atom 1.9001271952929917 5.7003301912680016 28.0364617649998813 O
atom 5.7003732296174654 1.9001090116035209 20.3005791549999479 Ti
atom 5.7003734415817222 7.6004414957621993 22.7358836499999271 Ti
atom 3.8002515113884754 7.6004405965652468 34.9122785699997991 Ti
atom 3.8002494176579025 1.9001091574417230 17.8653157449999789 Ti
atom 3.8002497598298133 1.9001090144183184 19.8705670549999525 O
atom 5.7003733417930693 1.9001088085776814 22.3058623749999398 O
atom 5.7003731794061112 7.6004417187880433 20.7306003799999594 O
atom 3.8002500613693160 7.6004414629474244 23.1658954599999234 O
atom 5.7003737837536059 7.6004413927388121 24.7411347399998967 O
atom 3.8002493778691830 7.6004419102572154 17.4352947599999801 O
atom 3.8002492154823089 1.9001093804675560 15.8600326149999979 O
atom 5.7003729174455566 1.9001091146269251 18.2953278549999752 O
atom 5.7003744374649061 1.9001082582446223 30.0417126049998480 Ti
atom 5.7003746394290360 7.6004407624033847 32.4770159999998214 Ti
atom 3.8002503735412168 7.6004413399240258 25.1711466899999010 Ti
atom 3.8002505855054833 1.9001084040827321 27.6064504049998867 Ti
atom 3.8002509376773403 1.9001082910593625 29.6117012549998542 O
atom 5.7003746496404775 1.9001080452188042 32.0469955349998230 O
atom 5.7003745772534806 7.6004409254291918 30.4717332099998366 O
atom 3.8002512092166070 7.6004407195886232 32.9070276199998375 O
atom 5.7003749116009192 7.6004406593799967 34.4822670899998229 O
atom 3.8002505757167913 7.6004411468982056 27.1764296499998785 O
atom 3.8002504033298981 1.9001086071085591 25.6011673449998938 O
atom 5.7003740752930492 1.9001084012679927 28.0364617449998796 O
atom 5.7003732196174317 5.7003308416035319 20.3005791549999515 Ti
atom 5.7003734315817551 3.8002196757621878 22.7358836499999271 Ti
atom 3.8002515113885096 3.8002187765652349 34.9122785799998070 Ti
atom 3.8002494076578683 5.7003309874417347 17.8653157349999780 Ti
atom 3.8002497498297783 5.7003308844183307 19.8705670449999516 O
atom 5.7003733317930365 5.7003306185776914 22.3058623749999398 O
atom 5.7003731794061423 3.8002199087880340 20.7306003599999578 O
atom 3.8002500613693502 3.8002196729474131 23.1658954599999234 O
atom 5.7003737737536397 3.8002195627388007 24.7411347399999038 O
atom 3.8002493778692190 3.8002201002572020 17.4352947799999818 O
atom 3.8002492354822737 5.7003311904675682 15.8600326049999971 O
atom 5.7003729174455238 5.7003309946269356 18.2953278549999823 O
atom 5.7003744374648821 5.7003300682446261 30.0417126749998467 Ti
atom 5.7003746294290698 3.8002188724033732 32.4770159999998214 Ti
atom 3.8002503735412501 3.8002195499240150 25.1711466899999046 Ti
atom 3.8002505955054544 5.7003302140827392 27.6064504449998758 Ti
atom 3.8002509076773130 5.7003300810593691 29.6117013049998654 O
atom 5.7003746496404366 5.7003298652188192 32.0469954749998323 O
atom 5.7003745772535162 3.8002191454291792 30.4717332199998303 O
atom 3.8002512092166421 3.8002188895886122 32.9070276299998312 O
atom 5.7003749216009538 3.8002187793799851 34.4822670999998167 O
atom 3.8002505757168237 3.8002193368981958 27.1764296399998777 O
atom 3.8002504233298646 5.7003304271085709 25.6011673449999009 O
atom 5.7003740752930128 5.7003301812680052 28.0364617149998843 O
atom 1.9001286953123426 1.9001074948857091 39.7828462349997665 Ti
atom 1.9001289072765992 7.6004399590443876 42.2181507299997349 Ti
atom 0.0000069470833561 7.6004390698474333 54.3945456799996236 Ti
atom 0.0000048533527836 1.9001076307239100 37.3475828449997778 Ti
atom 0.0000051855246966 1.9001074877005020 39.3528341949997582 O
atom 1.9001289374879471 1.9001072818598694 41.7881294549997335 O
atom 1.9001287951009893 7.6004401920702316 40.2128674599997566 O
atom 0.0000054870641861 7.6004399462296170 42.6481624699997326 O
atom 1.9001291994484848 7.6004398460209996 44.2234018299997160 O
atom 0.0000048435640657 7.6004403835393992 36.9175618799997949 O
atom 0.0000046911771891 1.9001078537497420 35.3422997249998048 O
atom 1.9001283331404362 1.9001075979091115 37.7775949549997847 O
atom 1.9001298031597824 1.9001067415268111 49.5239796749996657 Ti
atom 1.9001299951239130 7.6004392056855732 51.9592830799996506 Ti
atom 0.0000057992360902 7.6004398332062166 44.6534137399997064 Ti
atom 0.0000060312003577 1.9001068873649223 47.0887174549996814 Ti
atom 0.0000063433722081 1.9001067643415566 49.0939682549996661 O
atom 1.9001299153353464 1.9001065185009982 51.5292625449996535 O
atom 1.9001297229483578 7.6004394387113807 49.9540002899996693 O
atom 0.0000066349114954 7.6004391928708044 52.3892947799996449 O
atom 1.9001303472957958 7.6004391026621860 53.9645341599996158 O
atom 0.0000059914116635 7.6004396301803974 46.6586966799996929 O
atom 0.0000058290247688 1.9001070903907513 45.0834343749997117 O
atom 1.9001295109879175 1.9001068745501861 47.5187287549996853 O
atom 1.9001286853123092 5.7003293248857192 39.7828462349997665 Ti
atom 1.9001289072766314 3.8002181490443769 42.2181507199997270 Ti
atom 0.0000069570833897 3.8002172498474218 54.3945456799996094 Ti
atom 0.0000048533527483 5.7003294607239203 37.3475828349997983 Ti
atom 0.0000051755246619 5.7003293577005127 39.3528341849997645 O
atom 1.9001289274879123 5.7003290918598797 41.7881294449997398 O
atom 1.9001287951010206 3.8002183820702218 40.2128674399997408 O
atom 0.0000054870642197 3.8002181462296067 42.6481624799997405 O
atom 1.9001291994485170 3.8002180560209888 44.2234018199997223 O
atom 0.0000048435641009 3.8002185735393876 36.9175618999997823 O
atom 0.0000046811771544 5.7003296637497529 35.3422997149998110 O
atom 1.9001283331404015 5.7003294779091229 37.7775949449997910 O
atom 1.9001298031597578 5.7003285515268152 49.5239797549996723 Ti
atom 1.9001299951239452 3.8002173756855631 51.9592830699996426 Ti
atom 0.0000057992361237 3.8002180332062045 44.6534137399997206 Ti
atom 0.0000060012003276 5.7003286973649301 47.0887174849996910 Ti
atom 0.0000063633721814 5.7003285543415618 49.0939683149996569 O
atom 1.9001299153353197 5.7003283385010040 51.5292626049996585 O
atom 1.9001297229483922 3.8002176087113679 49.9540002999996773 O
atom 0.0000066349115273 3.8002173528707952 52.3892947799996307 O
atom 1.9001303572958310 3.8002172826621741 53.9645341699996237 O
atom 0.0000059914116971 3.8002178201803871 46.6586966799996929 O
atom 0.0000057990247365 5.7003289103907600 45.0834343849997055 O
atom 1.9001295009878942 5.7003286645501889 47.5187288449996856 O
atom 5.7003755353123688 1.9001074848857091 39.7828462349997665 Ti
atom 5.7003757472766265 7.6004399690443867 42.2181507299997492 Ti
atom 3.8002538170833775 7.6004390698474342 54.3945456499996141 Ti
atom 3.8002517233528046 1.9001076307239118 37.3475828249997903 Ti
atom 3.8002520655247154 1.9001074877005066 39.3528341349997532 O
atom 5.7003756474879737 1.9001072818598694 41.7881294549997477 O
atom 5.7003754851010147 7.6004401920702316 40.2128674599997709 O
atom 3.8002523670642181 7.6004399362296127 42.6481625399997313 O
atom 5.7003760894485094 7.6004398660209995 44.2234018199997081 O
atom 3.8002516835640852 7.6004403835394019 36.9175618399997916 O
atom 3.8002515211772110 1.9001078537497444 35.3422996949998094 O
atom 5.7003752231404592 1.9001075879091132 37.7775949349997830 O
atom 5.7003767431598105 1.9001067315268105 49.5239796849996594 Ti
atom 5.7003769451239377 7.6004392356855730 51.9592830799996364 Ti
atom 3.8002526792361189 7.6004398132062141 44.6534137699997018 Ti
atom 3.8002528912003855 1.9001068773649201 47.0887174849996910 Ti
atom 3.8002532433722420 1.9001067643415506 49.0939683349996585 O
atom 5.7003769553353809 1.9001065185009927 51.5292626149996238 O
atom 5.7003768829483832 7.6004393987113801 49.9540002899996409 O
atom 3.8002535149115100 7.6004391928708115 52.3892946999996383 O
atom 5.7003772172958209 7.6004391326621850 53.9645341699996237 O
atom 3.8002528814116929 7.6004396201803930 46.6586967299996900 O
atom 3.8002527090248002 1.9001070803907476 45.0834344249997088 O
atom 5.7003763809879526 1.9001068745501808 47.5187288249996982 O
atom 5.7003755253123360 5.7003293148857193 39.7828462349997665 Ti
atom 5.7003757372766586 3.8002181490443765 42.2181507299997492 Ti
atom 3.8002538170834117 3.8002172498474227 54.3945456599996078 Ti
atom 3.8002517133527705 5.7003294607239221 37.3475828149997966 Ti
atom 3.8002520555246804 5.7003293577005181 39.3528341249997595 O
atom 5.7003756374879400 5.7003290918598797 41.7881294549997477 O
atom 5.7003754851010466 3.8002183820702222 40.2128674399997692 O
atom 3.8002523670642523 3.8002181462296023 42.6481625399997313 O
atom 5.7003760794485441 3.8002180360209894 44.2234018199997223 O
atom 3.8002516835641211 3.8002185735393907 36.9175618599998074 O
atom 3.8002515411771758 5.7003296637497556 35.3422996849998157 O
atom 5.7003752231404254 5.7003294679091239 37.7775949349997830 O
atom 5.7003767431597838 5.7003285415268135 49.5239797549996581 Ti
atom 5.7003769351239724 3.8002173456855624 51.9592830799996221 Ti
atom 3.8002526792361522 3.8002180232062037 44.6534137699997018 Ti
atom 3.8002529012003565 5.7003286873649266 47.0887175249996943 Ti
atom 3.8002532133722151 5.7003285543415574 49.0939683849996555 O
atom 5.7003769553353392 5.7003283385010075 51.5292625549996330 O
atom 5.7003768829484178 3.8002176187113683 49.9540002999996489 O
atom 3.8002535149115442 3.8002173628708005 52.3892947099996462 O
atom 5.7003772272958564 3.8002172526621734 53.9645341799996174 O
atom 3.8002528814117258 3.8002178101803841 46.6586967199996963 O
atom 3.8002527290247667 5.7003289003907582 45.0834344249997088 O
atom 5.7003763809879144 5.7003286545501926 47.5187287949996886 O
atom 1.9001310010072452 1.9001059681678978 59.2651133149995673 Ti
atom 1.9001312129715018 7.6004384323265759 61.7004178099995499 Ti
atom 0.0000071590476857 1.9001061040060985 56.8298499249995928 Ti
atom 0.0000074912195991 1.9001059609826905 58.8351012749995590 O
atom 1.9001312431828492 1.9001057551420582 61.2703965349995485 O
atom 1.9001311007958919 7.6004386653524199 59.6951345399995574 O
atom 0.0000077927590865 7.6004384195118062 62.1304295499995476 O
atom 1.9001315051433874 7.6004383193031879 63.7056689099995026 O
atom 0.0000071492589678 7.6004388568215884 56.3998289599995957 O
atom 0.0000069968720915 1.9001063270319303 54.8245668049996198 O
atom 1.9001306388353387 1.9001060711913003 57.2598620349995997 O
atom 0.0000081049309926 7.6004383064884049 64.1356808199995214 Ti
atom 0.0000083368952598 1.9001053606471108 66.5709845349994964 Ti
atom 0.0000082971065656 7.6004381034625865 66.1409637599994937 O
atom 0.0000081347196713 1.9001055636729396 64.5657014549995267 O
atom 1.9001318166828196 1.9001053478323746 67.0009958349995145 O
atom 1.9001309910072113 5.7003277981679084 59.2651133149995673 Ti
atom 1.9001312129715340 3.8002166223265657 61.7004177999995704 Ti
atom 0.0000071590476504 5.7003279340061104 56.8298499149995990 Ti
atom 0.0000074812195643 5.7003278309827028 58.8351012649995795 O
atom 1.9001312331828144 5.7003275651420688 61.2703965249995406 O
atom 1.9001311007959227 3.8002168553524101 59.6951345199995558 O
atom 0.0000077927591218 3.8002166195117946 62.1304295599995555 O
atom 1.9001315051434196 3.8002165293031767 63.7056688999995231 O
atom 0.0000071492590047 3.8002170468215755 56.3998289799995973 O
atom 0.0000069868720568 5.7003281370319412 54.8245667949996118 O
atom 1.9001306388353039 5.7003279511913121 57.2598620249996060 O
atom 0.0000081049310262 3.8002165064883928 64.1356808199995214 Ti
atom 0.0000083068952297 5.7003271706471184 66.5709845649994918 Ti
atom 0.0000082971065992 3.8002162934625754 66.1409637599994937 O
atom 0.0000081047196386 5.7003273836729491 64.5657014649995062 O
atom 1.9001318066827968 5.7003271378323781 67.0009959249995006 O
atom 5.7003778410072705 1.9001059581678976 59.2651133149995673 Ti
atom 5.7003780529715273 7.6004384423265767 61.7004178099995499 Ti
atom 3.8002540290477076 1.9001061040060998 56.8298499049996053 Ti
atom 3.8002543712196184 1.9001059609826951 58.8351012149995682 O
atom 5.7003779531828744 1.9001057551420582 61.2703965349995485 O
atom 5.7003777907959163 7.6004386653524199 59.6951345399995859 O
atom 3.8002546727591211 7.6004384095118001 62.1304296199995463 O
atom 5.7003783951434110 7.6004383393031887 63.7056688999995231 O
atom 3.8002539892589882 7.6004388568215902 56.3998289199996066 O
atom 3.8002538268721140 1.9001063270319327 54.8245667749996244 O
atom 5.7003775288353618 1.9001060611913017 57.2598620149995980 O
atom 3.8002549849310219 7.6004382864884024 64.1356808499995168 Ti
atom 3.8002551968952885 1.9001053506471088 66.5709845649994918 Ti
atom 3.8002551871065959 7.6004380934625821 66.1409638099995050 O
atom 3.8002550147197023 1.9001055536729359 64.5657015049995096 O
atom 5.7003786866828534 1.9001053478323695 67.0009959049994848 O
atom 5.7003778310072377 5.7003277881679084 59.2651133149995673 Ti
atom 5.7003780429715603 3.8002166223265652 61.7004178099995784 Ti
atom 3.8002540190476726 5.7003279340061104 56.8298498949995974 Ti
atom 3.8002543612195825 5.7003278309827063 58.8351012049995603 O
atom 5.7003779431828416 5.7003275651420680 61.2703965349995485 O
atom 5.7003777907959474 3.8002168553524101 59.6951345199995842 O
atom 3.8002546727591544 3.8002166195117906 62.1304296199995463 O
atom 5.7003783851434449 3.8002165093031772 63.7056688999995231 O
atom 3.8002539892590232 3.8002170468215790 56.3998289399996082 O
atom 3.8002538468720779 5.7003281370319439 54.8245667649996165 O
atom 5.7003775288353289 5.7003279411913130 57.2598620149995980 O
atom 3.8002549849310552 3.8002164964883911 64.1356808499995168 Ti
atom 3.8002552068952595 5.7003271606471166 66.5709846049994951 Ti
atom 3.8002551871066284 3.8002162834625719 66.1409637999994970 O
atom 3.8002550347196689 5.7003273736729465 64.5657015049995096 O
atom 5.7003786866828179 5.7003271278323826 67.0009958749994894 O
