#===============================================================================
# Created using the Atomic Simulation Environment (ASE)

# Mon Mar 23 14:01:31 2026

#=======================================================
lattice_vector 7.6004937600000506 0.0000000000000000 0.0000000000000000 
lattice_vector -0.0000000000000672 7.6004436200000214 0.0000000000000000 
lattice_vector 0.0000000000000000 0.0000000000000000 52.7775941049997925 
atom 0.0000069470833561 7.6004390698474333 25.1711438599999155 Ti
atom 1.9001291994484848 7.6004398460209996 15.0000000100000079 O
atom 1.9001298031597824 1.9001067415268111 20.3005778549999576 Ti
atom 1.9001299951239130 7.6004392056855732 22.7358812599999425 Ti
atom 0.0000057992360902 7.6004398332062166 15.4300119200000054 Ti
atom 0.0000060312003577 1.9001068873649223 17.8653156349999804 Ti
atom 0.0000063433722081 1.9001067643415566 19.8705664349999580 O
atom 1.9001299153353464 1.9001065185009982 22.3058607249999454 O
atom 1.9001297229483578 7.6004394387113807 20.7305984699999684 O
atom 0.0000066349114954 7.6004391928708044 23.1658929599999439 O
atom 1.9001303472957958 7.6004391026621860 24.7411323399999148 O
atom 0.0000059914116635 7.6004396301803974 17.4352948599999849 O
atom 0.0000058290247688 1.9001070903907513 15.8600325550000107 O
atom 1.9001295109879175 1.9001068745501861 18.2953269349999772 O
atom 0.0000069570833897 3.8002172498474218 25.1711438599999013 Ti
atom 1.9001291994485170 3.8002180560209888 15.0000000000000142 O
atom 1.9001298031597578 5.7003285515268152 20.3005779349999642 Ti
atom 1.9001299951239452 3.8002173756855631 22.7358812499999416 Ti
atom 0.0000057992361237 3.8002180332062045 15.4300119200000125 Ti
atom 0.0000060012003276 5.7003286973649301 17.8653156649999829 Ti
atom 0.0000063633721814 5.7003285543415618 19.8705664949999488 O
atom 1.9001299153353197 5.7003283385010040 22.3058607849999575 O
atom 1.9001297229483922 3.8002176087113679 20.7305984799999692 O
atom 0.0000066349115273 3.8002173528707952 23.1658929599999297 O
atom 1.9001303572958310 3.8002172826621741 24.7411323499999156 O
atom 0.0000059914116971 3.8002178201803871 17.4352948599999849 O
atom 0.0000057990247365 5.7003289103907600 15.8600325650000045 O
atom 1.9001295009878942 5.7003286645501889 18.2953270249999846 O
atom 3.8002538170833775 7.6004390698474342 25.1711438299999131 Ti
atom 5.7003760894485094 7.6004398660209995 15.0000000000000000 O
atom 5.7003767431598105 1.9001067315268105 20.3005778649999584 Ti
atom 5.7003769451239377 7.6004392356855730 22.7358812599999354 Ti
atom 3.8002526792361189 7.6004398132062141 15.4300119500000008 Ti
atom 3.8002528912003855 1.9001068773649201 17.8653156649999829 Ti
atom 3.8002532433722420 1.9001067643415506 19.8705665149999575 O
atom 5.7003769553353809 1.9001065185009927 22.3058607949999228 O
atom 5.7003768829483832 7.6004393987113801 20.7305984699999399 O
atom 3.8002535149115100 7.6004391928708115 23.1658928799999373 O
atom 5.7003772172958209 7.6004391326621850 24.7411323499999156 O
atom 3.8002528814116929 7.6004396201803930 17.4352949099999890 O
atom 3.8002527090248002 1.9001070803907476 15.8600326050000078 O
atom 5.7003763809879526 1.9001068745501808 18.2953270049999901 O
atom 3.8002538170834117 3.8002172498474227 25.1711438399999068 Ti
atom 5.7003760794485441 3.8002180360209894 15.0000000000000142 O
atom 5.7003767431597838 5.7003285415268135 20.3005779349999571 Ti
atom 5.7003769351239724 3.8002173456855624 22.7358812599999212 Ti
atom 3.8002526792361522 3.8002180232062037 15.4300119500000008 Ti
atom 3.8002529012003565 5.7003286873649266 17.8653157049999862 Ti
atom 3.8002532133722151 5.7003285543415574 19.8705665649999546 O
atom 5.7003769553353392 5.7003283385010075 22.3058607349999320 O
atom 5.7003768829484178 3.8002176187113683 20.7305984799999408 O
atom 3.8002535149115442 3.8002173628708005 23.1658928899999381 O
atom 5.7003772272958564 3.8002172526621734 24.7411323599999093 O
atom 3.8002528814117258 3.8002178101803841 17.4352948999999882 O
atom 3.8002527290247667 5.7003289003907582 15.8600326050000078 O
atom 5.7003763809879144 5.7003286545501926 18.2953269749999805 O
atom 1.9001310010072452 1.9001059681678978 30.0417114949998592 Ti
atom 1.9001312129715018 7.6004384323265759 32.4770159899998418 Ti
atom 0.0000071590476857 1.9001061040060985 27.6064481049998847 Ti
atom 0.0000074912195991 1.9001059609826905 29.6116994549998580 O
atom 1.9001312431828492 1.9001057551420582 32.0469947149998404 O
atom 1.9001311007958919 7.6004386653524199 30.4717327199998493 O
atom 0.0000077927590865 7.6004384195118062 32.9070277299998395 O
atom 1.9001315051433874 7.6004383193031879 34.4822670899997945 O
atom 0.0000071492589678 7.6004388568215884 27.1764271399998947 O
atom 0.0000069968720915 1.9001063270319303 25.6011649849999117 O
atom 1.9001306388353387 1.9001060711913003 28.0364602149998916 O
atom 0.0000081049309926 7.6004383064884049 34.9122789999998133 Ti
atom 0.0000083368952598 1.9001053606471108 37.3475827149997883 Ti
atom 0.0000082971065656 7.6004381034625865 36.9175619399997856 O
atom 0.0000081347196713 1.9001055636729396 35.3422996349998186 O
atom 1.9001318166828196 1.9001053478323746 37.7775940149998064 O
atom 1.9001309910072113 5.7003277981679084 30.0417114949998592 Ti
atom 1.9001312129715340 3.8002166223265657 32.4770159799998623 Ti
atom 0.0000071590476504 5.7003279340061104 27.6064480949998980 Ti
atom 0.0000074812195643 5.7003278309827028 29.6116994449998714 O
atom 1.9001312331828144 5.7003275651420688 32.0469947049998325 O
atom 1.9001311007959227 3.8002168553524101 30.4717326999998477 O
atom 0.0000077927591218 3.8002166195117946 32.9070277399998474 O
atom 1.9001315051434196 3.8002165293031767 34.4822670799998150 O
atom 0.0000071492590047 3.8002170468215755 27.1764271599998892 O
atom 0.0000069868720568 5.7003281370319412 25.6011649749999108 O
atom 1.9001306388353039 5.7003279511913121 28.0364602049998979 O
atom 0.0000081049310262 3.8002165064883928 34.9122789999998133 Ti
atom 0.0000083068952297 5.7003271706471184 37.3475827449997837 Ti
atom 0.0000082971065992 3.8002162934625754 36.9175619399997856 O
atom 0.0000081047196386 5.7003273836729491 35.3422996449997981 O
atom 1.9001318066827968 5.7003271378323781 37.7775941049997925 O
atom 5.7003778410072705 1.9001059581678976 30.0417114949998592 Ti
atom 5.7003780529715273 7.6004384423265767 32.4770159899998418 Ti
atom 3.8002540290477076 1.9001061040060998 27.6064480849998972 Ti
atom 3.8002543712196184 1.9001059609826951 29.6116993949998601 O
atom 5.7003779531828744 1.9001057551420582 32.0469947149998404 O
atom 5.7003777907959163 7.6004386653524199 30.4717327199998778 O
atom 3.8002546727591211 7.6004384095118001 32.9070277999998382 O
atom 5.7003783951434110 7.6004383393031887 34.4822670799998150 O
atom 3.8002539892589882 7.6004388568215902 27.1764270999998985 O
atom 3.8002538268721140 1.9001063270319327 25.6011649549999163 O
atom 5.7003775288353618 1.9001060611913017 28.0364601949998899 O
atom 3.8002549849310219 7.6004382864884024 34.9122790299998087 Ti
atom 3.8002551968952885 1.9001053506471088 37.3475827449997837 Ti
atom 3.8002551871065959 7.6004380934625821 36.9175619899997969 O
atom 3.8002550147197023 1.9001055536729359 35.3422996849998015 O
atom 5.7003786866828534 1.9001053478323695 37.7775940849997767 O
atom 5.7003778310072377 5.7003277881679084 30.0417114949998592 Ti
atom 5.7003780429715603 3.8002166223265652 32.4770159899998703 Ti
atom 3.8002540190476726 5.7003279340061104 27.6064480749998893 Ti
atom 3.8002543612195825 5.7003278309827063 29.6116993849998593 O
atom 5.7003779431828416 5.7003275651420680 32.0469947149998404 O
atom 5.7003777907959474 3.8002168553524101 30.4717326999998761 O
atom 3.8002546727591544 3.8002166195117906 32.9070277999998382 O
atom 5.7003783851434449 3.8002165093031772 34.4822670799998150 O
atom 3.8002539892590232 3.8002170468215790 27.1764271199999001 O
atom 3.8002538468720779 5.7003281370319439 25.6011649449999155 O
atom 5.7003775288353289 5.7003279411913130 28.0364601949998971 O
atom 3.8002549849310552 3.8002164964883911 34.9122790299998087 Ti
atom 3.8002552068952595 5.7003271606471166 37.3475827849997870 Ti
atom 3.8002551871066284 3.8002162834625719 36.9175619799997889 O
atom 3.8002550347196689 5.7003273736729465 35.3422996849998015 O
atom 5.7003786866828179 5.7003271278323826 37.7775940549997813 O
