#===============================================================================
# Created using the Atomic Simulation Environment (ASE)

# Mon Mar 23 14:01:33 2026

#=======================================================
lattice_vector 10.7486859018486420 0.0000000000000000 0.0000000000000000 
lattice_vector -10.7486177031074206 22.2506846489501129 0.0000000000000000 
lattice_vector 0.0000000000000000 0.0000000000000000 31.9373834431284820 
atom 0.0000893433676442 2.2259235115901554 15.9686868163345252 Ti
atom 5.3744493139250382 7.7885954201034444 15.9686863783555211 Ti
atom 1.3436663006741298 1.2003565041521260 15.0000005688823812 O
atom 0.0001401652481388 20.6696953212001162 15.0000060538052509 O
atom 0.0000890144242855 3.9816824756935780 15.0000056737948171 O
atom -5.3742195470770344 13.3512659116679018 15.9686867463579105 Ti
atom 0.0001404659070880 18.9139363453575307 15.9686871543665809 Ti
atom -4.0306427170502754 12.3256993768491530 15.0000000927889232 O
atom 5.3744490061950936 9.5443540753970773 15.0000054627221893 O
atom -5.3742198477358434 15.1070245947206434 15.0000058396369838 O
atom 6.7180262358760086 6.7630284850684710 15.0000000344265203 O
atom 1.3437173525025854 17.8883698115979684 15.0000005648199064 O
atom 1.3436832566673154 6.7630284889167891 15.0000000000000000 O
atom -4.0306255630663692 17.8883697799905264 15.0000005903339755 O
atom 5.3744322518654659 2.2259234979268823 15.9686867915694926 Ti
atom 0.0001063630006643 7.7885954307833840 15.9686863563114940 Ti
atom 6.7180091172477168 1.2003564567630549 15.0000004415868347 O
atom -5.3742027927472114 20.6696952633253268 15.0000060938116100 O
atom 5.3744319299934249 3.9816825171160897 15.0000057074725071 O
atom 0.0001234533448886 13.3512658587005664 15.9686868159599840 Ti
atom -5.3742024850172259 18.9139363190901122 15.9686871688587466 Ti
atom 1.3437004389356435 12.3256994603206138 15.0000002647838535 O
atom 0.0001060694128522 9.5443541298560213 15.0000054165245196 O
atom 0.0001231173305217 15.1070245460340544 15.0000058341946740 O
atom -9.4049511583392817 21.6952540493752792 15.9686969296311645 Ti
atom 0.0000896652437434 0.4701365028796460 16.9373832457988129 O
atom -9.4049508718225390 19.9394952155497336 16.9373779356876888 O
atom 5.3744496075167802 6.0328083451947974 16.9373828120390613 O
atom -4.0306423598188772 10.5699127480540636 15.9686963207233710 Ti
atom -5.3742193100541265 11.5954791615890134 16.9373829200691475 O
atom -4.0306420379466212 8.8141539556509265 16.9373773604573863 O
atom 0.0001407453566476 17.1581495681462890 16.9373834238056347 O
atom 6.7180265011834122 5.0072415434210846 15.9686963784360181 Ti
atom 6.7180268018424165 3.2514825043637274 16.9373775300256995 O
atom 1.3437176460943052 16.1325828942938152 15.9686969115504596 Ti
atom 1.3437180033217819 14.3768243105382609 16.9373778119424649 O
atom 1.3436835573300834 5.0072415419293650 15.9686963550314118 Ti
atom 1.3436839004154451 3.2514825310635036 16.9373774749155004 O
atom -4.0306252906878788 16.1325828942937974 15.9686969115504240 Ti
atom -4.0306249617446328 14.3768242998583471 16.9373778339865240 O
atom -4.0306082427704206 21.6952540322961518 15.9686968986748141 Ti
atom 5.3744324888884218 0.4701364413947879 16.9373831343559793 O
atom -4.0306079208982171 19.9394952243055386 16.9373779308569681 O
atom 0.0001066283080949 6.0328083490430995 16.9373827776125445 O
atom 1.3437006688872120 10.5699127514697864 15.9686963269144329 Ti
atom 0.0001237469366096 11.5954792109022566 16.9373830301514730 O
atom 1.3437009412618690 8.8141539244759315 16.9373773453535819 O
atom -5.3742021914255345 17.1581495331230478 16.9373834431284820 O
