#===============================================================================
# Created using the Atomic Simulation Environment (ASE)

# Mon Mar 23 14:01:31 2026

#=======================================================
lattice_vector 7.6004937600000506 0.0000000000000000 0.0000000000000000 
lattice_vector -0.0000000000000672 7.6004436200000214 0.0000000000000000 
lattice_vector 0.0000000000000000 0.0000000000000000 35.7305993999999600 
atom 1.9001312129715018 7.6004384323265759 15.4300212850000094 Ti
atom 1.9001312431828492 1.9001057551420582 15.0000000100000079 O
atom 0.0000077927590865 7.6004384195118062 15.8600330250000070 O
atom 1.9001315051433874 7.6004383193031879 17.4352723849999620 O
atom 0.0000081049309926 7.6004383064884049 17.8652842949999808 Ti
atom 0.0000083368952598 1.9001053606471108 20.3005880099999558 Ti
atom 0.0000082971065656 7.6004381034625865 19.8705672349999531 O
atom 0.0000081347196713 1.9001055636729396 18.2953049299999861 O
atom 1.9001318166828196 1.9001053478323746 20.7305993099999739 O
atom 1.9001312129715340 3.8002166223265657 15.4300212750000298 Ti
atom 1.9001312331828144 5.7003275651420688 15.0000000000000000 O
atom 0.0000077927591218 3.8002166195117946 15.8600330350000149 O
atom 1.9001315051434196 3.8002165293031767 17.4352723749999825 O
atom 0.0000081049310262 3.8002165064883928 17.8652842949999808 Ti
atom 0.0000083068952297 5.7003271706471184 20.3005880399999512 Ti
atom 0.0000082971065992 3.8002162934625754 19.8705672349999531 O
atom 0.0000081047196386 5.7003273836729491 18.2953049399999657 O
atom 1.9001318066827968 5.7003271378323781 20.7305993999999600 O
atom 5.7003780529715273 7.6004384423265767 15.4300212850000094 Ti
atom 5.7003779531828744 1.9001057551420582 15.0000000100000079 O
atom 3.8002546727591211 7.6004384095118001 15.8600330950000057 O
atom 5.7003783951434110 7.6004383393031887 17.4352723749999825 O
atom 3.8002549849310219 7.6004382864884024 17.8652843249999762 Ti
atom 3.8002551968952885 1.9001053506471088 20.3005880399999512 Ti
atom 3.8002551871065959 7.6004380934625821 19.8705672849999644 O
atom 3.8002550147197023 1.9001055536729359 18.2953049799999690 O
atom 5.7003786866828534 1.9001053478323695 20.7305993799999442 O
atom 5.7003780429715603 3.8002166223265652 15.4300212850000378 Ti
atom 5.7003779431828416 5.7003275651420680 15.0000000100000079 O
atom 3.8002546727591544 3.8002166195117906 15.8600330950000057 O
atom 5.7003783851434449 3.8002165093031772 17.4352723749999825 O
atom 3.8002549849310552 3.8002164964883911 17.8652843249999762 Ti
atom 3.8002552068952595 5.7003271606471166 20.3005880799999545 Ti
atom 3.8002551871066284 3.8002162834625719 19.8705672749999565 O
atom 3.8002550347196689 5.7003273736729465 18.2953049799999690 O
atom 5.7003786866828179 5.7003271278323826 20.7305993499999488 O
