#===============================================================================
# Created using the Atomic Simulation Environment (ASE)

# Mon Mar 23 14:01:31 2026

#=======================================================
lattice_vector 7.6004937600000506 0.0000000000000000 0.0000000000000000 
lattice_vector -0.0000000000000672 7.6004436200000214 0.0000000000000000 
lattice_vector 0.0000000000000000 0.0000000000000000 62.5187288449996856 
atom 0.0000046413884537 7.6004405965652442 15.4300115200000008 Ti
atom 1.9001280416008932 7.6004406293799978 15.0000000000000000 O
atom 0.0000046513884873 3.8002187765652327 15.4300115199999865 Ti
atom 1.9001280516009280 3.8002188093799862 15.0000000099999937 O
atom 3.8002515113884754 7.6004405965652468 15.4300114899999912 Ti
atom 5.7003749116009192 7.6004406593799967 15.0000000100000079 O
atom 3.8002515113885096 3.8002187765652349 15.4300114999999991 Ti
atom 5.7003749216009538 3.8002187793799851 15.0000000200000017 O
atom 1.9001286953123426 1.9001074948857091 20.3005791549999515 Ti
atom 1.9001289072765992 7.6004399590443876 22.7358836499999271 Ti
atom 0.0000069470833561 7.6004390698474333 34.9122785999998086 Ti
atom 0.0000048533527836 1.9001076307239100 17.8653157649999699 Ti
atom 0.0000051855246966 1.9001074877005020 19.8705671149999503 O
atom 1.9001289374879471 1.9001072818598694 22.3058623749999185 O
atom 1.9001287951009893 7.6004401920702316 20.7306003799999417 O
atom 0.0000054870641861 7.6004399462296170 23.1658953899999247 O
atom 1.9001291994484848 7.6004398460209996 24.7411347499999010 O
atom 0.0000048435640657 7.6004403835393992 17.4352947999999799 O
atom 0.0000046911771891 1.9001078537497420 15.8600326449999898 O
atom 1.9001283331404362 1.9001075979091115 18.2953278749999697 O
atom 1.9001298031597824 1.9001067415268111 30.0417125949998507 Ti
atom 1.9001299951239130 7.6004392056855732 32.4770159999998356 Ti
atom 0.0000057992360902 7.6004398332062166 25.1711466599998985 Ti
atom 0.0000060312003577 1.9001068873649223 27.6064503749998735 Ti
atom 0.0000063433722081 1.9001067643415566 29.6117011749998511 O
atom 1.9001299153353464 1.9001065185009982 32.0469954649998385 O
atom 1.9001297229483578 7.6004394387113807 30.4717332099998615 O
atom 0.0000066349114954 7.6004391928708044 32.9070276999998370 O
atom 1.9001303472957958 7.6004391026621860 34.4822670799998079 O
atom 0.0000059914116635 7.6004396301803974 27.1764295999998780 O
atom 0.0000058290247688 1.9001070903907513 25.6011672949999038 O
atom 1.9001295109879175 1.9001068745501861 28.0364616749998703 O
atom 1.9001286853123092 5.7003293248857192 20.3005791549999515 Ti
atom 1.9001289072766314 3.8002181490443769 22.7358836399999191 Ti
atom 0.0000069570833897 3.8002172498474218 34.9122785999997944 Ti
atom 0.0000048533527483 5.7003294607239203 17.8653157549999833 Ti
atom 0.0000051755246619 5.7003293577005127 19.8705671049999566 O
atom 1.9001289274879123 5.7003290918598797 22.3058623649999248 O
atom 1.9001287951010206 3.8002183820702218 20.7306003599999258 O
atom 0.0000054870642197 3.8002181462296067 23.1658953999999255 O
atom 1.9001291994485170 3.8002180560209888 24.7411347399999073 O
atom 0.0000048435641009 3.8002185735393876 17.4352948199999744 O
atom 0.0000046811771544 5.7003296637497529 15.8600326349999960 O
atom 1.9001283331404015 5.7003294779091229 18.2953278649999831 O
atom 1.9001298031597578 5.7003285515268152 30.0417126749998573 Ti
atom 1.9001299951239452 3.8002173756855631 32.4770159899998347 Ti
atom 0.0000057992361237 3.8002180332062045 25.1711466599999056 Ti
atom 0.0000060012003276 5.7003286973649301 27.6064504049998760 Ti
atom 0.0000063633721814 5.7003285543415618 29.6117012349998419 O
atom 1.9001299153353197 5.7003283385010040 32.0469955249998506 O
atom 1.9001297229483922 3.8002176087113679 30.4717332199998623 O
atom 0.0000066349115273 3.8002173528707952 32.9070276999998228 O
atom 1.9001303572958310 3.8002172826621741 34.4822670899998087 O
atom 0.0000059914116971 3.8002178201803871 27.1764295999998780 O
atom 0.0000057990247365 5.7003289103907600 25.6011673049998976 O
atom 1.9001295009878942 5.7003286645501889 28.0364617649998777 O
atom 5.7003755353123688 1.9001074848857091 20.3005791549999515 Ti
atom 5.7003757472766265 7.6004399690443867 22.7358836499999342 Ti
atom 3.8002538170833775 7.6004390698474342 34.9122785699998062 Ti
atom 3.8002517233528046 1.9001076307239118 17.8653157449999753 Ti
atom 3.8002520655247154 1.9001074877005066 19.8705670549999454 O
atom 5.7003756474879737 1.9001072818598694 22.3058623749999398 O
atom 5.7003754851010147 7.6004401920702316 20.7306003799999559 O
atom 3.8002523670642181 7.6004399362296127 23.1658954599999234 O
atom 5.7003760894485094 7.6004398660209995 24.7411347399998931 O
atom 3.8002516835640852 7.6004403835394019 17.4352947599999766 O
atom 3.8002515211772110 1.9001078537497444 15.8600326150000015 O
atom 5.7003752231404592 1.9001075879091132 18.2953278549999681 O
atom 5.7003767431598105 1.9001067315268105 30.0417126049998515 Ti
atom 5.7003769451239377 7.6004392356855730 32.4770159999998285 Ti
atom 3.8002526792361189 7.6004398132062141 25.1711466899998939 Ti
atom 3.8002528912003855 1.9001068773649201 27.6064504049998760 Ti
atom 3.8002532433722420 1.9001067643415506 29.6117012549998506 O
atom 5.7003769553353809 1.9001065185009927 32.0469955349998159 O
atom 5.7003768829483832 7.6004393987113801 30.4717332099998330 O
atom 3.8002535149115100 7.6004391928708115 32.9070276199998304 O
atom 5.7003772172958209 7.6004391326621850 34.4822670899998087 O
atom 3.8002528814116929 7.6004396201803930 27.1764296499998821 O
atom 3.8002527090248002 1.9001070803907476 25.6011673449999009 O
atom 5.7003763809879526 1.9001068745501808 28.0364617449998832 O
atom 5.7003755253123360 5.7003293148857193 20.3005791549999515 Ti
atom 5.7003757372766586 3.8002181490443765 22.7358836499999342 Ti
atom 3.8002538170834117 3.8002172498474227 34.9122785799997999 Ti
atom 3.8002517133527705 5.7003294607239221 17.8653157349999816 Ti
atom 3.8002520555246804 5.7003293577005181 19.8705670449999516 O
atom 5.7003756374879400 5.7003290918598797 22.3058623749999398 O
atom 5.7003754851010466 3.8002183820702222 20.7306003599999542 O
atom 3.8002523670642523 3.8002181462296023 23.1658954599999234 O
atom 5.7003760794485441 3.8002180360209894 24.7411347399999073 O
atom 3.8002516835641211 3.8002185735393907 17.4352947799999924 O
atom 3.8002515411771758 5.7003296637497556 15.8600326050000078 O
atom 5.7003752231404254 5.7003294679091239 18.2953278549999752 O
atom 5.7003767431597838 5.7003285415268135 30.0417126749998502 Ti
atom 5.7003769351239724 3.8002173456855624 32.4770159999998143 Ti
atom 3.8002526792361522 3.8002180232062037 25.1711466899998939 Ti
atom 3.8002529012003565 5.7003286873649266 27.6064504449998793 Ti
atom 3.8002532133722151 5.7003285543415574 29.6117013049998477 O
atom 5.7003769553353392 5.7003283385010075 32.0469954749998251 O
atom 5.7003768829484178 3.8002176187113683 30.4717332199998339 O
atom 3.8002535149115442 3.8002173628708005 32.9070276299998312 O
atom 5.7003772272958564 3.8002172526621734 34.4822670999998024 O
atom 3.8002528814117258 3.8002178101803841 27.1764296399998813 O
atom 3.8002527290247667 5.7003289003907582 25.6011673449999009 O
atom 5.7003763809879144 5.7003286545501926 28.0364617149998736 O
atom 1.9001310010072452 1.9001059681678978 39.7828462349997523 Ti
atom 1.9001312129715018 7.6004384323265759 42.2181507299997349 Ti
atom 0.0000071590476857 1.9001061040060985 37.3475828449997778 Ti
atom 0.0000074912195991 1.9001059609826905 39.3528341949997511 O
atom 1.9001312431828492 1.9001057551420582 41.7881294549997335 O
atom 1.9001311007958919 7.6004386653524199 40.2128674599997424 O
atom 0.0000077927590865 7.6004384195118062 42.6481624699997326 O
atom 1.9001315051433874 7.6004383193031879 44.2234018299996876 O
atom 0.0000071492589678 7.6004388568215884 36.9175618799997878 O
atom 0.0000069968720915 1.9001063270319303 35.3422997249998048 O
atom 1.9001306388353387 1.9001060711913003 37.7775949549997847 O
atom 0.0000081049309926 7.6004383064884049 44.6534137399997064 Ti
atom 0.0000083368952598 1.9001053606471108 47.0887174549996814 Ti
atom 0.0000082971065656 7.6004381034625865 46.6586966799996787 O
atom 0.0000081347196713 1.9001055636729396 45.0834343749997117 O
atom 1.9001318166828196 1.9001053478323746 47.5187287549996995 O
atom 1.9001309910072113 5.7003277981679084 39.7828462349997523 Ti
atom 1.9001312129715340 3.8002166223265657 42.2181507199997554 Ti
atom 0.0000071590476504 5.7003279340061104 37.3475828349997911 Ti
atom 0.0000074812195643 5.7003278309827028 39.3528341849997645 O
atom 1.9001312331828144 5.7003275651420688 41.7881294449997256 O
atom 1.9001311007959227 3.8002168553524101 40.2128674399997408 O
atom 0.0000077927591218 3.8002166195117946 42.6481624799997405 O
atom 1.9001315051434196 3.8002165293031767 44.2234018199997081 O
atom 0.0000071492590047 3.8002170468215755 36.9175618999997823 O
atom 0.0000069868720568 5.7003281370319412 35.3422997149998039 O
atom 1.9001306388353039 5.7003279511913121 37.7775949449997910 O
atom 0.0000081049310262 3.8002165064883928 44.6534137399997064 Ti
atom 0.0000083068952297 5.7003271706471184 47.0887174849996768 Ti
atom 0.0000082971065992 3.8002162934625754 46.6586966799996787 O
atom 0.0000081047196386 5.7003273836729491 45.0834343849996912 O
atom 1.9001318066827968 5.7003271378323781 47.5187288449996856 O
atom 5.7003778410072705 1.9001059581678976 39.7828462349997523 Ti
atom 5.7003780529715273 7.6004384423265767 42.2181507299997349 Ti
atom 3.8002540290477076 1.9001061040060998 37.3475828249997903 Ti
atom 3.8002543712196184 1.9001059609826951 39.3528341349997532 O
atom 5.7003779531828744 1.9001057551420582 41.7881294549997335 O
atom 5.7003777907959163 7.6004386653524199 40.2128674599997709 O
atom 3.8002546727591211 7.6004384095118001 42.6481625399997313 O
atom 5.7003783951434110 7.6004383393031887 44.2234018199997081 O
atom 3.8002539892589882 7.6004388568215902 36.9175618399997916 O
atom 3.8002538268721140 1.9001063270319327 35.3422996949998094 O
atom 5.7003775288353618 1.9001060611913017 37.7775949349997830 O
atom 3.8002549849310219 7.6004382864884024 44.6534137699997018 Ti
atom 3.8002551968952885 1.9001053506471088 47.0887174849996768 Ti
atom 3.8002551871065959 7.6004380934625821 46.6586967299996900 O
atom 3.8002550147197023 1.9001055536729359 45.0834344249996946 O
atom 5.7003786866828534 1.9001053478323695 47.5187288249996698 O
atom 5.7003778310072377 5.7003277881679084 39.7828462349997523 Ti
atom 5.7003780429715603 3.8002166223265652 42.2181507299997634 Ti
atom 3.8002540190476726 5.7003279340061104 37.3475828149997824 Ti
atom 3.8002543612195825 5.7003278309827063 39.3528341249997524 O
atom 5.7003779431828416 5.7003275651420680 41.7881294549997335 O
atom 5.7003777907959474 3.8002168553524101 40.2128674399997692 O
atom 3.8002546727591544 3.8002166195117906 42.6481625399997313 O
atom 5.7003783851434449 3.8002165093031772 44.2234018199997081 O
atom 3.8002539892590232 3.8002170468215790 36.9175618599997932 O
atom 3.8002538468720779 5.7003281370319439 35.3422996849998086 O
atom 5.7003775288353289 5.7003279411913130 37.7775949349997902 O
atom 3.8002549849310552 3.8002164964883911 44.6534137699997018 Ti
atom 3.8002552068952595 5.7003271606471166 47.0887175249996801 Ti
atom 3.8002551871066284 3.8002162834625719 46.6586967199996820 O
atom 3.8002550347196689 5.7003273736729465 45.0834344249996946 O
atom 5.7003786866828179 5.7003271278323826 47.5187287949996744 O
