#===============================================================================
# Created using the Atomic Simulation Environment (ASE)

# Mon Mar 23 14:01:30 2026

#=======================================================
lattice_vector 20.9123456580894320 0.0000000000000000 0.0000000000000000 
lattice_vector 0.0000005548747295 7.6004436200000010 0.0000000000000000 
lattice_vector 0.0000000000000000 0.0000000000000000 36.5082172509576495 
atom 1.6778305332841816 1.9001104258302099 17.8115588074370095 Ti
atom 20.3214090690910361 7.6004430556215441 18.6966587113429910 Ti
atom 8.2870996079381083 7.6004430449962435 21.3519276685669013 Ti
atom 3.2559689827327674 1.9001104464555278 15.1562890607202476 Ti
atom 1.3878456991331602 1.9001104398155280 15.8850883293462886 O
atom 20.7220231844766580 1.9001103491899480 18.5403695752193229 O
atom 1.2772165117272265 7.6004431522618026 17.9678480464984389 O
atom 19.2302127127971758 7.6004431224702049 17.0827598233736850 O
atom 18.4532860038575066 7.6004430789815469 19.4254578518430918 O
atom 3.6565836270918495 7.6004431700239321 15.0000000000000000 O
atom 3.5459537407673403 1.9001103924702101 17.0827595363036693 O
atom 13.5151848908926890 1.9001103349962372 21.3519279396154360 Ti
atom 8.4840558732875913 7.6004431664555288 15.1562890078424246 Ti
atom 17.3620894964579051 7.6004431458302051 17.8115590442917977 Ti
atom 15.0933222757922643 1.9001103656215435 18.6966586833427613 Ti
atom 13.2251994973123015 1.9001103789815488 19.4254577334415828 O
atom 8.8846692592987271 1.9001104500239308 15.0000000381905636 O
atom 10.1552224795796278 7.6004430316362406 20.6231285821235488 O
atom 6.6159328484930908 7.6004431998155324 15.8850881969705462 O
atom 15.4939367322410391 7.6004430791899473 18.5403696637286473 O
atom 16.9614751668008559 1.9001104322618034 17.9678480037074166 O
atom 15.3833077884354275 1.9001103316362324 20.6231288645354880 O
atom 1.6778308070870964 5.7003322558302107 17.8115587981208634 Ti
atom 20.3214088009698237 3.8002212456215418 18.6966587077085364 Ti
atom 8.2870993341351937 3.8002212249962430 21.3519276778830545 Ti
atom 3.2559692694862878 5.7003322764555282 15.1562890570857931 Ti
atom 1.3878459822522329 5.7003323098155310 15.8850883163956844 O
atom 20.7220234675957258 5.7003321591899487 18.5403695622687152 O
atom 1.2772162529221709 3.8002213422618025 17.9678480392295299 O
atom 19.2302124260436500 3.8002213224702035 17.0827598270081467 O
atom 18.4532857357362943 3.8002212889815463 19.4254578482086373 O
atom 3.6565833310221705 3.8002213600239312 15.0000000072689055 O
atom 3.5459540275208554 5.7003322724702095 17.0827595326692219 O
atom 13.5151850938008131 5.7003321449962376 21.3519279686910579 Ti
atom 8.4840556051663789 3.8002213364555293 15.1562890042079701 Ti
atom 17.3620892190205431 3.8002213458302037 17.8115590442917977 Ti
atom 15.0933225143778031 5.7003321756215453 18.6966586662976511 Ti
atom 13.2251997261216392 5.7003321689815474 19.4254577738806020 O
atom 8.8846694808391611 5.7003322700239307 15.0000000599972836 O
atom 10.1552222021422605 3.8002211916362389 20.6231285821235488 O
atom 6.6159325653740204 3.8002213798155311 15.8850882099211574 O
atom 15.4939364548036735 3.8002212691899464 18.5403696637286544 O
atom 16.9614754240187047 5.7003322522618047 17.9678479793934045 O
atom 15.3833079783929385 5.7003321216362322 20.6231288879294183 O
atom 3.0590119705036467 1.9001103149962362 21.3519279806180435 Ti
atom 18.9402276027959466 7.6004431664555199 15.1562894636327172 Ti
atom 6.9059181804948393 7.6004431458302193 17.8115584379017307 Ti
atom 4.6371504494879012 1.9001103456215536 18.6966582545808393 Ti
atom 2.7690272067873729 1.9001103389815537 19.4254575179852296 O
atom 19.3408416709336741 1.9001104500239270 15.0000002063990223 O
atom 20.6113940993413678 7.6004430116362292 20.6231290592605134 O
atom 17.0721045650508358 7.6004431998155209 15.8850886470791366 O
atom 5.0377651015759426 7.6004430691899589 18.5403691586432160 O
atom 6.5053033870772730 1.9001104322618141 17.9678475567732292 O
atom 4.9271352147913801 1.9001102816362352 20.6231287487965744 O
atom 12.1340034516259738 1.9001104258302102 17.8115587887011699 Ti
atom 9.8652373504860442 7.6004430956215527 18.6966582835011650 Ti
atom 18.7432709202667169 7.6004430249962311 21.3519282656408151 Ti
atom 13.7121407888176154 1.9001104564555185 15.1562894651681574 Ti
atom 11.8440179782946888 1.9001104798155224 15.8850885707038572 O
atom 10.2658507039941700 1.9001103491899514 18.5403694231358713 O
atom 11.7333900222084626 7.6004431222618072 17.9678478396911316 O
atom 8.7740411023515907 7.6004431324702155 17.0827593426022730 O
atom 7.9971142872997598 7.6004431289815573 19.4254574017344979 O
atom 14.1127552375374368 7.6004431700239214 15.0000004807714120 O
atom 14.0021262678306044 1.9001104324702072 17.0827596702148554 O
atom 3.0590122443065568 5.7003321449962376 21.3519279713018904 Ti
atom 18.9402273217241230 3.8002213464555186 15.1562894543165605 Ti
atom 6.9059178937413215 3.8002213258302184 17.8115584415361923 Ti
atom 4.6371507326069699 5.7003321756215541 18.6966582416302316 Ti
atom 2.7690274899064402 5.7003322089815551 19.4254575050346219 O
atom 19.3408419447365887 5.7003322600239290 15.0000001970828656 O
atom 20.6113938219040058 3.8002212216362286 20.6231290592605205 O
atom 17.0721042839790158 3.8002213698155209 15.8850886377629834 O
atom 5.0377648055062689 3.8002212591899580 18.5403691659121250 O
atom 6.5053036810996945 5.7003322422618128 17.9678475717710882 O
atom 4.9271354922287411 5.7003321616362355 20.6231287487965744 O
atom 12.1340036638502529 5.7003322358302091 17.8115588141423444 Ti
atom 9.8652370694142242 3.8002212056215532 18.6966582741850047 Ti
atom 18.7432706428293550 3.8002212349962301 21.3519282656408151 Ti
atom 13.7121410326248139 5.7003322664555176 15.1562894890221180 Ti
atom 11.8440181982479107 5.7003322698155232 15.8850885609276560 O
atom 10.2658510373284670 5.7003321691899513 18.5403694013291584 O
atom 11.7333897354549492 3.8002213422618056 17.9678478433255790 O
atom 8.7740408155980667 3.8002213024702147 17.0827593462367204 O
atom 7.9971140041806938 3.8002212489815563 19.4254574146851056 O
atom 14.1127549694162262 3.8002213600239205 15.0000004771369611 O
atom 14.0021265732164366 5.7003322124702072 17.0827596593114919 O
atom 7.8864848290583467 1.9001103314278376 21.5082168247030197 O
atom 13.1145713722010591 7.6004430614278391 21.5082167892844325 O
atom 7.8864851121774056 5.7003321414278396 21.5082168117524120 O
atom 13.1145710854475439 3.8002212314278392 21.5082167929188870 O
atom 2.6583978944298985 7.6004430514278329 21.5082170799371468 O
atom 18.3426565719773578 1.9001103214278283 21.5082172323253289 O
atom 2.6583976356248429 3.8002212414278329 21.5082170726682307 O
atom 18.3426568566836323 5.7003321414278290 21.5082172509576495 O
