#===============================================================================
# Created using the Atomic Simulation Environment (ASE)

# Mon Mar 23 14:01:33 2026

#=======================================================
lattice_vector 11.0253972427838800 0.0000000000000000 0.0000000000000000 
lattice_vector 3.2078926060844428 10.5484209638685815 0.0000000000000000 
lattice_vector 0.0000000000000000 0.0000000000000000 31.9592071663726962 
atom 5.7620150271512527 4.2703120097629919 16.9591924391538349 Ti
atom 6.9560592243183876 2.6591209947611230 16.9591777709876901 O
atom 4.5679709027420046 5.8815030434813336 16.9592071568778806 O
atom 5.8036561971266627 4.3011963230025199 15.0000000047473883 O
atom 7.3243202161349910 5.4281229482063402 16.7146534223060570 O
atom 3.0056656686294057 2.2275543252709542 15.8573266209521755 Ti
atom 4.6096119746980824 7.5017648182494518 15.8573266426054893 Ti
atom 7.3659613386139648 9.5445224011239524 16.9591923964271771 Ti
atom 8.5600055357810874 7.9333314565321400 16.9591777662402912 O
atom 2.9640245912793080 0.6072925289027785 16.9592071331408292 O
atom 7.4076025170098516 9.5754067734115171 15.0000000000000000 O
atom 5.7203739299337304 0.1539124171442419 16.7146534080638496 O
atom 8.5183643290972952 2.2275543366279607 15.8573266420255798 Ti
atom 11.2747136148612590 4.2703120288072984 16.9591924249115706 Ti
atom 1.4433605806914562 2.6591209958851039 16.9591777689039311 O
atom 10.0806695241339490 5.8815030610838450 16.9592071663726962 O
atom 11.3163548185185991 4.3011963318037782 15.0000000094947943 O
atom 1.8116215694816007 5.4281229646898872 16.7146534128112023 O
atom 12.8786599263239712 9.5445224201682599 16.9591923821849164 Ti
atom 3.0473068837336763 7.9333314514156239 16.9591777546617131 O
atom 8.4767232318797756 0.6072925431383657 16.9592071278134959 O
atom 12.9203011384017881 9.5754067822127755 15.0000000047474025 O
atom 0.2076752832803403 0.1539124336277889 16.7146533985690020 O
atom 10.1223106267454970 7.5017648233659626 15.8573266541840674 Ti
