#===============================================================================
# Created using the Atomic Simulation Environment (ASE)

# Mon Mar 23 14:01:31 2026

#=======================================================
lattice_vector 7.6004937600000506 0.0000000000000000 0.0000000000000000 
lattice_vector -0.0000000000000672 7.6004436200000214 0.0000000000000000 
lattice_vector 0.0000000000000000 0.0000000000000000 30.8600321650000069 
atom 0.0000083368952598 1.9001053606471108 15.4300207750000027 Ti
atom 0.0000082971065656 7.6004381034625865 15.0000000000000000 O
atom 1.9001318166828196 1.9001053478323746 15.8600320750000208 O
atom 0.0000083068952297 5.7003271706471184 15.4300208049999981 Ti
atom 0.0000082971065992 3.8002162934625754 15.0000000000000000 O
atom 1.9001318066827968 5.7003271378323781 15.8600321650000069 O
atom 3.8002551968952885 1.9001053506471088 15.4300208049999981 Ti
atom 3.8002551871065959 7.6004380934625821 15.0000000500000112 O
atom 5.7003786866828534 1.9001053478323695 15.8600321449999910 O
atom 3.8002552068952595 5.7003271606471166 15.4300208450000014 Ti
atom 3.8002551871066284 3.8002162834625719 15.0000000400000033 O
atom 5.7003786866828179 5.7003271278323826 15.8600321149999957 O
