#===============================================================================
# Created using the Atomic Simulation Environment (ASE)

# Mon Mar 23 14:01:35 2026

#=======================================================
lattice_vector 9.2839361000000000 0.0000000000000000 0.0000000000000000 
lattice_vector 0.0000000000000000 5.9471245399999999 0.0000000000000000 
lattice_vector 0.0000000000000000 0.0000000000000000 55.0157006200000041 
atom 9.2839360399999986 0.0000000100000000 18.2239343299999987 Ti
atom 9.2839360299999996 2.9735622699999991 18.2239343299999987 Ti
atom 4.6419680000000003 0.0000000100000000 18.2239343399999960 Ti
atom 4.6419680100000003 2.9735622799999990 18.2239343399999960 Ti
atom 2.3209840500000003 1.4867811399999995 15.9029553699999973 Ti
atom 0.9029265000000000 1.4867811399999995 17.3209789699999952 O
atom 1.4180576000000003 0.0000000000000000 15.0000000000000000 O
atom 3.2239105299999999 0.0000000000000000 16.8059108699999982 O
atom 2.3209840500000003 4.4603434099999992 15.9029553799999981 Ti
atom 0.9029265000000000 4.4603434099999992 17.3209789699999952 O
atom 1.4180576000000003 2.9735622699999991 15.0000000000000000 O
atom 3.2239105399999999 2.9735622699999991 16.8059108699999982 O
atom 6.9629519999999996 1.4867811399999995 15.9029553899999989 Ti
atom 5.5448945200000006 1.4867811399999995 17.3209789699999952 O
atom 6.0600256200000020 0.0000000000000000 15.0000000199999981 O
atom 7.8658785400000006 0.0000000000000000 16.8059108899999963 O
atom 6.9629520100000022 4.4603434099999992 15.9029553899999989 Ti
atom 5.5448945200000006 4.4603434199999983 17.3209789799999996 O
atom 6.0600256200000020 2.9735622699999991 15.0000000199999981 O
atom 7.8658785400000006 2.9735622699999991 16.8059108899999963 O
atom 2.3209840400000008 1.4867811399999995 20.5449133599999989 Ti
atom 9.2839360399999986 0.0000000100000000 27.5078502099999973 Ti
atom 0.9029265000000000 1.4867811300000000 21.9629369300000015 O
atom 3.7390416200000010 1.4867811399999995 19.1268898699999994 O
atom 1.4180575900000001 0.0000000000000000 19.6419579400000011 O
atom 3.2239105299999999 0.0000000000000000 21.4478688399999982 O
atom 2.3209840400000008 4.4603433999999993 20.5449133599999989 Ti
atom 9.2839360299999996 2.9735622699999991 27.5078502099999973 Ti
atom 0.9029265000000000 4.4603433999999993 21.9629369300000015 O
atom 3.7390416300000004 4.4603434099999992 19.1268898699999994 O
atom 1.4180575900000001 2.9735622699999991 19.6419579400000011 O
atom 3.2239105299999999 2.9735622699999991 21.4478688399999982 O
atom 6.9629519999999996 1.4867811300000000 20.5449133699999997 Ti
atom 4.6419680000000003 0.0000000100000000 27.5078502199999981 Ti
atom 5.5448945299999997 1.4867811300000000 21.9629369399999987 O
atom 8.3810096299999994 1.4867811300000000 19.1268898699999994 O
atom 6.0600256000000012 0.0000000000000000 19.6419579599999992 O
atom 7.8658785300000016 0.0000000000000000 21.4478688599999998 O
atom 6.9629519900000014 4.4603434099999992 20.5449133699999997 Ti
atom 4.6419680100000003 2.9735622799999990 27.5078502199999981 Ti
atom 5.5448945299999997 4.4603433999999993 21.9629369399999987 O
atom 8.3810096299999994 4.4603434099999992 19.1268898599999986 O
atom 6.0600256100000003 2.9735622699999991 19.6419579599999992 O
atom 7.8658785300000016 2.9735622699999991 21.4478688599999998 O
atom 2.3209840500000003 1.4867811399999995 25.1868712499999994 Ti
atom 9.2839360500000030 5.9471245299999991 22.8658923099999996 Ti
atom 0.9029265000000000 1.4867811399999995 26.6048948499999973 O
atom 3.7390416400000004 1.4867811300000000 23.7688478100000005 O
atom 1.4180576000000003 0.0000000000000000 24.2839158799999986 O
atom 3.2239105299999999 0.0000000000000000 26.0898267499999967 O
atom 2.3209840500000003 4.4603434099999992 25.1868712600000002 Ti
atom 9.2839360399999986 2.9735622600000000 22.8658922999999987 Ti
atom 0.9029265000000000 4.4603434099999992 26.6048948499999973 O
atom 3.7390416400000004 4.4603434099999992 23.7688478100000005 O
atom 1.4180576000000003 2.9735622699999991 24.2839158799999986 O
atom 3.2239105399999999 2.9735622699999991 26.0898267499999967 O
atom 6.9629519999999996 1.4867811399999995 25.1868712699999975 Ti
atom 4.6419680100000003 0.0000000000000000 22.8658923099999996 Ti
atom 5.5448945200000006 1.4867811399999995 26.6048948499999973 O
atom 8.3810096400000020 1.4867811199999996 23.7688478100000005 O
atom 6.0600256200000020 0.0000000000000000 24.2839158999999967 O
atom 7.8658785400000006 0.0000000000000000 26.0898267699999984 O
atom 6.9629520100000022 4.4603434099999992 25.1868712699999975 Ti
atom 4.6419680100000003 2.9735622699999991 22.8658923099999996 Ti
atom 5.5448945200000006 4.4603434199999983 26.6048948599999981 O
atom 8.3810096400000020 4.4603433999999993 23.7688477999999996 O
atom 6.0600256200000020 2.9735622699999991 24.2839158999999967 O
atom 7.8658785400000006 2.9735622699999991 26.0898267699999984 O
atom 2.3209840400000008 1.4867811399999995 29.8288292400000010 Ti
atom 9.2839360399999986 0.0000000100000000 36.7917660899999959 Ti
atom 0.9029265000000000 1.4867811300000000 31.2468528100000036 O
atom 3.7390416200000010 1.4867811399999995 28.4108057499999980 O
atom 1.4180575900000001 0.0000000000000000 28.9258738200000032 O
atom 3.2239105299999999 0.0000000000000000 30.7317847199999967 O
atom 2.3209840400000008 4.4603433999999993 29.8288292400000010 Ti
atom 9.2839360299999996 2.9735622699999991 36.7917660899999959 Ti
atom 0.9029265000000000 4.4603433999999993 31.2468528100000036 O
atom 3.7390416300000004 4.4603434099999992 28.4108057499999980 O
atom 1.4180575900000001 2.9735622699999991 28.9258738200000032 O
atom 3.2239105299999999 2.9735622699999991 30.7317847199999967 O
atom 6.9629519999999996 1.4867811300000000 29.8288292499999947 Ti
atom 4.6419680000000003 0.0000000100000000 36.7917661000000038 Ti
atom 5.5448945299999997 1.4867811300000000 31.2468528199999973 O
atom 8.3810096299999994 1.4867811300000000 28.4108057499999980 O
atom 6.0600256000000012 0.0000000000000000 28.9258738399999977 O
atom 7.8658785300000016 0.0000000000000000 30.7317847399999984 O
atom 6.9629519900000014 4.4603434099999992 29.8288292499999947 Ti
atom 4.6419680100000003 2.9735622799999990 36.7917661000000038 Ti
atom 5.5448945299999997 4.4603433999999993 31.2468528199999973 O
atom 8.3810096299999994 4.4603434099999992 28.4108057399999971 O
atom 6.0600256100000003 2.9735622699999991 28.9258738399999977 O
atom 7.8658785300000016 2.9735622699999991 30.7317847399999984 O
atom 2.3209840500000003 1.4867811399999995 34.4707871300000050 Ti
atom 9.2839360500000030 5.9471245299999991 32.1498081900000017 Ti
atom 0.9029265000000000 1.4867811399999995 35.8888107300000030 O
atom 3.7390416400000004 1.4867811300000000 33.0527636900000061 O
atom 1.4180576000000003 0.0000000000000000 33.5678317600000042 O
atom 3.2239105299999999 0.0000000000000000 35.3737426299999953 O
atom 2.3209840500000003 4.4603434099999992 34.4707871399999988 Ti
atom 9.2839360399999986 2.9735622600000000 32.1498081799999937 Ti
atom 0.9029265000000000 4.4603434099999992 35.8888107300000030 O
atom 3.7390416400000004 4.4603434099999992 33.0527636900000061 O
atom 1.4180576000000003 2.9735622699999991 33.5678317600000042 O
atom 3.2239105399999999 2.9735622699999991 35.3737426299999953 O
atom 6.9629519999999996 1.4867811399999995 34.4707871500000067 Ti
atom 4.6419680100000003 0.0000000000000000 32.1498081900000017 Ti
atom 5.5448945200000006 1.4867811399999995 35.8888107300000030 O
atom 8.3810096400000020 1.4867811199999996 33.0527636900000061 O
atom 6.0600256200000020 0.0000000000000000 33.5678317799999917 O
atom 7.8658785400000006 0.0000000000000000 35.3737426499999970 O
atom 6.9629520100000022 4.4603434099999992 34.4707871500000067 Ti
atom 4.6419680100000003 2.9735622699999991 32.1498081900000017 Ti
atom 5.5448945200000006 4.4603434199999983 35.8888107399999967 O
atom 8.3810096400000020 4.4603433999999993 33.0527636799999982 O
atom 6.0600256200000020 2.9735622699999991 33.5678317799999917 O
atom 7.8658785400000006 2.9735622699999991 35.3737426499999970 O
atom 2.3209840400000008 1.4867811399999995 39.1127451199999996 Ti
atom 3.7390416200000010 1.4867811399999995 37.6947216299999894 O
atom 1.4180575900000001 0.0000000000000000 38.2097897000000017 O
atom 3.2239105299999999 0.0000000000000000 40.0157006000000024 O
atom 2.3209840400000008 4.4603433999999993 39.1127451199999996 Ti
atom 3.7390416300000004 4.4603434099999992 37.6947216299999894 O
atom 1.4180575900000001 2.9735622699999991 38.2097897000000017 O
atom 3.2239105299999999 2.9735622699999991 40.0157006000000024 O
atom 6.9629519999999996 1.4867811300000000 39.1127451299999933 Ti
atom 8.3810096299999994 1.4867811300000000 37.6947216299999894 O
atom 6.0600256000000012 0.0000000000000000 38.2097897200000034 O
atom 7.8658785300000016 0.0000000000000000 40.0157006200000041 O
atom 6.9629519900000014 4.4603434099999992 39.1127451299999933 Ti
atom 8.3810096299999994 4.4603434099999992 37.6947216199999957 O
atom 6.0600256100000003 2.9735622699999991 38.2097897200000034 O
atom 7.8658785300000016 2.9735622699999991 40.0157006200000041 O
