#===============================================================================
# Created using the Atomic Simulation Environment (ASE)

# Mon Mar 23 14:01:30 2026

#=======================================================
lattice_vector 20.9123456580894320 0.0000000000000000 0.0000000000000000 
lattice_vector 0.0000005548747295 7.6004436200000010 0.0000000000000000 
lattice_vector 0.0000000000000000 0.0000000000000000 32.9678480923144335 
atom 20.3214090690910361 7.6004430556215441 15.1562895526997750 Ti
atom 8.2870996079381083 7.6004430449962435 17.8115585099236853 Ti
atom 20.7220231844766580 1.9001103491899480 15.0000004165761069 O
atom 18.4532860038575066 7.6004430789815469 15.8850886931998758 O
atom 13.5151848908926890 1.9001103349962372 17.8115587809722200 Ti
atom 15.0933222757922643 1.9001103656215435 15.1562895246995453 Ti
atom 13.2251994973123015 1.9001103789815488 15.8850885747983668 O
atom 10.1552224795796278 7.6004430316362406 17.0827594234803328 O
atom 15.4939367322410391 7.6004430791899473 15.0000005050854313 O
atom 15.3833077884354275 1.9001103316362324 17.0827597058922720 O
atom 20.3214088009698237 3.8002212456215418 15.1562895490653204 Ti
atom 8.2870993341351937 3.8002212249962430 17.8115585192398385 Ti
atom 20.7220234675957258 5.7003321591899487 15.0000004036254992 O
atom 18.4532857357362943 3.8002212889815463 15.8850886895654213 O
atom 13.5151850938008131 5.7003321449962376 17.8115588100478419 Ti
atom 15.0933225143778031 5.7003321756215453 15.1562895076544351 Ti
atom 13.2251997261216392 5.7003321689815474 15.8850886152373860 O
atom 10.1552222021422605 3.8002211916362389 17.0827594234803328 O
atom 15.4939364548036735 3.8002212691899464 15.0000005050854384 O
atom 15.3833079783929385 5.7003321216362322 17.0827597292862023 O
atom 3.0590119705036467 1.9001103149962362 17.8115588219748275 Ti
atom 4.6371504494879012 1.9001103456215536 15.1562890959376233 Ti
atom 2.7690272067873729 1.9001103389815537 15.8850883593420136 O
atom 20.6113940993413678 7.6004430116362292 17.0827599006172974 O
atom 5.0377651015759426 7.6004430691899589 15.0000000000000000 O
atom 4.9271352147913801 1.9001102816362352 17.0827595901533584 O
atom 9.8652373504860442 7.6004430956215527 15.1562891248579490 Ti
atom 18.7432709202667169 7.6004430249962311 17.8115591069975991 Ti
atom 10.2658507039941700 1.9001103491899514 15.0000002644926553 O
atom 7.9971142872997598 7.6004431289815573 15.8850882430912819 O
atom 3.0590122443065568 5.7003321449962376 17.8115588126586744 Ti
atom 4.6371507326069699 5.7003321756215541 15.1562890829870156 Ti
atom 2.7690274899064402 5.7003322089815551 15.8850883463914059 O
atom 20.6113938219040058 3.8002212216362286 17.0827599006173045 O
atom 5.0377648055062689 3.8002212591899580 15.0000000072689090 O
atom 4.9271354922287411 5.7003321616362355 17.0827595901533584 O
atom 9.8652370694142242 3.8002212056215532 15.1562891155417887 Ti
atom 18.7432706428293550 3.8002212349962301 17.8115591069975991 Ti
atom 10.2658510373284670 5.7003321691899513 15.0000002426859425 O
atom 7.9971140041806938 3.8002212489815563 15.8850882560418896 O
atom 7.8864848290583467 1.9001103314278376 17.9678476660598037 O
atom 13.1145713722010591 7.6004430614278391 17.9678476306412165 O
atom 7.8864851121774056 5.7003321414278396 17.9678476531091960 O
atom 13.1145710854475439 3.8002212314278392 17.9678476342756710 O
atom 2.6583978944298985 7.6004430514278329 17.9678479212939308 O
atom 18.3426565719773578 1.9001103214278283 17.9678480736821129 O
atom 2.6583976356248429 3.8002212414278329 17.9678479140250147 O
atom 18.3426568566836323 5.7003321414278290 17.9678480923144335 O
