#===============================================================================
# Created using the Atomic Simulation Environment (ASE)

# Mon Mar 23 14:01:36 2026

#=======================================================
lattice_vector 13.1294540471338479 0.0000000000000000 0.0000000000000000 
lattice_vector 0.0000000000000000 5.9471245399999999 0.0000000000000000 
lattice_vector 0.0000000000000000 0.0000000000000000 45.6833567504541094 
atom 6.5647127187968417 5.9471245299999991 16.2769512350030787 Ti
atom 6.5647127258679161 2.9735622699999995 16.2769512279320168 Ti
atom 9.8470762906843365 4.4603434099999992 16.2769512738940172 Ti
atom 11.8524884260878487 4.4603434099999992 16.2769294868257397 O
atom 9.8470571680896750 0.0000000000000000 15.0000000000000000 O
atom 9.8470762977554109 1.4867811300000000 16.2769512668229552 Ti
atom 11.8524884260878487 1.4867811400000002 16.2769294868257397 O
atom 9.8470571610185988 2.9735622699999995 15.0000000070710584 O
atom 3.2823491539802974 4.4603433999999993 16.2769513021781655 Ti
atom 5.2877613671655936 4.4603433999999993 16.2769294797546351 O
atom 3.2823300950252534 0.0000000000000000 15.0000000212131486 O
atom 3.2823491610513584 1.4867811300000000 16.2769513092492417 Ti
atom 5.2877613671655936 1.4867811300000000 16.2769294797546351 O
atom 3.2823300950252534 2.9735622699999995 15.0000000212131486 O
atom 13.1294397565058549 0.0000000000000000 16.2769512774295002 Ti
atom 13.1294397565058549 2.9735622699999995 16.2769512774295002 Ti
atom 6.5647055593405810 4.4603433999999993 19.5593148422381589 Ti
atom 13.1294254446646512 5.9471245299999991 22.8416782585544311 Ti
atom 8.5701177442416157 4.4603434099999992 19.5592930056724619 O
atom 4.5592934027237151 4.4603433999999993 19.5593367636566988 O
atom 6.5646864650302374 0.0000000000000000 18.2823635259177664 O
atom 6.5647246677929800 0.0000000000000000 20.8362662292692455 O
atom 6.5647055593405810 1.4867811400000002 19.5593148422381589 Ti
atom 13.1294254517357256 2.9735622699999995 22.8416782514833727 Ti
atom 8.5701177442416157 1.4867811400000002 19.5592930056724619 O
atom 4.5592933956526398 1.4867811300000000 19.5593367707277608 O
atom 6.5646864650302374 2.9735622699999995 18.2823635259177664 O
atom 6.5647246677929800 2.9735622699999995 20.8362662292692455 O
atom 3.2823349694182991 4.4603434099999992 22.8416782974453696 Ti
atom 3.2823420581638101 5.9471245299999991 19.5593147609208913 Ti
atom 5.2877471048218094 4.4603434099999992 22.8416565103770992 O
atom 7.8416640916410385 4.4603434099999992 16.2769732235967837 O
atom 3.2823158468236353 0.0000000000000000 21.5647270235513560 O
atom 9.8470953779235000 0.0000000000000000 17.5539026962804208 O
atom 3.2823349764893717 1.4867811300000000 22.8416782903743112 Ti
atom 3.2823420510927286 2.9735622600000000 19.5593147679919532 Ti
atom 5.2877471048218094 1.4867811400000002 22.8416565103770992 O
atom 7.8416640845699801 1.4867811300000000 16.2769732165257075 O
atom 3.2823158397525622 2.9735622699999995 21.5647270306224144 O
atom 9.8470953779235000 2.9735622699999995 17.5539026962804208 O
atom 9.8470618798481109 4.4603433999999993 22.8416783257295180 Ti
atom 9.8470691029439106 0.0000000099999998 19.5593147821341198 Ti
atom 11.8524740930334023 4.4603433999999993 22.8416565033059911 O
atom 1.2769370256476615 4.4603434099999992 16.2769732660231448 O
atom 9.8470428208930638 0.0000000000000000 21.5647270447645028 O
atom 3.2823682836458938 0.0000000000000000 17.5539026962803426 O
atom 9.8470618869191693 1.4867811300000000 22.8416783328005977 Ti
atom 9.8470691029439266 2.9735622800000003 19.5593147679919852 Ti
atom 11.8524740930334023 1.4867811300000000 22.8416565033059911 O
atom 1.2769370256476615 1.4867811300000000 16.2769732660231448 O
atom 9.8470428208930638 2.9735622699999995 21.5647270447645028 O
atom 3.2823682765748181 2.9735622699999995 17.5539027033514046 O
atom 13.1294326253340046 4.4603433999999993 19.5593147573853940 Ti
atom 6.5646984352398139 0.0000000000000000 22.8416783009808526 Ti
atom 2.0053907277457990 4.4603433999999993 19.5592929703171308 O
atom 11.1240204475038684 4.4603434199999983 19.5593367424435272 O
atom 13.1294135168814297 0.0000000000000000 18.2823635259177983 O
atom 13.1294517125731485 0.0000000000000000 20.8362661939139322 O
atom 13.1294326182629266 1.4867811300000000 19.5593147644564560 Ti
atom 6.5646984352398139 2.9735622699999995 22.8416783009808526 Ti
atom 2.0053907348168600 1.4867811199999996 19.5592929773882069 O
atom 11.1240204404328082 1.4867811400000002 19.5593367353724474 O
atom 13.1294135168814297 2.9735622699999995 18.2823635259177983 O
atom 13.1294517125731485 2.9735622699999995 20.8362661939139322 O
atom 13.1294182852083896 4.4603433999999993 26.1240418657895148 Ti
atom 6.5646841233986137 5.9471245299999991 29.4064052821057871 Ti
atom 2.0053764229755782 4.4603434099999992 26.1240200292238143 O
atom 11.1240061285915299 4.4603433999999993 26.1240637872080512 O
atom 13.1293991908980416 0.0000000000000000 24.8470905494691223 O
atom 13.1294373936607940 0.0000000000000000 27.4009932528206015 O
atom 13.1294182852083896 1.4867811400000002 26.1240418657895148 Ti
atom 6.5646841304696899 2.9735622699999995 29.4064052750347287 Ti
atom 2.0053764229755782 1.4867811400000002 26.1240200292238143 O
atom 11.1240061215204538 1.4867811300000000 26.1240637942791132 O
atom 13.1293991908980416 2.9735622699999995 24.8470905494691223 O
atom 13.1294373936607940 2.9735622699999995 27.4009932528206015 O
atom 9.8470476952861077 4.4603434099999992 29.4064053209967220 Ti
atom 9.8470547840316183 5.9471245299999991 26.1240417844722437 Ti
atom 11.8524598306896198 4.4603434099999992 29.4063835339284481 O
atom 1.2769227703749997 4.4603434099999992 22.8417002471481396 O
atom 9.8470285726914462 0.0000000000000000 28.1294540471027119 O
atom 3.2823540566574589 0.0000000000000000 24.1186297198317732 O
atom 9.8470477023571821 1.4867811300000000 29.4064053139256636 Ti
atom 9.8470547769605421 2.9735622600000000 26.1240417915433056 Ti
atom 11.8524598306896198 1.4867811400000002 29.4063835339284481 O
atom 1.2769227633039415 1.4867811300000000 22.8417002400770670 O
atom 9.8470285656203735 2.9735622699999995 28.1294540541737703 O
atom 3.2823540566574589 2.9735622699999995 24.1186297198317732 O
atom 3.2823205585820738 4.4603433999999993 29.4064053492808739 Ti
atom 3.2823277816778713 0.0000000099999998 26.1240418056854722 Ti
atom 5.2877327717673674 4.4603433999999993 29.4063835268573435 O
atom 7.8416497515154751 4.4603434099999992 22.8417002895745007 O
atom 3.2823014996270241 0.0000000000000000 28.1294540683158623 O
atom 9.8470810095137082 0.0000000000000000 24.1186297198317021 O
atom 3.2823205656531291 1.4867811300000000 29.4064053563519465 Ti
atom 3.2823277816778886 2.9735622800000003 26.1240417915433341 Ti
atom 5.2877327717673674 1.4867811300000000 29.4063835268573435 O
atom 7.8416497515154751 1.4867811300000000 22.8417002895745007 O
atom 3.2823014996270241 2.9735622699999995 28.1294540683158623 O
atom 9.8470810024426321 2.9735622699999995 24.1186297269027605 O
atom 6.5646913040679626 4.4603433999999993 26.1240417809367429 Ti
atom 13.1294111611076243 0.0000000000000000 29.4064053245322086 Ti
atom 8.5701034536136103 4.4603433999999993 26.1240199938684867 O
atom 4.5592791262378292 4.4603434199999983 26.1240637659948760 O
atom 6.5646721956153922 0.0000000000000000 24.8470905494691543 O
atom 6.5647103913071083 0.0000000000000000 27.4009932174652846 O
atom 6.5646912969968874 1.4867811300000000 26.1240417880078049 Ti
atom 13.1294111611076243 2.9735622699999995 29.4064053245322086 Ti
atom 8.5701034606846740 1.4867811199999996 26.1240200009395629 O
atom 4.5592791191667654 1.4867811400000002 26.1240637589237998 O
atom 6.5646721956153922 2.9735622699999995 24.8470905494691543 O
atom 6.5647103913071083 2.9735622699999995 27.4009932174652846 O
atom 7.8416354962428079 4.4603434099999992 29.4064272706994920 O
atom 9.8470667825252676 0.0000000000000000 30.6833567433831256 O
atom 7.8416354891717495 1.4867811300000000 29.4064272636284159 O
atom 9.8470667825252676 2.9735622699999995 30.6833567433831256 O
atom 1.2769084302494325 4.4603434099999992 29.4064273131258496 O
atom 3.2823396882476650 0.0000000000000000 30.6833567433830474 O
atom 1.2769084302494325 1.4867811300000000 29.4064273131258496 O
atom 3.2823396811765919 2.9735622699999995 30.6833567504541094 O
