#===============================================================================
# Created using the Atomic Simulation Environment (ASE)

# Mon Mar 23 14:01:32 2026

#=======================================================
lattice_vector 10.7486859018486420 0.0000000000000000 0.0000000000000000 
lattice_vector -0.0000027099268353 19.4822670799998114 0.0000000000000000 
lattice_vector 0.0000000000000000 0.0000000000000000 36.7179288484918658 
atom 5.3744476618384365 11.7463938441626663 16.3435857835076952 O
atom 5.3744468975899471 17.4769944341626129 16.3435857997296345 O
atom 5.3744490061950998 2.0052615341627642 16.3435857870432599 O
atom 5.3744482419469453 7.7358596341627095 16.3435858032652028 O
atom 9.4051959883947962 12.1764056321491001 15.0000000530328812 Ti
atom 6.7180237912565719 17.0469735171490484 15.0000000441941914 Ti
atom 6.7180240919155798 15.0417221671490715 15.0000001424612641 O
atom 9.4051957443007925 14.1816889121490881 15.0000001951819364 O
atom 9.4051962607694541 10.1711545321491226 15.0000001371579117 O
atom 6.7180235259491763 19.0522566371490250 15.0000001227037068 O
atom 8.0616184085536311 16.6169613691626097 16.3435858100243614 O
atom 9.4051973044670110 2.4352732821491916 15.0000000000000000 Ti
atom 6.7180251426845983 7.3058388671491414 15.0000000406586658 Ti
atom 6.7180254999120823 5.3005880371491765 15.0000001389255573 O
atom 8.0616203330186291 2.8652937091627475 16.3435857343224917 O
atom 9.4051969472356056 4.4405560521491649 15.0000000290123445 O
atom 9.4051976263393016 0.4300221821492186 15.0000001336223434 O
atom 6.7180248490928811 9.3111219671491199 15.0000001050261424 O
atom 8.0616198094789571 6.8758274691627150 16.3435857852754758 O
atom 4.0308530021150712 12.1764056221491010 15.0000000318197912 Ti
atom 1.3436808474032558 17.0469735271490457 15.0000000229809629 Ti
atom 1.3436811904886155 15.0417222171490774 15.0000001071057625 O
atom 2.6872760377375311 12.6064268591626512 16.3435857307869270 O
atom 4.0308526590257454 14.1816888921490705 15.0000000608320896 O
atom 4.0308533169162200 10.1711545321491226 15.0000001442289523 O
atom 1.3436805467404906 19.0522566571490302 15.0000000944195335 O
atom 2.6872755212687589 16.6169613791626176 16.3435857605266790 O
atom 4.0308543676851043 2.4352732721491996 15.0000000848527684 Ti
atom 1.3436822059024109 7.3058388671491468 15.0000000406586196 Ti
atom 1.3436825348456751 5.3005880171491748 15.0000001530677380 O
atom 4.0308542084439312 4.4405560621491915 15.0000002128594083 O
atom 4.0308546329886150 0.4300221821492159 15.0000001477646165 O
atom 1.3436819335239338 9.3111219271491255 15.0000001120970943 O
atom 2.6872768444125512 6.8758274891627114 16.3435857994176530 O
atom 0.0001047038430856 11.7463937741626676 16.3435857905787856 O
atom 0.0001039183812601 17.4769944541626074 16.3435857714454578 O
atom 0.0001060694128579 2.0052616041627642 16.3435857729010756 O
atom 0.0001053051647690 7.7358595941627106 16.3435858032651602 O
atom 5.3744650386991681 14.6117100031897742 19.0307573624816477 Ti
atom 6.7180422400996562 12.1764055461762304 17.6871715284365436 Ti
atom 5.3744493139250418 0.0000106341627852 16.3435858640971077 Ti
atom 4.0308700571035221 17.0469734311761734 17.6871715054556695 Ti
atom 4.0308703931177998 15.0417220811762054 17.6871715825094249 O
atom 5.3744653605752601 12.6064267831898018 19.0307573263983514 O
atom 6.7180419960056552 14.1816888161762158 17.6871716705856024 O
atom 0.0001401652481477 11.7463936922169268 21.7179287343150165 O
atom 6.7180425266163990 10.1711544461762546 17.6871715984193898 O
atom 0.0001394009996542 17.4769942822168716 21.7179287505369629 O
atom 4.0308697847251276 19.0522565511761570 17.6871716051784169 O
atom 5.3744647097558111 16.6169612831897417 19.0307572359303947 O
atom 5.3744663547716200 4.8705765631898652 19.0307573377330286 Ti
atom 6.7180435420297719 2.4352731961763219 17.6871714895458432 Ti
atom 5.3744479624973849 9.7411425741626907 16.3435858676326298 Ti
atom 4.0308714156027285 7.3058388211762777 17.6871715372754679 Ti
atom 4.0308717233326510 5.3005880211763028 17.6871716143293085 O
atom 5.3744665917945191 2.8652936931898845 19.0307572026550673 O
atom 6.7180431847983764 4.4405559861762915 17.6871715185581913 O
atom 0.0001415096048061 2.0052613822170260 21.7179287378505919 O
atom 6.7180438639020217 0.4300221161763496 17.6871716090260520 O
atom 0.0001407453566542 7.7358594822169708 21.7179287540725312 O
atom 4.0308711290820547 9.3111219011762572 17.6871715945718506 O
atom 5.3744660541128102 6.8758274831898447 19.0307572818923632 O
atom 8.0616187657811302 14.6117100791626395 16.3435858941491183 Ti
atom 4.0308884918045029 12.1764054802033641 20.3743430038402060 Ti
atom 2.6872955797720341 0.0000105581899182 19.0307573395007239 Ti
atom 1.3437162946662828 17.0469733652033071 20.3743429950015127 Ti
atom 1.3437165953252956 15.0417220152033337 20.3743430932685889 O
atom 8.0616191017993160 12.6064268691626680 16.3435858439236377 O
atom 4.0308882477105028 14.1816887602033503 20.3743431459892612 O
atom 2.6872939064722536 11.7463937581897966 19.0307572659824515 O
atom 4.0308887641791653 10.1711543802033830 20.3743430879652365 O
atom 2.6872931492948013 17.4769943381897441 19.0307572751333005 O
atom 1.3437160293588848 19.0522564852032836 20.3743430735110316 O
atom 2.6873109119633494 16.6169612172168719 21.7179287608316933 O
atom 8.0616201030667654 4.8705765591627381 16.3435858623293697 Ti
atom 4.0308898078767230 2.4352731302034534 20.3743429508073248 Ti
atom 2.6872942071312016 9.7411424981898218 19.0307573501073826 Ti
atom 1.3437176460943063 7.3058387152034037 20.3743429914659941 Ti
atom 1.3437180033217933 5.3005878852034387 20.3743430897328857 O
atom 2.6873128364283385 2.8652935572170093 21.7179286851298166 O
atom 4.0308894506453221 4.4405559002034263 20.3743429798196694 O
atom 2.6872952791130884 2.0052614581898958 19.0307572412336548 O
atom 4.0308901297490101 0.4300220302034803 20.3743430844296682 O
atom 2.6872944936518035 7.7358595581898424 19.0307572786688723 O
atom 1.3437173525025949 9.3111218152033821 20.3743430558334708 O
atom 2.6873123128886705 6.8758273172169773 21.7179287360828006 O
atom 2.6872758148566724 14.6117100791626431 16.3435858517227146 Ti
atom 9.4052314073734191 12.1764054702033615 20.3743429826271196 Ti
atom 8.0616385094831262 0.0000105881899150 19.0307573324297294 Ti
atom 6.7180592526616039 17.0469733752033044 20.3743429737882913 Ti
atom 6.7180595957469693 15.0417220652033379 20.3743430579130873 O
atom 8.0616544429958843 12.6064267072169134 21.7179286815942518 O
atom 9.4052310642840933 14.1816887402033327 20.3743430116394180 O
atom 8.0616368715386688 11.7463936981897987 19.0307572518402708 O
atom 9.4052317221745732 10.1711543802033830 20.3743430950362736 O
atom 8.0616360719347515 17.4769943981897384 19.0307572468491202 O
atom 6.7180589519988390 19.0522565052032888 20.3743430452268548 O
atom 8.0616539265271108 16.6169612272168763 21.7179287113340074 O
atom 2.6872772016400330 4.8705766291627413 16.3435858976845445 Ti
atom 9.4052327729434584 2.4352731202034614 20.3743430356600896 Ti
atom 8.0616371792686596 9.7411424681898229 19.0307573288941079 Ti
atom 6.7180606111607641 7.3058387152034099 20.3743429914659515 Ti
atom 6.7180609401040234 5.3005878652034362 20.3743431038750593 O
atom 2.6872775023028130 2.8652936991627698 16.3435858403881156 O
atom 9.4052326137022781 4.4405559102034537 20.3743431636667367 O
atom 8.0616382088242631 2.0052615381898953 19.0307572624469259 O
atom 9.4052330382469691 0.4300220302034776 20.3743430985719414 O
atom 8.0616374587182609 7.7358595081898427 19.0307572786688226 O
atom 6.7180603387822817 9.3111217752033877 20.3743430629044155 O
atom 8.0616552496708938 6.8758273372169727 21.7179287502249814 O
atom 0.0001220453483420 14.6117100031897706 19.0307573341975100 Ti
atom 1.3436992538198818 12.1764055461762268 17.6871714930813191 Ti
atom 0.0001063630006751 0.0000106541627862 16.3435858499549767 Ti
atom 9.4052129797435633 17.0469734611761723 17.6871715054557654 Ti
atom 9.4052132945447493 15.0417221511762005 17.6871716178649301 O
atom 0.0001222823712993 12.6064267831897840 19.0307571991195488 O
atom 1.3436989107305937 14.1816888361761979 17.6871715362357591 O
atom 5.3744831091014342 11.7463936222169281 21.7179287413861104 O
atom 1.3436995756920775 10.1711544561762519 17.6871715984193933 O
atom 5.3744823236396080 17.4769943022168661 21.7179287222527826 O
atom 9.4052127144361659 19.0522565911761532 17.6871715839652772 O
atom 0.0001217234762984 16.6169613031897399 19.0307572854279776 O
atom 0.0001234533448983 4.8705764831898746 19.0307573730882105 Ti
atom 1.3437006688872242 2.4352731961763348 17.6871714966166564 Ti
atom 0.0001050115730784 9.7411425441626864 16.3435858676326298 Ti
atom 9.4052143665270087 7.3058387511762772 17.6871715231333297 Ti
atom 9.4052146813279922 5.3005878911763009 17.6871715931160836 O
atom 0.0001237469366158 2.8652936831898987 19.0307573228628684 O
atom 1.3437004389356542 4.4405559761763200 17.6871717094763454 O
atom 5.3744844746712159 2.0052614522170260 21.7179287237084040 O
atom 1.3437009412618761 0.4300220961763542 17.6871715807416869 O
atom 5.3744837104231182 7.7358594422169720 21.7179287540724850 O
atom 9.4052140941485654 9.3111218511762566 17.6871716087139355 O
atom 0.0001231173305313 6.8758274431898450 19.0307572536080514 O
atom 0.0001418173347529 0.0000104822170469 21.7179288149044325 Ti
atom 0.0001404659070968 9.7411424222169529 21.7179288184399546 Ti
atom 2.6873112691908334 14.6117099272169035 21.7179288449564432 Ti
atom 2.6873116052090276 12.6064267172169302 21.7179287947309660 O
atom 2.6873126064764823 4.8705764072170012 21.7179288131366945 Ti
atom 8.0616542201150221 14.6117099272169035 21.7179288025300394 Ti
atom 8.0616556068983805 4.8705764772170026 21.7179288484918693 Ti
atom 8.0616559075611676 2.8652935472170316 21.7179287911954404 O
atom 5.3744847682590278 0.0000105022170479 21.7179288007623050 Ti
atom 5.3744834168314268 9.7411423922169504 21.7179288184399546 Ti
