#===============================================================================
# Created using the Atomic Simulation Environment (ASE)

# Mon Mar 23 14:01:31 2026

#=======================================================
lattice_vector 7.6004937600000506 0.0000000000000000 0.0000000000000000 
lattice_vector -0.0000000000000672 7.6004436200000214 0.0000000000000000 
lattice_vector 0.0000000000000000 0.0000000000000000 60.0834340849997091 
atom 1.9001286953123426 1.9001074948857091 17.8652843949999749 Ti
atom 1.9001289072765992 7.6004399590443876 20.3005888899999505 Ti
atom 0.0000069470833561 7.6004390698474333 32.4769838399998321 Ti
atom 0.0000048533527836 1.9001076307239100 15.4300210049999933 Ti
atom 0.0000051855246966 1.9001074877005020 17.4352723549999737 O
atom 1.9001289374879471 1.9001072818598694 19.8705676149999420 O
atom 1.9001287951009893 7.6004401920702316 18.2953056199999651 O
atom 0.0000054870641861 7.6004399462296170 20.7306006299999481 O
atom 1.9001291994484848 7.6004398460209996 22.3058399899999245 O
atom 0.0000048435640657 7.6004403835393992 15.0000000400000033 O
atom 1.9001283331404362 1.9001075979091115 15.8600331149999931 O
atom 1.9001298031597824 1.9001067415268111 27.6064178349998741 Ti
atom 1.9001299951239130 7.6004392056855732 30.0417212399998590 Ti
atom 0.0000057992360902 7.6004398332062166 22.7358518999999220 Ti
atom 0.0000060312003577 1.9001068873649223 25.1711556149998970 Ti
atom 0.0000063433722081 1.9001067643415566 27.1764064149998745 O
atom 1.9001299153353464 1.9001065185009982 29.6117007049998620 O
atom 1.9001297229483578 7.6004394387113807 28.0364384499998849 O
atom 0.0000066349114954 7.6004391928708044 30.4717329399998604 O
atom 1.9001303472957958 7.6004391026621860 32.0469723199998313 O
atom 0.0000059914116635 7.6004396301803974 24.7411348399999014 O
atom 0.0000058290247688 1.9001070903907513 23.1658725349999273 O
atom 1.9001295109879175 1.9001068745501861 25.6011669149998937 O
atom 1.9001286853123092 5.7003293248857192 17.8652843949999749 Ti
atom 1.9001289072766314 3.8002181490443769 20.3005888799999425 Ti
atom 0.0000069570833897 3.8002172498474218 32.4769838399998179 Ti
atom 0.0000048533527483 5.7003294607239203 15.4300209950000067 Ti
atom 0.0000051755246619 5.7003293577005127 17.4352723449999800 O
atom 1.9001289274879123 5.7003290918598797 19.8705676049999482 O
atom 1.9001287951010206 3.8002183820702218 18.2953055999999492 O
atom 0.0000054870642197 3.8002181462296067 20.7306006399999490 O
atom 1.9001291994485170 3.8002180560209888 22.3058399799999307 O
atom 0.0000048435641009 3.8002185735393876 15.0000000599999979 O
atom 1.9001283331404015 5.7003294779091229 15.8600331050000065 O
atom 1.9001298031597578 5.7003285515268152 27.6064179149998807 Ti
atom 1.9001299951239452 3.8002173756855631 30.0417212299998582 Ti
atom 0.0000057992361237 3.8002180332062045 22.7358518999999291 Ti
atom 0.0000060012003276 5.7003286973649301 25.1711556449998994 Ti
atom 0.0000063633721814 5.7003285543415618 27.1764064749998653 O
atom 1.9001299153353197 5.7003283385010040 29.6117007649998740 O
atom 1.9001297229483922 3.8002176087113679 28.0364384599998857 O
atom 0.0000066349115273 3.8002173528707952 30.4717329399998462 O
atom 1.9001303572958310 3.8002172826621741 32.0469723299998321 O
atom 0.0000059914116971 3.8002178201803871 24.7411348399999014 O
atom 0.0000057990247365 5.7003289103907600 23.1658725449999210 O
atom 1.9001295009878942 5.7003286645501889 25.6011670049999012 O
atom 5.7003755353123688 1.9001074848857091 17.8652843949999749 Ti
atom 5.7003757472766265 7.6004399690443867 20.3005888899999576 Ti
atom 3.8002538170833775 7.6004390698474342 32.4769838099998296 Ti
atom 3.8002517233528046 1.9001076307239118 15.4300209849999987 Ti
atom 3.8002520655247154 1.9001074877005066 17.4352722949999688 O
atom 5.7003756474879737 1.9001072818598694 19.8705676149999633 O
atom 5.7003754851010147 7.6004401920702316 18.2953056199999793 O
atom 3.8002523670642181 7.6004399362296127 20.7306006999999468 O
atom 5.7003760894485094 7.6004398660209995 22.3058399799999165 O
atom 3.8002516835640852 7.6004403835394019 15.0000000000000000 O
atom 5.7003752231404592 1.9001075879091132 15.8600330949999915 O
atom 5.7003767431598105 1.9001067315268105 27.6064178449998749 Ti
atom 5.7003769451239377 7.6004392356855730 30.0417212399998519 Ti
atom 3.8002526792361189 7.6004398132062141 22.7358519299999173 Ti
atom 3.8002528912003855 1.9001068773649201 25.1711556449998994 Ti
atom 3.8002532433722420 1.9001067643415506 27.1764064949998740 O
atom 5.7003769553353809 1.9001065185009927 29.6117007749998393 O
atom 5.7003768829483832 7.6004393987113801 28.0364384499998565 O
atom 3.8002535149115100 7.6004391928708115 30.4717328599998538 O
atom 5.7003772172958209 7.6004391326621850 32.0469723299998321 O
atom 3.8002528814116929 7.6004396201803930 24.7411348899999055 O
atom 3.8002527090248002 1.9001070803907476 23.1658725849999243 O
atom 5.7003763809879526 1.9001068745501808 25.6011669849999066 O
atom 5.7003755253123360 5.7003293148857193 17.8652843949999749 Ti
atom 5.7003757372766586 3.8002181490443765 20.3005888899999576 Ti
atom 3.8002538170834117 3.8002172498474227 32.4769838199998233 Ti
atom 3.8002517133527705 5.7003294607239221 15.4300209750000050 Ti
atom 3.8002520555246804 5.7003293577005181 17.4352722849999751 O
atom 5.7003756374879400 5.7003290918598797 19.8705676149999633 O
atom 5.7003754851010466 3.8002183820702222 18.2953055999999776 O
atom 3.8002523670642523 3.8002181462296023 20.7306006999999468 O
atom 5.7003760794485441 3.8002180360209894 22.3058399799999307 O
atom 3.8002516835641211 3.8002185735393907 15.0000000200000159 O
atom 5.7003752231404254 5.7003294679091239 15.8600330949999986 O
atom 5.7003767431597838 5.7003285415268135 27.6064179149998736 Ti
atom 5.7003769351239724 3.8002173456855624 30.0417212399998377 Ti
atom 3.8002526792361522 3.8002180232062037 22.7358519299999173 Ti
atom 3.8002529012003565 5.7003286873649266 25.1711556849999027 Ti
atom 3.8002532133722151 5.7003285543415574 27.1764065449998711 O
atom 5.7003769553353392 5.7003283385010075 29.6117007149998486 O
atom 5.7003768829484178 3.8002176187113683 28.0364384599998573 O
atom 3.8002535149115442 3.8002173628708005 30.4717328699998546 O
atom 5.7003772272958564 3.8002172526621734 32.0469723399998259 O
atom 3.8002528814117258 3.8002178101803841 24.7411348799999047 O
atom 3.8002527290247667 5.7003289003907582 23.1658725849999243 O
atom 5.7003763809879144 5.7003286545501926 25.6011669549998970 O
atom 1.9001310010072452 1.9001059681678978 37.3475514749997757 Ti
atom 1.9001312129715018 7.6004384323265759 39.7828559699997584 Ti
atom 0.0000071590476857 1.9001061040060985 34.9122880849998012 Ti
atom 0.0000074912195991 1.9001059609826905 36.9175394349997745 O
atom 1.9001312431828492 1.9001057551420582 39.3528346949997569 O
atom 1.9001311007958919 7.6004386653524199 37.7775726999997659 O
atom 0.0000077927590865 7.6004384195118062 40.2128677099997560 O
atom 1.9001315051433874 7.6004383193031879 41.7881070699997110 O
atom 0.0000071492589678 7.6004388568215884 34.4822671199998112 O
atom 0.0000069968720915 1.9001063270319303 32.9070049649998282 O
atom 1.9001306388353387 1.9001060711913003 35.3423001949998081 O
atom 0.0000081049309926 7.6004383064884049 42.2181189799997298 Ti
atom 0.0000083368952598 1.9001053606471108 44.6534226949997048 Ti
atom 0.0000082971065656 7.6004381034625865 44.2234019199997022 O
atom 0.0000081347196713 1.9001055636729396 42.6481396149997352 O
atom 1.9001318166828196 1.9001053478323746 45.0834339949997229 O
atom 1.9001309910072113 5.7003277981679084 37.3475514749997757 Ti
atom 1.9001312129715340 3.8002166223265657 39.7828559599997789 Ti
atom 0.0000071590476504 5.7003279340061104 34.9122880749998146 Ti
atom 0.0000074812195643 5.7003278309827028 36.9175394249997879 O
atom 1.9001312331828144 5.7003275651420688 39.3528346849997490 O
atom 1.9001311007959227 3.8002168553524101 37.7775726799997642 O
atom 0.0000077927591218 3.8002166195117946 40.2128677199997639 O
atom 1.9001315051434196 3.8002165293031767 41.7881070599997315 O
atom 0.0000071492590047 3.8002170468215755 34.4822671399998057 O
atom 0.0000069868720568 5.7003281370319412 32.9070049549998274 O
atom 1.9001306388353039 5.7003279511913121 35.3423001849998144 O
atom 0.0000081049310262 3.8002165064883928 42.2181189799997298 Ti
atom 0.0000083068952297 5.7003271706471184 44.6534227249997002 Ti
atom 0.0000082971065992 3.8002162934625754 44.2234019199997022 O
atom 0.0000081047196386 5.7003273836729491 42.6481396249997147 O
atom 1.9001318066827968 5.7003271378323781 45.0834340849997091 O
atom 5.7003778410072705 1.9001059581678976 37.3475514749997757 Ti
atom 5.7003780529715273 7.6004384423265767 39.7828559699997584 Ti
atom 3.8002540290477076 1.9001061040060998 34.9122880649998137 Ti
atom 3.8002543712196184 1.9001059609826951 36.9175393749997767 O
atom 5.7003779531828744 1.9001057551420582 39.3528346949997569 O
atom 5.7003777907959163 7.6004386653524199 37.7775726999997943 O
atom 3.8002546727591211 7.6004384095118001 40.2128677799997547 O
atom 5.7003783951434110 7.6004383393031887 41.7881070599997315 O
atom 3.8002539892589882 7.6004388568215902 34.4822670799998150 O
atom 3.8002538268721140 1.9001063270319327 32.9070049349998328 O
atom 5.7003775288353618 1.9001060611913017 35.3423001749998065 O
atom 3.8002549849310219 7.6004382864884024 42.2181190099997252 Ti
atom 3.8002551968952885 1.9001053506471088 44.6534227249997002 Ti
atom 3.8002551871065959 7.6004380934625821 44.2234019699997134 O
atom 3.8002550147197023 1.9001055536729359 42.6481396649997180 O
atom 5.7003786866828534 1.9001053478323695 45.0834340649996932 O
atom 5.7003778310072377 5.7003277881679084 37.3475514749997757 Ti
atom 5.7003780429715603 3.8002166223265652 39.7828559699997868 Ti
atom 3.8002540190476726 5.7003279340061104 34.9122880549998058 Ti
atom 3.8002543612195825 5.7003278309827063 36.9175393649997758 O
atom 5.7003779431828416 5.7003275651420680 39.3528346949997569 O
atom 5.7003777907959474 3.8002168553524101 37.7775726799997926 O
atom 3.8002546727591544 3.8002166195117906 40.2128677799997547 O
atom 5.7003783851434449 3.8002165093031772 41.7881070599997315 O
atom 3.8002539892590232 3.8002170468215790 34.4822670999998167 O
atom 3.8002538468720779 5.7003281370319439 32.9070049249998320 O
atom 5.7003775288353289 5.7003279411913130 35.3423001749998136 O
atom 3.8002549849310552 3.8002164964883911 42.2181190099997252 Ti
atom 3.8002552068952595 5.7003271606471166 44.6534227649997035 Ti
atom 3.8002551871066284 3.8002162834625719 44.2234019599997055 O
atom 3.8002550347196689 5.7003273736729465 42.6481396649997180 O
atom 5.7003786866828179 5.7003271278323826 45.0834340349996978 O
