#===============================================================================
# Created using the Atomic Simulation Environment (ASE)

# Mon Mar 23 14:01:32 2026

#=======================================================
lattice_vector 7.6004436200000214 0.0000000000000000 0.0000000000000000 
lattice_vector -0.0000015267178117 19.4822670799999393 0.0000000000000000 
lattice_vector 0.0000000000000000 0.0000000000000000 47.1011111412500227 
atom 1.9001106841593989 2.4352949540123570 16.9001235013963758 Ti
atom 7.6004429996651064 7.7358745790123411 16.9001235077927774 O
atom 7.6004434369748894 2.0052739890123594 16.9001235424999976 O
atom 1.9001099408004110 12.1764295640123255 16.9001235263963778 Ti
atom 7.6004422463062946 17.4770068890123120 16.9001235027927805 O
atom 7.6004426836158858 11.7464087890123299 16.9001235374999936 O
atom 5.7003325141594097 2.4352949440123588 16.9001235013963758 Ti
atom 3.8002211996650952 7.7358745890123428 16.9001235077927774 O
atom 3.8002216269748765 2.0052740090123597 16.9001235424999976 O
atom 5.7003317508004185 12.1764295940123262 16.9001234963963753 Ti
atom 3.8002204063062837 17.4770068890123120 16.9001235027927805 O
atom 3.8002208736158760 11.7464087890123299 16.9001235375000007 O
atom 5.7003319638262493 10.1711464940123388 16.9001235315428033 O
atom 1.9001105383212153 4.8705581191358069 15.0000001351464292 Ti
atom 7.6004430224798929 7.3058626141357967 15.0000000588963758 Ti
atom 1.9001103352953752 6.8758413391357971 15.0000000100000008 O
atom -0.0000003744942840 5.3005793441358060 15.0000000340428059 O
atom -0.0000007005435154 9.3111137041357939 15.0000001637500233 O
atom 1.9001106413446192 2.8653068191358093 15.0000000602927805 O
atom 1.9001097849623159 14.6116915691357754 15.0000001901464302 Ti
atom -0.0000013308789426 17.0469949641357630 15.0000001038963759 Ti
atom 1.9001095719364987 16.6169744991357646 15.0000001649999959 O
atom -0.0000011678531356 15.0417121741357729 15.0000002790428084 O
atom -0.0000014339023305 19.0522460541357681 15.0000001387500284 O
atom 1.9001099279856866 12.6064407091357840 15.0000000652927774 O
atom 5.7003323683212255 4.8705581191358087 15.0000001251464283 Ti
atom 3.8002212024798832 7.3058626141357950 15.0000000488963749 Ti
atom 5.7003321452953841 6.8758413391357971 15.0000000000000000 O
atom 3.8002214355057276 5.3005793241358079 15.0000000340428059 O
atom 3.8002210894564947 9.3111137041357921 15.0000001537500260 O
atom 5.7003325213446292 2.8653068191358151 15.0000000602927770 O
atom 5.7003315949623206 14.6116916391357758 15.0000001901464302 Ti
atom 3.8002203991210672 17.0469949641357630 15.0000000938963822 Ti
atom 5.7003313919365119 16.6169744391357668 15.0000001649999959 O
atom 3.8002206721468741 15.0417121841357790 15.0000002790428084 O
atom 3.8002203060976787 19.0522460641357618 15.0000001487500292 O
atom 5.7003317079856979 12.6064406791357815 15.0000000652927774 O
atom 1.9001105483211815 4.8705585688889013 18.8002470551464285 Ti
atom 7.6004430124798601 7.3058630638888866 18.8002469788963751 Ti
atom -0.0000014967170997 19.4822577890123085 16.9001235776464327 Ti
atom 1.9001106841593318 2.4352958535185412 24.5006172613963749 Ti
atom 1.9001105411359911 4.4405463040123534 16.9001235962500260 O
atom 1.9001103352953415 6.8758417888888896 18.8002470599999967 O
atom -0.0000003744943175 5.3005797938888985 18.8002471040428070 O
atom 7.6004429996650380 7.7358754785185262 24.5006172677927765 O
atom -0.0000007205435498 9.3111141638888846 18.8002470337500220 O
atom 7.6004434369748219 2.0052748885185436 24.5006173025000002 O
atom 1.9001109071852311 0.4300118340123696 16.9001235765428106 O
atom 1.9001106513445838 2.8653072888889017 18.8002469302927793 O
atom 1.9001097949622834 14.6116920088888715 18.8002470101464318 Ti
atom 7.6004422591210439 17.0469954138888546 18.8002469138963804 Ti
atom -0.0000007333583159 9.7411258490123398 16.9001235826464260 Ti
atom 1.9001099408003439 12.1764304635185105 24.5006172863963698 Ti
atom 1.9001098177770457 14.1816803640123243 16.9001236012500264 O
atom 1.9001095719364700 16.6169748788888576 18.8002468849999964 O
atom -0.0000011278531692 15.0417126238888716 18.8002468790428097 O
atom 7.6004422463062262 17.4770077885184953 24.5006172627927796 O
atom -0.0000014639023633 19.0522464938888518 18.8002470287500287 O
atom 7.6004426836158183 11.7464096885185132 24.5006172974999927 O
atom 1.9001101438262404 10.1711464840123380 16.9001235615428058 O
atom 1.9001099279856581 12.6064410888888734 18.8002469552927778 O
atom 5.7003323783211917 4.8705585688889013 18.8002470451464276 Ti
atom 3.8002212024798503 7.3058630538888867 18.8002469788963751 Ti
atom 3.8002203032829098 19.4822577890123050 16.9001235876464335 Ti
atom 5.7003325141593413 2.4352958435185426 24.5006172613963784 Ti
atom 5.7003324111360012 4.4405462940123570 16.9001235862500288 O
atom 5.7003321452953513 6.8758417788888906 18.8002470499999959 O
atom 3.8002214355056947 5.3005797738888996 18.8002471040428070 O
atom 3.8002211996650281 7.7358754885185261 24.5006172677927765 O
atom 3.8002211094564609 9.3111141538888855 18.8002470337500256 O
atom 3.8002216269748090 2.0052749085185440 24.5006173024999967 O
atom 5.7003327171852423 0.4300118240123694 16.9001235665428098 O
atom 5.7003325313445945 2.8653072788889076 18.8002469302927793 O
atom 5.7003316049622867 14.6116920888888675 18.8002470101464318 Ti
atom 3.8002204291210346 17.0469954038888574 18.8002469138963804 Ti
atom 3.8002210866416930 9.7411258490123398 16.9001235826464296 Ti
atom 5.7003317508003510 12.1764304935185130 24.5006172563963744 Ti
atom 5.7003316077770529 14.1816804240123204 16.9001236212500245 O
atom 5.7003313919364746 16.6169749388888626 18.8002468849999964 O
atom 3.8002206621468408 15.0417126338888654 18.8002468790428097 O
atom 3.8002204063062170 17.4770077885184953 24.5006172627927796 O
atom 3.8002203360976465 19.0522465038888598 18.8002470387500296 O
atom 3.8002208736158094 11.7464096885185132 24.5006172974999927 O
atom 5.7003319638261827 10.1711473935185239 24.5006172915428024 O
atom 5.7003317179856614 12.6064411788888702 18.8002469452927770 O
atom 1.9001105383211483 4.8705590186419920 22.6004938951464318 Ti
atom 7.6004430224798263 7.3058635136419801 22.6004938188963749 Ti
atom -0.0000014967171310 19.4822582087654048 20.7003704476464314 Ti
atom 1.9001106841593667 2.4352953837654501 20.7003703713963780 Ti
atom 1.9001105411359622 4.4405466937654445 20.7003704762500291 O
atom 1.9001103352953084 6.8758422386419804 22.6004937699999964 O
atom -0.0000003744943511 5.3005802436419911 22.6004937940428015 O
atom 7.6004429896650674 7.7358750987654323 20.7003703877927769 O
atom -0.0000007005435826 9.3111146036419772 22.6004939237500224 O
atom 7.6004434369748584 2.0052743987654518 20.7003703824999974 O
atom 1.9001109071851996 0.4300122537654615 20.7003704065428096 O
atom 1.9001106413445521 2.8653077186419940 22.6004938202927761 O
atom 1.9001097849622486 14.6116924686419605 22.6004939501464257 Ti
atom -0.0000013308790097 17.0469958636419463 22.6004938638963750 Ti
atom -0.0000007533583518 9.7411263287654268 20.7003704626464256 Ti
atom 1.9001099308003753 12.1764300437654178 20.7003703863963757 Ti
atom 1.9001098177770062 14.1816808937654137 20.7003705012500241 O
atom 1.9001095719364314 16.6169753986419444 22.6004939249999950 O
atom -0.0000011678532028 15.0417130736419562 22.6004940390428075 O
atom 7.6004422463062671 17.4770072587654006 20.7003703827927836 O
atom -0.0000014339023976 19.0522469536419479 22.6004938987500239 O
atom 7.6004426736158495 11.7464092887654186 20.7003704274999976 O
atom 1.9001101338262028 10.1711469837654302 20.7003704415428054 O
atom 1.9001099279856193 12.6064416086419673 22.6004938252927801 O
atom 5.7003323683211597 4.8705590186419929 22.6004938851464274 Ti
atom 3.8002212024798152 7.3058635136419801 22.6004938088963740 Ti
atom 3.8002203032828787 19.4822582187653985 20.7003704476464314 Ti
atom 5.7003325141593777 2.4352953737654506 20.7003703613963772 Ti
atom 5.7003324111359737 4.4405466837654490 20.7003704662500247 O
atom 5.7003321452953175 6.8758422386419804 22.6004937599999955 O
atom 3.8002214355056605 5.3005802236419921 22.6004937940428050 O
atom 3.8002211996650570 7.7358750987654332 20.7003703877927769 O
atom 3.8002210894564277 9.3111146036419754 22.6004939137500251 O
atom 3.8002216269748459 2.0052744187654516 20.7003703824999974 O
atom 5.7003327171852112 0.4300122437654616 20.7003704265428077 O
atom 5.7003325213445617 2.8653077186419993 22.6004938202927761 O
atom 5.7003315949622531 14.6116925386419609 22.6004939501464257 Ti
atom 3.8002203991210002 17.0469958636419463 22.6004938538963742 Ti
atom 3.8002210766416584 9.7411263287654322 20.7003704626464256 Ti
atom 5.7003317408003822 12.1764300837654176 20.7003703963963765 Ti
atom 5.7003316077770130 14.1816809437654143 20.7003704712500287 O
atom 5.7003313919364453 16.6169753386419501 22.6004939249999950 O
atom 3.8002206721468070 15.0417130836419641 22.6004940390428075 O
atom 3.8002204163062561 17.4770072687654050 20.7003703827927765 O
atom 3.8002203060976121 19.0522469636419416 22.6004939087500283 O
atom 3.8002208636158392 11.7464092787654213 20.7003704274999940 O
atom 5.7003319538262138 10.1711469837654302 20.7003704615428070 O
atom 5.7003317079856304 12.6064415786419630 22.6004938252927801 O
atom 1.9001105483211140 4.8705594683950837 26.4007408151464276 Ti
atom 7.6004430124797935 7.3058639633950717 26.4007407388963777 Ti
atom -0.0000014967171668 19.4822586885184954 24.5006173376464282 Ti
atom 1.9001106841592645 2.4352967530247258 32.1011110213963775 Ti
atom 1.9001105411359240 4.4405472035185376 24.5006173562500287 O
atom 1.9001103352952742 6.8758426883950730 26.4007408199999958 O
atom -0.0000003744943847 5.3005806933950836 26.4007408640428061 O
atom 7.6004429996649714 7.7358763780247095 32.1011110277927756 O
atom -0.0000007205436169 9.3111150633950679 26.4007407937500247 O
atom 7.6004434369747536 2.0052757880247274 32.1011110624999958 O
atom 1.9001109071851641 0.4300127335185536 24.5006173365428097 O
atom 1.9001106513445167 2.8653081883950864 26.4007406902927784 O
atom 1.9001097949622157 14.6116929083950531 26.4007407701464274 Ti
atom 7.6004422591209764 17.0469963133950415 26.4007406738963795 Ti
atom -0.0000007333583831 9.7411267485185231 24.5006173426464322 Ti
atom 1.9001099408002768 12.1764313630246956 32.1011110463963689 Ti
atom 1.9001098177769786 14.1816812635185059 24.5006173612500255 O
atom 1.9001095719364032 16.6169757783950409 26.4007406449999955 O
atom -0.0000011278532363 15.0417135233950567 26.4007406390428052 O
atom 7.6004422463061587 17.4770086880246787 32.1011110227927787 O
atom -0.0000014639024304 19.0522473933950387 26.4007407887500243 O
atom 7.6004426836157508 11.7464105880246983 32.1011110574999918 O
atom 1.9001101438261734 10.1711473835185231 24.5006173215428049 O
atom 1.9001099279855913 12.6064419883950585 26.4007407152927804 O
atom 5.7003323783211242 4.8705594683950855 26.4007408051464303 Ti
atom 3.8002212024797823 7.3058639533950700 26.4007407388963742 Ti
atom 3.8002203032828437 19.4822586885184919 24.5006173476464326 Ti
atom 5.7003325141592747 2.4352967430247272 32.1011110213963775 Ti
atom 5.7003324111359346 4.4405471935185412 24.5006173462500279 O
atom 5.7003321452952846 6.8758426783950739 26.4007408100000021 O
atom 3.8002214355056276 5.3005806733950829 26.4007408640428061 O
atom 3.8002211996649611 7.7358763880247103 32.1011110277927756 O
atom 3.8002211094563938 9.3111150533950688 26.4007407937500247 O
atom 3.8002216269747415 2.0052758080247282 32.1011110624999958 O
atom 5.7003327171851748 0.4300127235185535 24.5006173265428124 O
atom 5.7003325313445270 2.8653081783950918 26.4007406902927784 O
atom 5.7003316049622210 14.6116929883950508 26.4007407701464274 Ti
atom 3.8002204291209680 17.0469963033950407 26.4007406738963795 Ti
atom 3.8002210866416264 9.7411267485185249 24.5006173426464322 Ti
atom 5.7003317508002835 12.1764313930246963 32.1011110163963735 Ti
atom 5.7003316077769846 14.1816813235185037 24.5006173812500272 O
atom 5.7003313919364080 16.6169758383950494 26.4007406449999955 O
atom 3.8002206621467725 15.0417135333950505 26.4007406390428052 O
atom 3.8002204063061495 17.4770086880246787 32.1011110227927787 O
atom 3.8002203360975790 19.0522474033950431 26.4007407987500251 O
atom 3.8002208736157419 11.7464105880246947 32.1011110574999918 O
atom 5.7003319638261161 10.1711482930247055 32.1011110515428015 O
atom 5.7003317179855939 12.6064420783950517 26.4007407052927796 O
atom 1.9001105383210810 4.8705599181481762 30.2009876551464274 Ti
atom 7.6004430224797597 7.3058644131481643 30.2009875788963740 Ti
atom -0.0000014967171981 19.4822591082715881 28.3008642076464270 Ti
atom 1.9001106841592996 2.4352962832716343 28.3008641313963807 Ti
atom 1.9001105411358947 4.4405475932716287 28.3008642362500211 O
atom 1.9001103352952409 6.8758431381481655 30.2009875299999990 O
atom -0.0000003744944183 5.3005811431481753 30.2009875540428041 O
atom 7.6004429896649999 7.7358759982716165 28.3008641477927725 O
atom -0.0000007005436497 9.3111155031481623 30.2009876837500286 O
atom 7.6004434369747917 2.0052752982716355 28.3008641425000036 O
atom 1.9001109071851328 0.4300131532716456 28.3008641665428087 O
atom 1.9001106413444850 2.8653086181481782 30.2009875802927752 O
atom 1.9001097849621817 14.6116933681481456 30.2009877101464355 Ti
atom -0.0000013308790769 17.0469967631481332 30.2009876238963670 Ti
atom -0.0000007533584190 9.7411272282716119 28.3008642226464247 Ti
atom 1.9001099308003080 12.1764309432716011 28.3008641463963713 Ti
atom 1.9001098177769391 14.1816817932715953 28.3008642612500267 O
atom 1.9001095719363641 16.6169762981481313 30.2009876849999941 O
atom -0.0000011678532699 15.0417139731481395 30.2009877990428066 O
atom 7.6004422463061987 17.4770081582715875 28.3008641427927756 O
atom -0.0000014339024648 19.0522478531481347 30.2009876587500301 O
atom 7.6004426736157820 11.7464101882716037 28.3008641874999967 O
atom 1.9001101338261355 10.1711478832716153 28.3008642015428080 O
atom 1.9001099279855524 12.6064425081481488 30.2009875852927792 O
atom 5.7003323683210914 4.8705599181481771 30.2009876451464265 Ti
atom 3.8002212024797482 7.3058644131481625 30.2009875688963660 Ti
atom 3.8002203032828108 19.4822591182715854 28.3008642076464270 Ti
atom 5.7003325141593102 2.4352962732716352 28.3008641213963728 Ti
atom 5.7003324111359062 4.4405475832716332 28.3008642262500274 O
atom 5.7003321452952500 6.8758431381481655 30.2009875199999982 O
atom 3.8002214355055934 5.3005811231481763 30.2009875540428041 O
atom 3.8002211996649895 7.7358759982716183 28.3008641477927796 O
atom 3.8002210894563602 9.3111155031481569 30.2009876737500278 O
atom 3.8002216269747784 2.0052753182716354 28.3008641425000036 O
atom 5.7003327171851437 0.4300131432716456 28.3008641865428103 O
atom 5.7003325213444942 2.8653086181481835 30.2009875802927752 O
atom 5.7003315949621873 14.6116934381481425 30.2009877101464355 Ti
atom 3.8002203991209331 17.0469967631481296 30.2009876138963733 Ti
atom 3.8002210766415923 9.7411272282716155 28.3008642226464247 Ti
atom 5.7003317408003147 12.1764309832715991 28.3008641563963721 Ti
atom 5.7003316077769446 14.1816818432715994 28.3008642312500243 O
atom 5.7003313919363778 16.6169762381481334 30.2009876849999941 O
atom 3.8002206721467400 15.0417139831481457 30.2009877990428066 O
atom 3.8002204163061886 17.4770081682715883 28.3008641427927756 O
atom 3.8002203060975446 19.0522478631481285 30.2009876687500309 O
atom 3.8002208636157722 11.7464101782716028 28.3008641874999967 O
atom 5.7003319538261463 10.1711478832716153 28.3008642215428026 O
atom 5.7003317079855638 12.6064424781481481 30.2009875852927792 O
atom -0.0000014967172340 19.4822595880246787 32.1011110976464309 Ti
atom 1.9001105411358572 4.4405481030247209 32.1011111162500242 O
atom 1.9001109071850970 0.4300136330247377 32.1011110965428088 O
atom -0.0000007333584503 9.7411276480247064 32.1011111026464278 Ti
atom 1.9001098177769113 14.1816821630246910 32.1011111212500211 O
atom 1.9001101438261057 10.1711482830247046 32.1011110815427969 O
atom 3.8002203032827757 19.4822595880246752 32.1011111076464317 Ti
atom 5.7003324111358671 4.4405480930247254 32.1011111062500234 O
atom 5.7003327171851081 0.4300136230247376 32.1011110865428080 O
atom 3.8002210866415593 9.7411276480247082 32.1011111026464278 Ti
atom 5.7003316077769179 14.1816822230246888 32.1011111412500227 O
