#===============================================================================
# Created using the Atomic Simulation Environment (ASE)

# Mon Mar 23 14:01:33 2026

#=======================================================
lattice_vector 11.0253972427838800 0.0000000000000000 0.0000000000000000 
lattice_vector 3.2078926060844428 10.5484209638685815 0.0000000000000000 
lattice_vector 0.0000000000000000 0.0000000000000000 38.8149553769801656 
atom 12.1778002393201419 9.0250929211425159 15.0000146844921289 Ti
atom 7.8175045723620435 5.7936400136093091 16.1018803697662491 Ti
atom 2.3464471937033853 7.4139019061406488 15.0000000163259770 O
atom 7.7758635088264461 0.0878629909922771 15.0000294022161675 O
atom 10.6154951062533218 7.8672820065371649 15.2445537414029673 O
atom 9.0115488200520630 2.5930714842763232 15.2445537319081765 O
atom 10.5738539446983992 3.7508823486348972 15.0000146417654676 Ti
atom 6.2135582777403062 0.5194295467167691 16.1018803840084814 Ti
atom 0.7425008990816518 2.1396914040430821 15.0000000115785781 O
atom 9.3798098034481843 5.3620734402823027 15.0000293784791197 O
atom 5.1027964848613854 7.8672820153384198 15.2445537461503804 O
atom 6.6651015842462717 9.0250929401868252 15.0000146702498611 Ti
atom 2.3048059870195985 5.7936400139221131 16.1018803691863361 Ti
atom 7.8591457928603417 7.4139019072646288 15.0000000142422216 O
atom 2.2631648874345096 0.0878630085947901 15.0000294117109831 O
atom 5.0611552896245300 3.7508823676792042 15.0000146275231998 Ti
atom 0.7008596870038317 0.5194295430320269 16.1018803908396535 Ti
atom 6.2551994898181187 2.1396913989265678 15.0000000000000000 O
atom 3.8671112012647795 5.3620734545178923 15.0000293731517829 O
atom 3.4988501986601213 2.5930715018788364 15.2445537414029886 O
atom 8.9699076332356995 6.6477024654527535 19.4074776671267166 Ti
atom 4.6096119662776065 3.4162495579195462 20.5093433524008404 Ti
atom 10.1639518304028247 5.0365114504508854 19.4074629989605683 O
atom 7.7758635088264505 8.2588934991710961 19.4074923848507623 O
atom 9.0115488032111006 6.6785867786922823 17.4482852327202664 O
atom 10.5322128222194316 7.8055134038961036 19.1629386502789316 O
atom 10.5738539416719384 7.8363976972951805 17.2037461683983395 Ti
atom 6.2135582747138471 4.6049447809607154 18.3056118489250572 Ti
atom 11.7678981334450441 6.2252066782957662 17.2037315076432691 O
atom 9.3798098118686699 9.4475887358172326 17.2037608982808727 O
atom 7.4076025001688803 5.4898915508474024 19.6520167240375585 O
atom 12.1361591252616527 8.9942086317409853 16.9592071589616360 O
atom 8.9699076470501975 2.5621871335888176 17.2037461304190877 Ti
atom 7.8175045807825327 9.8791552739392117 18.3056118705783710 Ti
atom 10.1639518388233032 0.9509961761982004 17.2037315028958702 O
atom 7.7758635142204726 4.1733782138742050 17.2037608671327504 O
atom 5.8036562139676242 0.2156810285865595 19.6520167145427678 O
atom 10.5322128390603922 3.7199981006788865 16.9592071447194321 O
atom 7.3659613386139577 1.3734918929451347 19.4074776244000518 Ti
atom 6.2135582777403080 8.6904600548955866 20.5093433666430727 Ti
atom 11.7678981418655333 10.3107219122219007 19.4074629942131693 O
atom 6.1719171973637490 2.9846829845925402 19.4074923611137109 O
atom 7.4076025170098454 1.4043762652326974 17.4482852279728746 O
atom 8.9282665360181710 2.5313028728340052 19.1629386360367278 O
atom 5.0611552727835676 7.8363977149027058 17.2037461568197401 Ti
atom 11.7262569351817341 4.6049447923177249 18.3056118699984580 Ti
atom 6.2551994898181231 6.2252066794197463 17.2037315055595172 O
atom 3.8671111958707560 9.4475887486160364 17.2037608956171972 O
atom 1.8949038787769446 5.4898915596486582 19.6520167287849716 O
atom 6.6234604786082674 8.9942086394232721 16.9592071447193788 O
atom 3.4572089781618298 6.6477024844970600 19.4074776528844524 Ti
atom 10.1223106237190379 3.4162495582323520 20.5093433518209238 Ti
atom 4.6512531867758966 5.0365114515748646 19.4074629968768129 O
atom 13.2885621302183914 8.2588935167736075 19.4074923943455744 O
atom 3.4988501818191606 6.6785867874935390 17.4482852374676725 O
atom 5.0195141755660471 7.8055134203796488 19.1629386407840840 O
atom 1.8532626835400940 1.3734919119894409 19.4074776101577910 Ti
atom 11.7262569297877164 8.6904600512108452 20.5093433734742447 Ti
atom 6.2551994898181178 10.3107219071053855 19.4074629826345912 O
atom 11.6846158379642127 2.9846829988281294 19.4074923557863741 O
atom 1.8949038956179007 1.4043762740339552 17.4482852327202842 O
atom 3.4155678893647914 2.5313028893175504 19.1629386265418802 O
atom 3.4572089865823155 2.5621871486355805 17.2037461235879050 Ti
atom 13.3302032328299358 9.8791552790557269 18.3056118821569456 Ti
atom 4.6512531898023592 0.9509961645233768 17.2037315034757974 O
atom 2.2631648844080505 4.1733782252362275 17.2037608671327398 O
atom 0.2909575925756900 0.2156810461890742 19.6520167240375798 O
atom 5.0195141924070068 3.7199981171624317 16.9592071352245846 O
atom 5.7620150271512527 4.2703120097629919 23.8149406497613043 Ti
atom 6.9560592243183876 2.6591209947611230 23.8149259815951595 O
atom 4.5679709027420046 5.8815030434813336 23.8149553674853500 O
atom 5.8036561971266627 4.3011963230025199 21.8557482153548577 O
atom 7.3243202161349910 5.4281229482063402 23.5704016329135264 O
atom 7.3659613355875040 5.4590072416054189 21.6112091510329307 Ti
atom 3.0056656686294057 2.2275543252709542 22.7130748315596449 Ti
atom 8.5600055273606035 3.8478162226060042 21.6111944902778603 O
atom 6.1719172057842249 7.0701982801274701 21.6112238809154675 O
atom 8.9282665191772068 6.6168181760512228 21.3666701415962237 O
atom 5.7620150409657578 0.1847966778990548 21.6112091130536790 Ti
atom 4.6096119746980824 7.5017648182494518 22.7130748532129587 Ti
atom 10.1639518388233032 9.1220266843770190 21.6111944855304650 O
atom 4.5679709081360365 1.7959877581844412 21.6112238497673488 O
atom 7.3243202329759516 1.3426076449891244 21.3666701273540198 O
atom 7.3659613386139648 9.5445224011239524 23.8149406070346465 Ti
atom 8.5600055357810874 7.9333314565321400 23.8149259768477606 O
atom 2.9640245912793080 0.6072925289027785 23.8149553437482986 O
atom 7.4076025170098516 9.5754067734115171 21.8557482106074694 O
atom 5.7203739299337304 0.1539124171442419 23.5704016186713190 O
atom 1.8532626666991261 5.4590072592129424 21.6112091394543313 Ti
atom 8.5183643290972952 2.2275543366279607 22.7130748526330493 Ti
atom 3.0473068837336861 3.8478162237299829 21.6111944881941085 O
atom 11.6846158325701897 7.0701982929262730 21.6112238782517849 O
atom 3.4155678725238157 6.6168181837335105 21.3666701273539701 O
atom 11.2747136148612590 4.2703120288072984 23.8149406355190401 Ti
atom 1.4433605806914562 2.6591209958851039 23.8149259795114006 O
atom 10.0806695241339490 5.8815030610838450 23.8149553769801656 O
atom 11.3163548185185991 4.3011963318037782 21.8557482201022637 O
atom 1.8116215694816007 5.4281229646898872 23.5704016234186717 O
atom 12.8786599263239712 9.5445224201682599 23.8149405927923858 Ti
atom 3.0473068837336763 7.9333314514156239 23.8149259652691825 O
atom 8.4767232318797756 0.6072925431383657 23.8149553384209653 O
atom 12.9203011384017881 9.5754067822127755 21.8557482153548719 O
atom 0.2076752832803403 0.1539124336277889 23.5704016091764714 O
atom 0.2493163804978789 0.1847966929458179 21.6112091062224962 Ti
atom 10.1223106267454970 7.5017648233659626 22.7130748647915368 Ti
atom 4.6512531898023513 9.1220266727021979 21.6111944861103851 O
atom 10.0806695211074846 1.7959877695464654 21.6112238497673275 O
atom 1.8116215863225660 1.3426076614726701 21.3666701178591794 O
