#===============================================================================
# Created using the Atomic Simulation Environment (ASE)

# Mon Mar 23 14:01:33 2026

#=======================================================
lattice_vector 10.7486859018486420 0.0000000000000000 0.0000000000000000 
lattice_vector -10.7486177031074206 22.2506846489501129 0.0000000000000000 
lattice_vector 0.0000000000000000 0.0000000000000000 41.3487239388541283 
atom 0.0000866334408092 19.2842177009268738 15.9686868163345252 Ti
atom 5.3743784052569818 2.5962049604900503 15.9686863783555211 Ti
atom 1.3436635907472954 18.2586506934888426 15.0000005688823794 O
atom 0.0000692565800835 15.4773048615867239 15.0000060538052509 O
atom 0.0000863044974509 21.0399766650302951 15.0000056737948189 O
atom 5.3743954461035521 8.1588754520545077 15.9686867463579123 Ti
atom 0.0000695572390351 13.7215458857441348 15.9686871543665809 Ti
atom 6.7179722761303129 7.1333089172357571 15.0000000927889250 O
atom 5.3743780975270381 4.3519636157836823 15.0000054627221893 O
atom 5.3743951454447414 9.9146341351072493 15.0000058396369873 O
atom 6.7179553272079531 1.5706380254550760 15.0000000344265167 O
atom 1.3436464438345270 12.6959793519845725 15.0000005648199046 O
atom 1.3436123479992625 1.5706380293033935 15.0000000000000000 O
atom -4.0306964717344220 12.6959793203771305 15.0000005903339755 O
atom -5.3742563599100102 19.2842176872635989 15.9686867915694926 Ti
atom 0.0000354543326111 2.5962049711699895 15.9686863563114976 Ti
atom -4.0306794945277638 18.2586506460997740 15.0000004415868347 O
atom -5.3742737014152722 15.4773048037119327 15.0000060938116100 O
atom -5.3742566817820503 21.0399767064528085 15.0000057074725106 O
atom 0.0000525446768264 8.1588753990871723 15.9686868159599840 Ti
atom -5.3742733936852822 13.7215458594767146 15.9686871688587466 Ti
atom 1.3436295302675894 7.1333090007072215 15.0000002647838535 O
atom 0.0000351607447944 4.3519636702426254 15.0000054165245214 O
atom 0.0000522086624676 9.9146340864206604 15.0000058341946740 O
atom -5.3742208631494837 21.8804129307335700 20.6743570641973520 Ti
atom 1.3436638348413028 16.5028635897618834 15.9686969296311592 Ti
atom 0.0000709086666886 5.1924001902967474 20.6743566262183442 Ti
atom 4.0308018583622953 1.1129486831235367 18.3215314948155310 Ti
atom -6.7178155087308475 21.6078742827687300 19.2902126278312380 O
atom 0.0000869553169065 17.5284306922163609 16.9373832457988129 O
atom -4.0306439058429984 20.8548459232955423 19.7056708167452044 O
atom -5.3742382400102082 18.0735000913934201 19.7056763016680740 O
atom 1.3436641213580458 14.7471047559363377 16.9373779356876888 O
atom 5.3743786988487221 0.8404178855814020 16.9373828120390577 O
atom 4.0308015859839017 2.8687356350184476 17.3528351693799223 O
atom 5.3743965110145782 1.3854872458868803 19.7056759216576438 O
atom 0.0000879495132578 10.7550706818612039 20.6743569942207337 Ti
atom 6.7179726333617138 5.3775222884406686 15.9686963207233728 Ti
atom -5.3742379393512572 16.3177411155508310 20.6743574022294041 Ti
atom -1.3435069896556353 12.2382900860986670 18.3215320395635111 Ti
atom -1.3435066819257011 10.4825315183630892 19.2902129068896286 O
atom 5.3743956831264583 6.4030887019756175 16.9373829200691439 O
atom 1.3436647795400189 9.7295041470424550 19.7056703406517464 O
atom 0.0000706009367427 6.9481588455903802 19.7056757105850124 O
atom 6.7179729552339582 3.6217634960375311 16.9373773604573827 O
atom 0.0000698366885946 11.9657591085328932 16.9373834238056347 O
atom -1.3435072761762965 13.9940769824753559 17.3528356963030923 O
atom 0.0000876488544517 12.5108293649139473 19.7056760874998105 O
atom -2.6870671360675167 20.5823153192460921 18.3215219464572883 Ti
atom -1.3434899134538465 17.8009612134210364 18.3215320487318500 Ti
atom 2.6872246711039693 3.8943025753933784 18.3215215022868918 Ti
atom -4.0306621105920657 22.0655357327578017 15.9686963784360181 Ti
atom -4.0306618099330658 20.3097766937004423 16.9373775300256995 O
atom -2.6870668000493310 18.8265283124596898 19.2902183587082305 O
atom -1.3434901575478566 19.5567483259038077 17.3528356831523460 O
atom -2.6870844987861049 16.7754024711501124 17.3528411887586955 O
atom -1.3434896410791906 16.0452023864271816 19.2902130671709955 O
atom 2.6872249505535826 2.1385154829731357 19.2902179456319125 O
atom 1.3436478306176600 4.1668332552617686 19.7056702822893399 O
atom 8.0615502098124043 0.0873896636502576 17.3528408362346802 O
atom 2.6872416978084135 9.4569729969114142 18.3215219089350931 Ti
atom 4.0308188992086489 6.6756199052681255 18.3215314274414425 Ti
atom -2.6870841981271556 15.0196435040633283 18.3215222844893049 Ti
atom 1.3436467374262484 10.9401924346804194 15.9686969115504613 Ti
atom 1.3436470946537231 9.1844338509248669 16.9373778119424614 O
atom 2.6872419277602768 7.7011862677599732 19.2902180791761957 O
atom 4.0308185419772560 8.4314065165516077 17.3528352091684361 O
atom 2.6872243704450218 5.6500612204394889 17.3528405680796745 O
atom 4.0308192210809421 4.9198611021850533 19.2902124892194777 O
atom -2.6870839116065528 13.2638567234362448 19.2902185477370480 O
atom -4.0306610527557645 15.2921745817912704 19.7056708126827260 O
atom 2.6872414042206052 11.2127316609608307 17.3528409884710015 O
atom -8.0614100869919785 20.5823152987510802 18.3215219093095527 Ti
atom -6.7178328997335752 17.8009611944177770 18.3215320349888060 Ti
atom 8.0615676008150601 3.8943025982449870 18.3215214816034973 Ti
atom -9.4050050544453914 22.0655357312660882 15.9686963550314101 Ti
atom -9.4050047113600321 20.3097767204002224 16.9373774749155004 O
atom -8.0614098641111092 18.8265282490506785 19.2902182644786535 O
atom -6.7178332428229046 19.5567482434915121 17.3528355751796859 O
atom -8.0614274355683246 16.7754024117835847 17.3528412053604022 O
atom -6.7178325849324212 16.0452023898430092 19.2902130733622670 O
atom 8.0615678731935265 2.1385155218446688 19.2902178918825129 O
atom 6.7179907532576104 4.1668332591100858 19.7056702478628196 O
atom 2.6872073225275361 0.0873896484951222 17.3528407880647464 O
atom -2.6871012036183224 9.4569730752811605 18.3215219060763488 Ti
atom -1.3435240375732544 6.6756199375023364 18.3215315065675917 Ti
atom 2.6872587740103033 15.0196434675483736 18.3215222804075388 Ti
atom -4.0306961993559378 10.9401924346804034 15.9686969115504169 Ti
atom -4.0306958704126847 9.1844338402449495 16.9373778339865240 O
atom -2.6871009029555437 7.7011863102415301 19.2902181768759036 O
atom -1.3435241968144245 8.4314066141188349 17.3528353653106144 O
atom -2.6871186016924415 5.6500613007334781 17.3528405480078298 O
atom -1.3435237722697386 4.9198611090167930 19.2902125016021770 O
atom 2.6872590534599072 13.2638566796571968 19.2902185718906125 O
atom 1.3436819335239236 15.2921745501838267 19.7056708381967951 O
atom -2.6871015608458095 11.2127316853041297 17.3528409911921813 O
atom 0.0001220453483359 21.8804129170702950 20.6743570394323157 Ti
atom -4.0306791514384734 16.5028635726827559 15.9686968986748159 Ti
atom 5.3744138595909536 5.1924002009766870 20.6743566041743208 Ti
atom 9.4051447810023419 1.1129487093909967 18.3215314803234506 Ti
atom -1.3434726073038912 21.6078743611386237 19.2902126249727814 O
atom -5.3742561228870560 17.5284306307315063 16.9373831343559758 O
atom -9.4049869911180597 20.8548458759064701 19.7056706894496543 O
atom 0.0001047038430776 18.0735000335186307 19.7056763416744332 O
atom -4.0306788295662770 14.7471047646921427 16.9373779308569681 O
atom 0.0000357196400351 0.8404178894297095 16.9373827776125410 O
atom -1.3435413861537040 2.8687356597941940 17.3528351314832250 O
atom 0.0000535247350754 1.3854872873093920 19.7056759553353338 O
atom 5.3744309499351788 10.7550706288938702 20.6743570638228036 Ti
atom 1.3436297602191591 5.3775222918563905 15.9686963269144329 Ti
atom 0.0001050115730658 16.3177410892834125 20.6743574167215698 Ti
atom 4.0308359612686511 12.2382900179763539 18.3215320609959846 Ti
atom 4.0308362760696310 10.4825313942900955 19.2902129511151159 O
atom 0.0000528382685512 6.4030887512888635 16.9373830301514730 O
atom -4.0306779663227026 9.7295042305139177 19.7056705126466767 O
atom 5.3744135660031427 6.9481589000493216 19.7056756643873427 O
atom 1.3436300325938144 3.6217634648625361 16.9373773453535819 O
atom -5.3742731000935873 11.9657590735096537 16.9373834431284784 O
atom -6.7178502129584325 13.9940769455279739 17.3528357328392389 O
atom -5.3742552879278245 12.5108293162273583 19.7056760820575008 O
atom 0.0000893433676442 2.2259235115901554 25.3800273120601716 Ti
atom -4.0306436617489911 19.0990588195685795 20.6743671774939841 Ti
atom 5.3744493139250382 7.7885954201034444 25.3800268740811674 Ti
atom -1.3435056382279948 3.7091439129302390 23.0272017426783542 Ti
atom 9.4051805996349245 1.9533848636253137 23.9958828756940576 O
atom -5.3742205412733846 20.1246259220230606 21.6430534936616326 O
atom 1.3436663006741298 1.2003565041521260 24.4113410646080276 O
atom 0.0001401652481388 20.6696953212001162 24.4113465495308972 O
atom -4.0306433752322457 17.3432999857430374 21.6430481835505120 O
atom 0.0000712022584303 3.4366131153880994 21.6430530599018844 O
atom -1.3435059106064007 5.4649308648251402 22.0585054172427419 O
atom 0.0000890144242855 3.9816824756935780 24.4113461695204634 O
atom -5.3742195470770344 13.3512659116679018 25.3800272420835569 Ti
atom 1.3436651367714203 7.9737175182473656 20.6743665685861941 Ti
atom 0.0001404659070880 18.9139363453575307 25.3800276500922273 Ti
atom -6.7178144862459250 14.8344853159053649 23.0272022874263342 Ti
atom 4.0308717233326474 13.0787267481697871 23.9958831547524518 O
atom 0.0000881865361660 8.9992839317823154 21.6430531679319671 O
atom -4.0306427170502754 12.3256993768491530 24.4113405885145696 O
atom 5.3744490061950936 9.5443540753970773 24.4113459584478356 O
atom 1.3436654586436643 6.2179587258442286 21.6430476083202059 O
atom -5.3742376599016985 14.5619543383395946 21.6430536716684614 O
atom -6.7178147727665927 16.5902722122820521 22.0585059441659155 O
atom -5.3742198477358434 15.1070245947206434 24.4113463353626301 O
atom 2.6872430704496102 0.9278259001026794 23.0271921943201150 Ti
atom -6.7177974100441409 20.3971564432277361 23.0272022965946697 Ti
atom -2.6870828254863279 6.4904978052000759 23.0271917501497150 Ti
atom 1.3436480959250576 2.4110463136143867 20.6743666262988377 Ti
atom 1.3436483965840615 0.6552872745570296 21.6430477778885226 O
atom -8.0613742966396220 21.4227235422663895 23.9958886065710537 O
atom -6.7177976541381499 22.1529435557105039 22.0585059310151692 O
atom -8.0613919953763968 19.3715977009568086 22.0585114366215223 O
atom -6.7177971376694821 18.6413976162338813 23.9958833150338222 O
atom 8.0616033558119291 4.7347107127798331 23.9958881934947357 O
atom 6.7180262358760086 6.7630284850684710 24.4113405301521667 O
atom 2.6872427132221155 2.6835848934569602 22.0585110840975034 O
atom -2.6870657987818802 12.0531682267181139 23.0271921567979163 Ti
atom -1.3434885973816391 9.2718151350748244 23.0272016753042692 Ti
atom -8.0613916947174484 17.6158387338700244 23.0271925323521245 Ti
atom -4.0306607591640473 13.5363876644871155 20.6743671594132827 Ti
atom -4.0306604019365748 11.7806290807315666 21.6430480598052846 O
atom -2.6870655688300200 10.2973814975666702 23.9958883270390189 O
atom -1.3434889546130400 11.0276017463583056 22.0585054570312593 O
atom -2.6870831261452666 8.2462564502461877 22.0585108159424976 O
atom -1.3434882755093565 7.5160563319917504 23.9958827370822974 O
atom 2.6872944936517964 15.8600519532429409 23.9958887955998676 O
atom 1.3437173525025854 17.8883698115979684 24.4113410605455528 O
atom -2.6870660923696894 13.8089268907675287 22.0585112363338247 O
atom 8.0615860213737953 0.9278258796076657 23.0271921571723759 Ti
atom -1.3434544944752267 20.3971564242244767 23.0272022828516292 Ti
atom 2.6872601042247668 6.4904978280516845 23.0271917294663240 Ti
atom 6.7179910539203780 2.4110463121226724 20.6743666028942314 Ti
atom 6.7179913970057354 0.6552873012568060 21.6430477227783200 O
atom -2.6870314588527608 21.4227234788573782 23.9958885123414802 O
atom -1.3434548375645556 22.1529434732982118 22.0585058230425126 O
atom -2.6870490303099777 19.3715976415902809 22.0585114532232254 O
atom -1.3434541796740753 18.6413976196497053 23.9958833212250937 O
atom 2.6872603766032399 4.7347107516513667 23.9958881397453325 O
atom 1.3436832566673154 6.7630284889167891 24.4113404957256463 O
atom 8.0615857277858858 2.6835848783018199 22.0585110359275696 O
atom 2.6872772016400241 12.0531683050878566 23.0271921539391684 Ti
atom 4.0308543676850981 9.2718151673090343 23.0272017544304184 Ti
atom -2.6870487225799913 17.6158386973550698 23.0271925282703620 Ti
atom 1.3436822059024076 13.5363876644871013 20.6743671594132437 Ti
atom 1.3436825348456631 11.7806290700516456 21.6430480818493471 O
atom 2.6872775023028108 10.2973815400482280 23.9958884247387267 O
atom 4.0308542084439258 11.0276018439255328 22.0585056131734376 O
atom 2.6872598035659090 8.2462565305401743 22.0585107958706530 O
atom 4.0308546329886088 7.5160563388234900 23.9958827494649967 O
atom -2.6870484431303825 15.8600519094638912 23.9958888197534357 O
atom -4.0306255630663692 17.8883697799905264 24.4113410860596218 O
atom 2.6872768444125397 13.8089269151108276 22.0585112390550080 O
atom 5.3744322518654659 2.2259234979268823 25.3800272872951389 Ti
atom 1.3436992538198733 19.0990588024894521 20.6743671465376408 Ti
atom 0.0001063630006643 7.7885954307833840 25.3800268520371404 Ti
atom 4.0308372844120450 3.7091439391976944 23.0272017281862738 Ti
atom 4.0308375992132381 1.9533849419952047 23.9958828728356082 O
atom 0.0001222823712926 20.1246258605382060 21.6430533822187954 O
atom 6.7180091172477168 1.2003564567630549 24.4113409373124810 O
atom -5.3742027927472114 20.6696952633253268 24.4113465895372563 O
atom 1.3436995756920744 17.3432999944988424 21.6430481787197913 O
atom 5.3744141248983830 3.4366131192364073 21.6430530254753677 O
atom 4.0308370191046459 5.4649308896008915 22.0585053793460446 O
atom 5.3744319299934249 3.9816825171160897 24.4113462031981534 O
atom 0.0001234533448886 13.3512658587005664 25.3800273116856303 Ti
atom 6.7180081654775057 7.9737175216630876 20.6743665747772560 Ti
atom -5.3742024850172259 18.9139363190901122 25.3800276645843930 Ti
atom -1.3434715353216373 14.8344852477830500 23.0272023088588114 Ti
atom -1.3434712205206663 13.0787266240967934 23.9958831989779355 O
atom 5.3744312435269048 8.9992839810955587 21.6430532780142997 O
atom 1.3437004389356435 12.3256994603206138 24.4113407605094999 O
atom 0.0001060694128522 9.5443541298560213 24.4113459122501659 O
atom 6.7180084378521618 6.2179586946692327 21.6430475932164086 O
atom 0.0001053051647622 14.5619543033163517 21.6430536909913016 O
atom -1.3434718077000851 16.5902721753346718 22.0585059807020656 O
atom 0.0001231173305217 15.1070245460340544 24.4113463299203204 O
atom -9.4049511583392817 21.6952540493752792 25.3800374253568108 Ti
atom 0.0000896652437434 0.4701365028796460 26.3487237415244593 O
atom -9.4049508718225390 19.9394952155497336 26.3487184314133351 O
atom 5.3744496075167802 6.0328083451947974 26.3487233077647076 O
atom -4.0306423598188772 10.5699127480540636 25.3800368164490173 Ti
atom -5.3742193100541265 11.5954791615890134 26.3487234157947938 O
atom -4.0306420379466212 8.8141539556509265 26.3487178561830326 O
atom 0.0001407453566476 17.1581495681462890 26.3487239195312810 O
atom 6.7180265011834122 5.0072415434210846 25.3800368741616644 Ti
atom 6.7180268018424165 3.2514825043637274 26.3487180257513458 O
atom 1.3437176460943052 16.1325828942938152 25.3800374072761059 Ti
atom 1.3437180033217819 14.3768243105382609 26.3487183076681113 O
atom 1.3436835573300834 5.0072415419293650 25.3800368507570582 Ti
atom 1.3436839004154451 3.2514825310635036 26.3487179706411467 O
atom -4.0306252906878788 16.1325828942937974 25.3800374072760704 Ti
atom -4.0306249617446328 14.3768242998583471 26.3487183297121703 O
atom -4.0306082427704206 21.6952540322961518 25.3800373944004605 Ti
atom 5.3744324888884218 0.4701364413947879 26.3487236300816257 O
atom -4.0306079208982171 19.9394952243055386 26.3487184265826144 O
atom 0.0001066283080949 6.0328083490430995 26.3487232733381909 O
atom 1.3437006688872120 10.5699127514697864 25.3800368226400792 Ti
atom 0.0001237469366096 11.5954792109022566 26.3487235258771193 O
atom 1.3437009412618690 8.8141539244759315 26.3487178410792282 O
atom -5.3742021914255345 17.1581495331230478 26.3487239388541283 O
