#===============================================================================
# Created using the Atomic Simulation Environment (ASE)

# Mon Mar 23 14:01:31 2026

#=======================================================
lattice_vector 7.6004937600000506 0.0000000000000000 0.0000000000000000 
lattice_vector -0.0000000000000672 7.6004436200000214 0.0000000000000000 
lattice_vector 0.0000000000000000 0.0000000000000000 43.0364617649998777 
atom 0.0000069470833561 7.6004390698474333 15.4300115200000008 Ti
atom 1.9001303472957958 7.6004391026621860 15.0000000000000000 O
atom 0.0000069570833897 3.8002172498474218 15.4300115199999865 Ti
atom 1.9001303572958310 3.8002172826621741 15.0000000100000008 O
atom 3.8002538170833775 7.6004390698474342 15.4300114899999983 Ti
atom 5.7003772172958209 7.6004391326621850 15.0000000100000008 O
atom 3.8002538170834117 3.8002172498474227 15.4300114999999920 Ti
atom 5.7003772272958564 3.8002172526621734 15.0000000199999945 O
atom 1.9001310010072452 1.9001059681678978 20.3005791549999444 Ti
atom 1.9001312129715018 7.6004384323265759 22.7358836499999271 Ti
atom 0.0000071590476857 1.9001061040060985 17.8653157649999699 Ti
atom 0.0000074912195991 1.9001059609826905 19.8705671149999432 O
atom 1.9001312431828492 1.9001057551420582 22.3058623749999256 O
atom 1.9001311007958919 7.6004386653524199 20.7306003799999345 O
atom 0.0000077927590865 7.6004384195118062 23.1658953899999247 O
atom 1.9001315051433874 7.6004383193031879 24.7411347499998797 O
atom 0.0000071492589678 7.6004388568215884 17.4352947999999799 O
atom 0.0000069968720915 1.9001063270319303 15.8600326449999969 O
atom 1.9001306388353387 1.9001060711913003 18.2953278749999768 O
atom 0.0000081049309926 7.6004383064884049 25.1711466599998985 Ti
atom 0.0000083368952598 1.9001053606471108 27.6064503749998735 Ti
atom 0.0000082971065656 7.6004381034625865 27.1764295999998708 O
atom 0.0000081347196713 1.9001055636729396 25.6011672949999038 O
atom 1.9001318166828196 1.9001053478323746 28.0364616749998916 O
atom 1.9001309910072113 5.7003277981679084 20.3005791549999444 Ti
atom 1.9001312129715340 3.8002166223265657 22.7358836399999475 Ti
atom 0.0000071590476504 5.7003279340061104 17.8653157549999833 Ti
atom 0.0000074812195643 5.7003278309827028 19.8705671049999566 O
atom 1.9001312331828144 5.7003275651420688 22.3058623649999177 O
atom 1.9001311007959227 3.8002168553524101 20.7306003599999329 O
atom 0.0000077927591218 3.8002166195117946 23.1658953999999326 O
atom 1.9001315051434196 3.8002165293031767 24.7411347399999002 O
atom 0.0000071492590047 3.8002170468215755 17.4352948199999744 O
atom 0.0000069868720568 5.7003281370319412 15.8600326349999960 O
atom 1.9001306388353039 5.7003279511913121 18.2953278649999831 O
atom 0.0000081049310262 3.8002165064883928 25.1711466599998985 Ti
atom 0.0000083068952297 5.7003271706471184 27.6064504049998689 Ti
atom 0.0000082971065992 3.8002162934625754 27.1764295999998708 O
atom 0.0000081047196386 5.7003273836729491 25.6011673049998834 O
atom 1.9001318066827968 5.7003271378323781 28.0364617649998777 O
atom 5.7003778410072705 1.9001059581678976 20.3005791549999444 Ti
atom 5.7003780529715273 7.6004384423265767 22.7358836499999271 Ti
atom 3.8002540290477076 1.9001061040060998 17.8653157449999824 Ti
atom 3.8002543712196184 1.9001059609826951 19.8705670549999454 O
atom 5.7003779531828744 1.9001057551420582 22.3058623749999256 O
atom 5.7003777907959163 7.6004386653524199 20.7306003799999630 O
atom 3.8002546727591211 7.6004384095118001 23.1658954599999234 O
atom 5.7003783951434110 7.6004383393031887 24.7411347399999002 O
atom 3.8002539892589882 7.6004388568215902 17.4352947599999837 O
atom 3.8002538268721140 1.9001063270319327 15.8600326150000015 O
atom 5.7003775288353618 1.9001060611913017 18.2953278549999752 O
atom 3.8002549849310219 7.6004382864884024 25.1711466899998939 Ti
atom 3.8002551968952885 1.9001053506471088 27.6064504049998689 Ti
atom 3.8002551871065959 7.6004380934625821 27.1764296499998821 O
atom 3.8002550147197023 1.9001055536729359 25.6011673449998867 O
atom 5.7003786866828534 1.9001053478323695 28.0364617449998619 O
atom 5.7003778310072377 5.7003277881679084 20.3005791549999444 Ti
atom 5.7003780429715603 3.8002166223265652 22.7358836499999555 Ti
atom 3.8002540190476726 5.7003279340061104 17.8653157349999745 Ti
atom 3.8002543612195825 5.7003278309827063 19.8705670449999445 O
atom 5.7003779431828416 5.7003275651420680 22.3058623749999256 O
atom 5.7003777907959474 3.8002168553524101 20.7306003599999613 O
atom 3.8002546727591544 3.8002166195117906 23.1658954599999234 O
atom 5.7003783851434449 3.8002165093031772 24.7411347399999002 O
atom 3.8002539892590232 3.8002170468215790 17.4352947799999853 O
atom 3.8002538468720779 5.7003281370319439 15.8600326050000007 O
atom 5.7003775288353289 5.7003279411913130 18.2953278549999823 O
atom 3.8002549849310552 3.8002164964883911 25.1711466899998939 Ti
atom 3.8002552068952595 5.7003271606471166 27.6064504449998722 Ti
atom 3.8002551871066284 3.8002162834625719 27.1764296399998742 O
atom 3.8002550347196689 5.7003273736729465 25.6011673449998867 O
atom 5.7003786866828179 5.7003271278323826 28.0364617149998665 O
