#===============================================================================
# Created using the Atomic Simulation Environment (ASE)

# Mon Mar 23 14:01:33 2026

#=======================================================
lattice_vector 11.0253972427838800 0.0000000000000000 0.0000000000000000 
lattice_vector 3.2078926060844428 10.5484209638685815 0.0000000000000000 
lattice_vector 0.0000000000000000 0.0000000000000000 32.2037608914497042 
atom 5.7620150271512527 4.2703120097629919 17.2037461642308394 Ti
atom 6.9560592243183876 2.6591209947611230 17.2037314960646945 O
atom 4.5679709027420046 5.8815030434813336 17.2037608819548851 O
atom 5.8036561971266627 4.3011963230025199 15.2445537298243927 O
atom 7.3243202161349910 5.4281229482063402 16.9592071473830615 O
atom 7.3659613355875040 5.4590072416054189 15.0000146655024658 Ti
atom 3.0056656686294057 2.2275543252709542 16.1018803460291799 Ti
atom 8.5600055273606035 3.8478162226060042 15.0000000047473954 O
atom 6.1719172057842249 7.0701982801274701 15.0000293953850026 O
atom 5.7620150409657578 0.1847966778990548 15.0000146275232140 Ti
atom 4.6096119746980824 7.5017648182494518 16.1018803676824938 Ti
atom 10.1639518388233032 9.1220266843770190 15.0000000000000000 O
atom 4.5679709081360365 1.7959877581844412 15.0000293642368838 O
atom 7.3659613386139648 9.5445224011239524 17.2037461215041816 Ti
atom 8.5600055357810874 7.9333314565321400 17.2037314913172956 O
atom 2.9640245912793080 0.6072925289027785 17.2037608582178336 O
atom 7.4076025170098516 9.5754067734115171 15.2445537250770045 O
atom 5.7203739299337304 0.1539124171442419 16.9592071331408540 O
atom 1.8532626666991261 5.4590072592129424 15.0000146539238663 Ti
atom 8.5183643290972952 2.2275543366279607 16.1018803671025843 Ti
atom 3.0473068837336861 3.8478162237299829 15.0000000026636435 O
atom 11.6846158325701897 7.0701982929262730 15.0000293927213200 O
atom 11.2747136148612590 4.2703120288072984 17.2037461499885751 Ti
atom 1.4433605806914562 2.6591209958851039 17.2037314939809356 O
atom 10.0806695241339490 5.8815030610838450 17.2037608914497007 O
atom 11.3163548185185991 4.3011963318037782 15.2445537345717987 O
atom 1.8116215694816007 5.4281229646898872 16.9592071378882068 O
atom 12.8786599263239712 9.5445224201682599 17.2037461072619209 Ti
atom 3.0473068837336763 7.9333314514156239 17.2037314797387175 O
atom 8.4767232318797756 0.6072925431383657 17.2037608528905004 O
atom 12.9203011384017881 9.5754067822127755 15.2445537298244069 O
atom 0.2076752832803403 0.1539124336277889 16.9592071236460065 O
atom 0.2493163804978789 0.1847966929458179 15.0000146206920313 Ti
atom 10.1223106267454970 7.5017648233659626 16.1018803792610719 Ti
atom 4.6512531898023513 9.1220266727021979 15.0000000005799201 O
atom 10.0806695211074846 1.7959877695464654 15.0000293642368625 O
