#===============================================================================
# Created using the Atomic Simulation Environment (ASE)

# Mon Mar 23 14:01:36 2026

#=======================================================
lattice_vector 13.1294540471338479 0.0000000000000000 0.0000000000000000 
lattice_vector 0.0000000000000000 5.9471245399999999 0.0000000000000000 
lattice_vector 0.0000000000000000 0.0000000000000000 39.1186297269027534 
atom 13.1294254446646512 5.9471245299999991 16.2769512350030752 Ti
atom 13.1294254517357256 2.9735622699999995 16.2769512279320168 Ti
atom 3.2823349694182991 4.4603434099999992 16.2769512738940136 Ti
atom 5.2877471048218094 4.4603434099999992 16.2769294868257433 O
atom 3.2823158468236353 0.0000000000000000 15.0000000000000000 O
atom 3.2823349764893717 1.4867811300000000 16.2769512668229552 Ti
atom 5.2877471048218094 1.4867811400000002 16.2769294868257433 O
atom 3.2823158397525622 2.9735622699999995 15.0000000070710584 O
atom 9.8470618798481109 4.4603433999999993 16.2769513021781620 Ti
atom 11.8524740930334023 4.4603433999999993 16.2769294797546351 O
atom 9.8470428208930638 0.0000000000000000 15.0000000212131468 O
atom 9.8470618869191693 1.4867811300000000 16.2769513092492417 Ti
atom 11.8524740930334023 1.4867811300000000 16.2769294797546351 O
atom 9.8470428208930638 2.9735622699999995 15.0000000212131468 O
atom 6.5646984352398139 0.0000000000000000 16.2769512774294967 Ti
atom 6.5646984352398139 2.9735622699999995 16.2769512774294967 Ti
atom 13.1294182852083896 4.4603433999999993 19.5593148422381589 Ti
atom 6.5646841233986137 5.9471245299999991 22.8416782585544311 Ti
atom 2.0053764229755782 4.4603434099999992 19.5592930056724583 O
atom 11.1240061285915299 4.4603433999999993 19.5593367636566953 O
atom 13.1293991908980416 0.0000000000000000 18.2823635259177664 O
atom 13.1294373936607940 0.0000000000000000 20.8362662292692455 O
atom 13.1294182852083896 1.4867811400000002 19.5593148422381589 Ti
atom 6.5646841304696899 2.9735622699999995 22.8416782514833727 Ti
atom 2.0053764229755782 1.4867811400000002 19.5592930056724583 O
atom 11.1240061215204538 1.4867811300000000 19.5593367707277572 O
atom 13.1293991908980416 2.9735622699999995 18.2823635259177664 O
atom 13.1294373936607940 2.9735622699999995 20.8362662292692455 O
atom 9.8470476952861077 4.4603434099999992 22.8416782974453660 Ti
atom 9.8470547840316183 5.9471245299999991 19.5593147609208877 Ti
atom 11.8524598306896198 4.4603434099999992 22.8416565103770921 O
atom 1.2769227703749997 4.4603434099999992 16.2769732235967837 O
atom 9.8470285726914462 0.0000000000000000 21.5647270235513560 O
atom 3.2823540566574589 0.0000000000000000 17.5539026962804172 O
atom 9.8470477023571821 1.4867811300000000 22.8416782903743076 Ti
atom 9.8470547769605421 2.9735622600000000 19.5593147679919497 Ti
atom 11.8524598306896198 1.4867811400000002 22.8416565103770921 O
atom 1.2769227633039415 1.4867811300000000 16.2769732165257111 O
atom 9.8470285656203735 2.9735622699999995 21.5647270306224144 O
atom 3.2823540566574589 2.9735622699999995 17.5539026962804172 O
atom 3.2823205585820738 4.4603433999999993 22.8416783257295180 Ti
atom 3.2823277816778713 0.0000000099999998 19.5593147821341162 Ti
atom 5.2877327717673674 4.4603433999999993 22.8416565033059875 O
atom 7.8416497515154751 4.4603434099999992 16.2769732660231448 O
atom 3.2823014996270241 0.0000000000000000 21.5647270447645063 O
atom 9.8470810095137082 0.0000000000000000 17.5539026962803462 O
atom 3.2823205656531291 1.4867811300000000 22.8416783328005906 Ti
atom 3.2823277816778886 2.9735622800000003 19.5593147679919781 Ti
atom 5.2877327717673674 1.4867811300000000 22.8416565033059875 O
atom 7.8416497515154751 1.4867811300000000 16.2769732660231448 O
atom 3.2823014996270241 2.9735622699999995 21.5647270447645063 O
atom 9.8470810024426321 2.9735622699999995 17.5539027033514046 O
atom 6.5646913040679626 4.4603433999999993 19.5593147573853869 Ti
atom 13.1294111611076243 0.0000000000000000 22.8416783009808526 Ti
atom 8.5701034536136103 4.4603433999999993 19.5592929703171308 O
atom 4.5592791262378292 4.4603434199999983 19.5593367424435201 O
atom 6.5646721956153922 0.0000000000000000 18.2823635259177983 O
atom 6.5647103913071083 0.0000000000000000 20.8362661939139286 O
atom 6.5646912969968874 1.4867811300000000 19.5593147644564489 Ti
atom 13.1294111611076243 2.9735622699999995 22.8416783009808526 Ti
atom 8.5701034606846740 1.4867811199999996 19.5592929773882069 O
atom 4.5592791191667654 1.4867811400000002 19.5593367353724439 O
atom 6.5646721956153922 2.9735622699999995 18.2823635259177983 O
atom 6.5647103913071083 2.9735622699999995 20.8362661939139286 O
atom 7.8416354962428079 4.4603434099999992 22.8417002471481361 O
atom 9.8470667825252676 0.0000000000000000 24.1186297198317696 O
atom 7.8416354891717495 1.4867811300000000 22.8417002400770599 O
atom 9.8470667825252676 2.9735622699999995 24.1186297198317696 O
atom 1.2769084302494325 4.4603434099999992 22.8417002895744936 O
atom 3.2823396882476650 0.0000000000000000 24.1186297198316915 O
atom 1.2769084302494325 1.4867811300000000 22.8417002895744936 O
atom 3.2823396811765919 2.9735622699999995 24.1186297269027534 O
