#===============================================================================
# Created using the Atomic Simulation Environment (ASE)

# Mon Mar 23 14:01:32 2026

#=======================================================
lattice_vector 7.6004436200000214 0.0000000000000000 0.0000000000000000 
lattice_vector -0.0000015267178117 19.4822670799999393 0.0000000000000000 
lattice_vector 0.0000000000000000 0.0000000000000000 45.2009876448536474 
atom 1.9001106841593989 2.4352949540123570 15.0000000050000004 Ti
atom 7.6004429996651064 7.7358745790123411 15.0000000113964020 O
atom 7.6004434369748894 2.0052739890123594 15.0000000461036223 O
atom 1.9001099408004110 12.1764295640123255 15.0000000300000025 Ti
atom 7.6004422463062946 17.4770068890123120 15.0000000063964052 O
atom 7.6004426836158858 11.7464087890123299 15.0000000411036183 O
atom 5.7003325141594097 2.4352949440123588 15.0000000050000004 Ti
atom 3.8002211996650952 7.7358745890123428 15.0000000113964020 O
atom 3.8002216269748765 2.0052740090123597 15.0000000461036223 O
atom 5.7003317508004185 12.1764295940123262 15.0000000000000000 Ti
atom 3.8002204063062837 17.4770068890123120 15.0000000063964052 O
atom 3.8002208736158760 11.7464087890123299 15.0000000411036254 O
atom 5.7003319638262493 10.1711464940123388 15.0000000351464280 O
atom 1.9001105483211815 4.8705585688889013 16.9001235587500531 Ti
atom 7.6004430124798601 7.3058630638888866 16.9001234824999997 Ti
atom -0.0000014967170997 19.4822577890123085 15.0000000812500573 Ti
atom 1.9001106841593318 2.4352958535185412 22.6004937649999995 Ti
atom 1.9001105411359911 4.4405463040123534 15.0000000998536507 O
atom 1.9001103352953415 6.8758417888888896 16.9001235636036213 O
atom -0.0000003744943175 5.3005797938888985 16.9001236076464316 O
atom 7.6004429996650380 7.7358754785185262 22.6004937713964011 O
atom -0.0000007205435498 9.3111141638888846 16.9001235373536467 O
atom 7.6004434369748219 2.0052748885185436 22.6004938061036249 O
atom 1.9001109071852311 0.4300118340123696 15.0000000801464353 O
atom 1.9001106513445838 2.8653072888889017 16.9001234338964039 O
atom 1.9001097949622834 14.6116920088888715 16.9001235137500565 Ti
atom 7.6004422591210439 17.0469954138888546 16.9001234175000050 Ti
atom -0.0000007333583159 9.7411258490123398 15.0000000862500507 Ti
atom 1.9001099408003439 12.1764304635185105 22.6004937899999945 Ti
atom 1.9001098177770457 14.1816803640123243 15.0000001048536511 O
atom 1.9001095719364700 16.6169748788888576 16.9001233886036211 O
atom -0.0000011278531692 15.0417126238888716 16.9001233826464343 O
atom 7.6004422463062262 17.4770077885184953 22.6004937663964043 O
atom -0.0000014639023633 19.0522464938888518 16.9001235323536534 O
atom 7.6004426836158183 11.7464096885185132 22.6004938011036174 O
atom 1.9001101438262404 10.1711464840123380 15.0000000651464305 O
atom 1.9001099279856581 12.6064410888888734 16.9001234588964024 O
atom 5.7003323783211917 4.8705585688889013 16.9001235487500523 Ti
atom 3.8002212024798503 7.3058630538888867 16.9001234824999997 Ti
atom 3.8002203032829098 19.4822577890123050 15.0000000912500582 Ti
atom 5.7003325141593413 2.4352958435185426 22.6004937650000031 Ti
atom 5.7003324111360012 4.4405462940123570 15.0000000898536534 O
atom 5.7003321452953513 6.8758417788888906 16.9001235536036205 O
atom 3.8002214355056947 5.3005797738888996 16.9001236076464316 O
atom 3.8002211996650281 7.7358754885185261 22.6004937713964011 O
atom 3.8002211094564609 9.3111141538888855 16.9001235373536502 O
atom 3.8002216269748090 2.0052749085185440 22.6004938061036214 O
atom 5.7003327171852423 0.4300118240123694 15.0000000701464344 O
atom 5.7003325313445945 2.8653072788889076 16.9001234338964039 O
atom 5.7003316049622867 14.6116920888888675 16.9001235137500565 Ti
atom 3.8002204291210346 17.0469954038888574 16.9001234175000050 Ti
atom 3.8002210866416930 9.7411258490123398 15.0000000862500542 Ti
atom 5.7003317508003510 12.1764304935185130 22.6004937599999991 Ti
atom 5.7003316077770529 14.1816804240123204 15.0000001248536492 O
atom 5.7003313919364746 16.6169749388888626 16.9001233886036211 O
atom 3.8002206621468408 15.0417126338888654 16.9001233826464343 O
atom 3.8002204063062170 17.4770077885184953 22.6004937663964043 O
atom 3.8002203360976465 19.0522465038888598 16.9001235423536542 O
atom 3.8002208736158094 11.7464096885185132 22.6004938011036174 O
atom 5.7003319638261827 10.1711473935185239 22.6004937951464271 O
atom 5.7003317179856614 12.6064411788888702 16.9001234488964016 O
atom 1.9001105383211483 4.8705590186419920 20.7003703987500565 Ti
atom 7.6004430224798263 7.3058635136419801 20.7003703224999995 Ti
atom -0.0000014967171310 19.4822582087654048 18.8002469512500561 Ti
atom 1.9001106841593667 2.4352953837654501 18.8002468750000027 Ti
atom 1.9001105411359622 4.4405466937654445 18.8002469798536538 O
atom 1.9001103352953084 6.8758422386419804 20.7003702736036210 O
atom -0.0000003744943511 5.3005802436419911 20.7003702976464261 O
atom 7.6004429896650674 7.7358750987654323 18.8002468913964016 O
atom -0.0000007005435826 9.3111146036419772 20.7003704273536471 O
atom 7.6004434369748584 2.0052743987654518 18.8002468861036220 O
atom 1.9001109071851996 0.4300122537654615 18.8002469101464342 O
atom 1.9001106413445521 2.8653077186419940 20.7003703238964007 O
atom 1.9001097849622486 14.6116924686419605 20.7003704537500504 Ti
atom -0.0000013308790097 17.0469958636419463 20.7003703674999997 Ti
atom -0.0000007533583518 9.7411263287654268 18.8002469662500502 Ti
atom 1.9001099308003753 12.1764300437654178 18.8002468900000004 Ti
atom 1.9001098177770062 14.1816808937654137 18.8002470048536487 O
atom 1.9001095719364314 16.6169753986419444 20.7003704286036196 O
atom -0.0000011678532028 15.0417130736419562 20.7003705426464322 O
atom 7.6004422463062671 17.4770072587654006 18.8002468863964083 O
atom -0.0000014339023976 19.0522469536419479 20.7003704023536486 O
atom 7.6004426736158495 11.7464092887654186 18.8002469311036222 O
atom 1.9001101338262028 10.1711469837654302 18.8002469451464300 O
atom 1.9001099279856193 12.6064416086419673 20.7003703288964047 O
atom 5.7003323683211597 4.8705590186419929 20.7003703887500521 Ti
atom 3.8002212024798152 7.3058635136419801 20.7003703124999987 Ti
atom 3.8002203032828787 19.4822582187653985 18.8002469512500561 Ti
atom 5.7003325141593777 2.4352953737654506 18.8002468650000019 Ti
atom 5.7003324111359737 4.4405466837654490 18.8002469698536494 O
atom 5.7003321452953175 6.8758422386419804 20.7003702636036202 O
atom 3.8002214355056605 5.3005802236419921 20.7003702976464297 O
atom 3.8002211996650570 7.7358750987654332 18.8002468913964016 O
atom 3.8002210894564277 9.3111146036419754 20.7003704173536498 O
atom 3.8002216269748459 2.0052744187654516 18.8002468861036220 O
atom 5.7003327171852112 0.4300122437654616 18.8002469301464323 O
atom 5.7003325213445617 2.8653077186419993 20.7003703238964007 O
atom 5.7003315949622531 14.6116925386419609 20.7003704537500504 Ti
atom 3.8002203991210002 17.0469958636419463 20.7003703574999989 Ti
atom 3.8002210766416584 9.7411263287654322 18.8002469662500502 Ti
atom 5.7003317408003822 12.1764300837654176 18.8002469000000012 Ti
atom 5.7003316077770130 14.1816809437654143 18.8002469748536534 O
atom 5.7003313919364453 16.6169753386419501 20.7003704286036196 O
atom 3.8002206721468070 15.0417130836419641 20.7003705426464322 O
atom 3.8002204163062561 17.4770072687654050 18.8002468863964012 O
atom 3.8002203060976121 19.0522469636419416 20.7003704123536529 O
atom 3.8002208636158392 11.7464092787654213 18.8002469311036187 O
atom 5.7003319538262138 10.1711469837654302 18.8002469651464317 O
atom 5.7003317079856304 12.6064415786419630 20.7003703288964047 O
atom 1.9001105483211140 4.8705594683950837 24.5006173187500522 Ti
atom 7.6004430124797935 7.3058639633950717 24.5006172425000024 Ti
atom -0.0000014967171668 19.4822586885184954 22.6004938412500529 Ti
atom 1.9001106841592645 2.4352967530247258 30.2009875250000022 Ti
atom 1.9001105411359240 4.4405472035185376 22.6004938598536533 O
atom 1.9001103352952742 6.8758426883950730 24.5006173236036204 O
atom -0.0000003744943847 5.3005806933950836 24.5006173676464307 O
atom 7.6004429996649714 7.7358763780247095 30.2009875313964002 O
atom -0.0000007205436169 9.3111150633950679 24.5006172973536493 O
atom 7.6004434369747536 2.0052757880247274 30.2009875661036205 O
atom 1.9001109071851641 0.4300127335185536 22.6004938401464344 O
atom 1.9001106513445167 2.8653081883950864 24.5006171938964030 O
atom 1.9001097949622157 14.6116929083950531 24.5006172737500520 Ti
atom 7.6004422591209764 17.0469963133950415 24.5006171775000041 Ti
atom -0.0000007333583831 9.7411267485185231 22.6004938462500569 Ti
atom 1.9001099408002768 12.1764313630246956 30.2009875499999936 Ti
atom 1.9001098177769786 14.1816812635185059 22.6004938648536502 O
atom 1.9001095719364032 16.6169757783950409 24.5006171486036202 O
atom -0.0000011278532363 15.0417135233950567 24.5006171426464299 O
atom 7.6004422463061587 17.4770086880246787 30.2009875263964034 O
atom -0.0000014639024304 19.0522473933950387 24.5006172923536489 O
atom 7.6004426836157508 11.7464105880246983 30.2009875611036165 O
atom 1.9001101438261734 10.1711473835185231 22.6004938251464296 O
atom 1.9001099279855913 12.6064419883950585 24.5006172188964051 O
atom 5.7003323783211242 4.8705594683950855 24.5006173087500549 Ti
atom 3.8002212024797823 7.3058639533950700 24.5006172424999988 Ti
atom 3.8002203032828437 19.4822586885184919 22.6004938512500573 Ti
atom 5.7003325141592747 2.4352967430247272 30.2009875250000022 Ti
atom 5.7003324111359346 4.4405471935185412 22.6004938498536525 O
atom 5.7003321452952846 6.8758426783950739 24.5006173136036267 O
atom 3.8002214355056276 5.3005806733950829 24.5006173676464307 O
atom 3.8002211996649611 7.7358763880247103 30.2009875313964002 O
atom 3.8002211094563938 9.3111150533950688 24.5006172973536493 O
atom 3.8002216269747415 2.0052758080247282 30.2009875661036205 O
atom 5.7003327171851748 0.4300127235185535 22.6004938301464371 O
atom 5.7003325313445270 2.8653081783950918 24.5006171938964030 O
atom 5.7003316049622210 14.6116929883950508 24.5006172737500520 Ti
atom 3.8002204291209680 17.0469963033950407 24.5006171775000041 Ti
atom 3.8002210866416264 9.7411267485185249 22.6004938462500569 Ti
atom 5.7003317508002835 12.1764313930246963 30.2009875199999982 Ti
atom 5.7003316077769846 14.1816813235185037 22.6004938848536518 O
atom 5.7003313919364080 16.6169758383950494 24.5006171486036202 O
atom 3.8002206621467725 15.0417135333950505 24.5006171426464299 O
atom 3.8002204063061495 17.4770086880246787 30.2009875263964034 O
atom 3.8002203360975790 19.0522474033950431 24.5006173023536498 O
atom 3.8002208736157419 11.7464105880246947 30.2009875611036165 O
atom 5.7003319638261161 10.1711482930247055 30.2009875551464262 O
atom 5.7003317179855939 12.6064420783950517 24.5006172088964043 O
atom 1.9001105383210810 4.8705599181481762 28.3008641587500520 Ti
atom 7.6004430224797597 7.3058644131481643 28.3008640824999986 Ti
atom -0.0000014967171981 19.4822591082715881 26.4007407112500516 Ti
atom 1.9001106841592996 2.4352962832716343 26.4007406350000053 Ti
atom 1.9001105411358947 4.4405475932716287 26.4007407398536458 O
atom 1.9001103352952409 6.8758431381481655 28.3008640336036237 O
atom -0.0000003744944183 5.3005811431481753 28.3008640576464288 O
atom 7.6004429896649999 7.7358759982716165 26.4007406513963971 O
atom -0.0000007005436497 9.3111155031481623 28.3008641873536533 O
atom 7.6004434369747917 2.0052752982716355 26.4007406461036283 O
atom 1.9001109071851328 0.4300131532716456 26.4007406701464333 O
atom 1.9001106413444850 2.8653086181481782 28.3008640838963998 O
atom 1.9001097849621817 14.6116933681481456 28.3008642137500601 Ti
atom -0.0000013308790769 17.0469967631481332 28.3008641274999917 Ti
atom -0.0000007533584190 9.7411272282716119 26.4007407262500493 Ti
atom 1.9001099308003080 12.1764309432716011 26.4007406499999959 Ti
atom 1.9001098177769391 14.1816817932715953 26.4007407648536514 O
atom 1.9001095719363641 16.6169762981481313 28.3008641886036187 O
atom -0.0000011678532699 15.0417139731481395 28.3008643026464313 O
atom 7.6004422463061987 17.4770081582715875 26.4007406463964003 O
atom -0.0000014339024648 19.0522478531481347 28.3008641623536548 O
atom 7.6004426736157820 11.7464101882716037 26.4007406911036213 O
atom 1.9001101338261355 10.1711478832716153 26.4007407051464327 O
atom 1.9001099279855524 12.6064425081481488 28.3008640888964038 O
atom 5.7003323683210914 4.8705599181481771 28.3008641487500512 Ti
atom 3.8002212024797482 7.3058644131481625 28.3008640724999907 Ti
atom 3.8002203032828108 19.4822591182715854 26.4007407112500516 Ti
atom 5.7003325141593102 2.4352962732716352 26.4007406249999974 Ti
atom 5.7003324111359062 4.4405475832716332 26.4007407298536521 O
atom 5.7003321452952500 6.8758431381481655 28.3008640236036229 O
atom 3.8002214355055934 5.3005811231481763 28.3008640576464288 O
atom 3.8002211996649895 7.7358759982716183 26.4007406513964042 O
atom 3.8002210894563602 9.3111155031481569 28.3008641773536525 O
atom 3.8002216269747784 2.0052753182716354 26.4007406461036283 O
atom 5.7003327171851437 0.4300131432716456 26.4007406901464350 O
atom 5.7003325213444942 2.8653086181481835 28.3008640838963998 O
atom 5.7003315949621873 14.6116934381481425 28.3008642137500601 Ti
atom 3.8002203991209331 17.0469967631481296 28.3008641174999980 Ti
atom 3.8002210766415923 9.7411272282716155 26.4007407262500493 Ti
atom 5.7003317408003147 12.1764309832715991 26.4007406599999968 Ti
atom 5.7003316077769446 14.1816818432715994 26.4007407348536489 O
atom 5.7003313919363778 16.6169762381481334 28.3008641886036187 O
atom 3.8002206721467400 15.0417139831481457 28.3008643026464313 O
atom 3.8002204163061886 17.4770081682715883 26.4007406463964003 O
atom 3.8002203060975446 19.0522478631481285 28.3008641723536556 O
atom 3.8002208636157722 11.7464101782716028 26.4007406911036213 O
atom 5.7003319538261463 10.1711478832716153 26.4007407251464272 O
atom 5.7003317079855638 12.6064424781481481 28.3008640888964038 O
atom -0.0000014967172340 19.4822595880246787 30.2009876012500555 Ti
atom 1.9001105411358572 4.4405481030247209 30.2009876198536489 O
atom 1.9001109071850970 0.4300136330247377 30.2009876001464335 O
atom -0.0000007333584503 9.7411276480247064 30.2009876062500524 Ti
atom 1.9001098177769113 14.1816821630246910 30.2009876248536457 O
atom 1.9001101438261057 10.1711482830247046 30.2009875851464216 O
atom 3.8002203032827757 19.4822595880246752 30.2009876112500564 Ti
atom 5.7003324111358671 4.4405480930247254 30.2009876098536481 O
atom 5.7003327171851081 0.4300136230247376 30.2009875901464326 O
atom 3.8002210866415593 9.7411276480247082 30.2009876062500524 Ti
atom 5.7003316077769179 14.1816822230246888 30.2009876448536474 O
