#===============================================================================
# Created using the Atomic Simulation Environment (ASE)

# Mon Mar 23 14:01:33 2026

#=======================================================
lattice_vector 11.0253972427838800 0.0000000000000000 0.0000000000000000 
lattice_vector 3.2078926060844428 10.5484209638685815 0.0000000000000000 
lattice_vector 0.0000000000000000 0.0000000000000000 42.9778646277065803 
atom 11.0253971784464824 8.1710304692990725 15.8573266378580708 Ti
atom 13.8233877123377589 10.2446724622269283 15.0000000094947925 O
atom 12.2194414261365036 4.9704619399660857 15.0000000000000000 O
atom 9.4214508838247450 2.8968200024065309 15.8573266521003067 Ti
atom 8.3106890909458251 10.2446724710281831 15.0000000142422021 O
atom 5.5126985931040400 8.1710304696118765 15.8573266372781649 Ti
atom 3.9087522930882752 2.8968199987217891 15.8573266589314823 Ti
atom 6.7067428047445681 4.9704619575685998 15.0000000094948156 O
atom 12.1778002393201419 9.0250929211425159 19.1629239352185436 Ti
atom 7.8175045723620435 5.7936400136093091 20.2647896204926639 Ti
atom 2.3464471937033853 7.4139019061406488 19.1629092670523917 O
atom 7.7758635088264461 0.0878629909922771 19.1629386529425858 O
atom 12.2194414092955412 9.0559772343820448 17.2037315008120899 O
atom 13.7401054283038722 10.1829038595858670 18.9183849183707551 O
atom 13.7817465477563825 10.2137881529849430 16.9591924364901701 Ti
atom 9.4214508807982913 6.9823352366504796 18.0610581170168771 Ti
atom 3.9503934967456060 8.6025971339855296 16.9591777757350997 O
atom 9.3798098118686699 1.2765582276384149 16.9592071663726998 O
atom 10.6154951062533218 7.8672820065371649 19.4074629921293820 O
atom 1.1107618824777690 0.8231781235621668 16.7146534270534630 O
atom 12.1778002531346417 4.9395775892785805 16.9591923985109148 Ti
atom 7.8175045807825239 1.7081247657603935 18.0610581386701980 Ti
atom 2.3464472021238674 3.3283866318879629 16.9591777709877007 O
atom 10.9837561203049088 6.5507686695639675 16.9592071352245739 O
atom 9.0115488200520630 2.5930714842763232 19.4074629826345912 O
atom 2.7147082023609559 6.0973885563686494 16.7146534128112592 O
atom 10.5738539446983992 3.7508823486348972 19.1629238924918823 Ti
atom 6.2135582777403062 0.5194295467167691 20.2647896347348961 Ti
atom 0.7425008990816518 2.1396914040430821 19.1629092623049928 O
atom 9.3798098034481843 5.3620734402823027 19.1629386292055344 O
atom 10.6154951230942842 3.7817667209224601 17.2037314960647052 O
atom 12.1361591421026151 4.9086933285237677 18.9183849041285583 O
atom 8.2690478788680135 10.2137881705924691 16.9591924249115635 Ti
atom 3.9087522984823000 6.9823352480074874 18.0610581380902886 Ti
atom 9.4630920959025602 8.6025971351095087 16.9591777736513407 O
atom 3.8671111958707520 1.2765582404372164 16.9592071637090243 O
atom 5.1027964848613854 7.8672820153384198 19.4074629968767951 O
atom 6.6234604786082603 0.8231781312444548 16.7146534128112023 O
atom 6.6651015842462717 9.0250929401868252 19.1629239209762758 Ti
atom 2.3048059870195985 5.7936400139221131 20.2647896199127544 Ti
atom 7.8591457928603417 7.4139019072646288 19.1629092649686399 O
atom 2.2631648874345096 0.0878630085947901 19.1629386624373979 O
atom 6.7067427879036012 9.0559772431833014 17.2037315055594959 O
atom 8.2274067816504868 10.1829038760694122 18.9183849088759075 O
atom 5.0611552896245300 3.7508823676792042 19.1629238782496145 Ti
atom 0.7008596870038317 0.5194295430320269 20.2647896415660682 Ti
atom 6.2551994898181187 2.1396913989265678 19.1629092507264147 O
atom 3.8671112012647795 5.3620734545178923 19.1629386238781976 O
atom 5.1027965017023469 3.7817667297237176 17.2037315008121112 O
atom 6.6234604954492280 4.9086933450073138 18.9183848946337037 O
atom 6.6651015926667521 4.9395776043253434 16.9591923916797285 Ti
atom 2.3048059900460549 1.7081247708769083 18.0610581502487761 Ti
atom 7.8591457958868007 3.3283866202131400 16.9591777715676173 O
atom 5.4710574904924938 6.5507686809259900 16.9592071352245668 O
atom 3.4988501986601213 2.5930715018788364 19.4074629921294033 O
atom 8.2274067984914510 6.0973885728521955 16.7146534033164116 O
atom 8.9699076332356995 6.6477024654527535 23.5703869178531349 Ti
atom 4.6096119662776065 3.4162495579195462 24.6722526031272551 Ti
atom 10.1639518304028247 5.0365114504508854 23.5703722496869830 O
atom 7.7758635088264505 8.2588934991710961 23.5704016355771770 O
atom 9.0115488032111006 6.6785867786922823 21.6111944834466811 O
atom 10.5322128222194316 7.8055134038961036 23.3258479010053463 O
atom 10.5738539416719384 7.8363976972951805 21.3666554191247542 Ti
atom 6.2135582747138471 4.6049447809607154 22.4685210996514755 Ti
atom 11.7678981334450441 6.2252066782957662 21.3666407583696838 O
atom 9.3798098118686699 9.4475887358172326 21.3666701490072910 O
atom 7.4076025001688803 5.4898915508474024 23.8149259747639732 O
atom 12.1361591252616527 8.9942086317409853 21.1221164096880543 O
atom 8.9699076470501975 2.5621871335888176 21.3666553811455060 Ti
atom 7.8175045807825327 9.8791552739392117 22.4685211213047893 Ti
atom 10.1639518388233032 0.9509961761982004 21.3666407536222849 O
atom 7.7758635142204726 4.1733782138742050 21.3666701178591651 O
atom 5.8036562139676242 0.2156810285865595 23.8149259652691825 O
atom 10.5322128390603922 3.7199981006788865 21.1221163954458504 O
atom 7.3659613386139577 1.3734918929451347 23.5703868751264665 Ti
atom 6.2135582777403080 8.6904600548955866 24.6722526173694874 Ti
atom 11.7678981418655333 10.3107219122219007 23.5703722449395840 O
atom 6.1719171973637490 2.9846829845925402 23.5704016118401256 O
atom 7.4076025170098454 1.4043762652326974 21.6111944786992893 O
atom 8.9282665360181710 2.5313028728340052 23.3258478867631425 O
atom 5.0611552727835676 7.8363977149027058 21.3666554075461548 Ti
atom 11.7262569351817341 4.6049447923177249 22.4685211207248727 Ti
atom 6.2551994898181231 6.2252066794197463 21.3666407562859320 O
atom 3.8671111958707560 9.4475887486160364 21.3666701463436155 O
atom 1.8949038787769446 5.4898915596486582 23.8149259795113863 O
atom 6.6234604786082674 8.9942086394232721 21.1221163954457936 O
atom 3.4572089781618298 6.6477024844970600 23.5703869036108671 Ti
atom 10.1223106237190379 3.4162495582323520 24.6722526025473385 Ti
atom 4.6512531867758966 5.0365114515748646 23.5703722476032311 O
atom 13.2885621302183914 8.2588935167736075 23.5704016450719891 O
atom 3.4988501818191606 6.6785867874935390 21.6111944881940872 O
atom 5.0195141755660471 7.8055134203796488 23.3258478915104988 O
atom 1.8532626835400940 1.3734919119894409 23.5703868608842058 Ti
atom 11.7262569297877164 8.6904600512108452 24.6722526242006595 Ti
atom 6.2551994898181178 10.3107219071053855 23.5703722333610060 O
atom 11.6846158379642127 2.9846829988281294 23.5704016065127888 O
atom 1.8949038956179007 1.4043762740339552 21.6111944834467025 O
atom 3.4155678893647914 2.5313028893175504 23.3258478772682949 O
atom 3.4572089865823155 2.5621871486355805 21.3666553743143197 Ti
atom 13.3302032328299358 9.8791552790557269 22.4685211328833603 Ti
atom 4.6512531898023592 0.9509961645233768 21.3666407542022156 O
atom 2.2631648844080505 4.1733782252362275 21.3666701178591580 O
atom 0.2909575925756900 0.2156810461890742 23.8149259747639945 O
atom 5.0195141924070068 3.7199981171624317 21.1221163859510028 O
atom 5.7620150271512527 4.2703120097629919 27.9778499004877190 Ti
atom 6.9560592243183876 2.6591209947611230 27.9778352323215742 O
atom 4.5679709027420046 5.8815030434813336 27.9778646182117683 O
atom 5.8036561971266627 4.3011963230025199 26.0186574660812724 O
atom 7.3243202161349910 5.4281229482063402 27.7333108836399447 O
atom 7.3659613355875040 5.4590072416054189 25.7741184017593454 Ti
atom 3.0056656686294057 2.2275543252709542 26.8759840822860596 Ti
atom 8.5600055273606035 3.8478162226060042 25.7741037410042750 O
atom 6.1719172057842249 7.0701982801274701 25.7741331316418822 O
atom 8.9282665191772068 6.6168181760512228 25.5295793923226384 O
atom 5.7620150409657578 0.1847966778990548 25.7741183637800972 Ti
atom 4.6096119746980824 7.5017648182494518 26.8759841039393734 Ti
atom 10.1639518388233032 9.1220266843770190 25.7741037362568832 O
atom 4.5679709081360365 1.7959877581844412 25.7741331004937635 O
atom 7.3243202329759516 1.3426076449891244 25.5295793780804345 O
atom 7.3659613386139648 9.5445224011239524 27.9778498577610648 Ti
atom 8.5600055357810874 7.9333314565321400 27.9778352275741753 O
atom 2.9640245912793080 0.6072925289027785 27.9778645944747169 O
atom 7.4076025170098516 9.5754067734115171 26.0186574613338877 O
atom 5.7203739299337304 0.1539124171442419 27.7333108693977337 O
atom 1.8532626666991261 5.4590072592129424 25.7741183901807460 Ti
atom 8.5183643290972952 2.2275543366279607 26.8759841033594640 Ti
atom 3.0473068837336861 3.8478162237299829 25.7741037389205232 O
atom 11.6846158325701897 7.0701982929262730 25.7741331289781996 O
atom 3.4155678725238157 6.6168181837335105 25.5295793780803848 O
atom 11.2747136148612590 4.2703120288072984 27.9778498862454583 Ti
atom 1.4433605806914562 2.6591209958851039 27.9778352302378153 O
atom 10.0806695241339490 5.8815030610838450 27.9778646277065803 O
atom 11.3163548185185991 4.3011963318037782 26.0186574708286784 O
atom 1.8116215694816007 5.4281229646898872 27.7333108741450900 O
atom 12.8786599263239712 9.5445224201682599 27.9778498435188041 Ti
atom 3.0473068837336763 7.9333314514156239 27.9778352159955972 O
atom 8.4767232318797756 0.6072925431383657 27.9778645891473801 O
atom 12.9203011384017881 9.5754067822127755 26.0186574660812866 O
atom 0.2076752832803403 0.1539124336277889 27.7333108599028861 O
atom 0.2493163804978789 0.1847966929458179 25.7741183569489110 Ti
atom 10.1223106267454970 7.5017648233659626 26.8759841155179515 Ti
atom 4.6512531898023513 9.1220266727021979 25.7741037368367998 O
atom 10.0806695211074846 1.7959877695464654 25.7741331004937422 O
atom 1.8116215863225660 1.3426076614726701 25.5295793685855941 O
