#===============================================================================
# Created using the Atomic Simulation Environment (ASE)

# Mon Mar 23 14:01:32 2026

#=======================================================
lattice_vector 7.6004436200000214 0.0000000000000000 0.0000000000000000 
lattice_vector -0.0000015267178117 19.4822670799999393 0.0000000000000000 
lattice_vector 0.0000000000000000 0.0000000000000000 41.4007407798536491 
atom 1.9001106841593318 2.4352958535185412 18.8002468999999977 Ti
atom 7.6004429996650380 7.7358754785185262 18.8002469063963993 O
atom 7.6004434369748219 2.0052748885185436 18.8002469411036230 O
atom 1.9001099408003439 12.1764304635185105 18.8002469249999926 Ti
atom 7.6004422463062262 17.4770077885184953 18.8002469013964024 O
atom 7.6004426836158183 11.7464096885185132 18.8002469361036155 O
atom 5.7003325141593413 2.4352958435185426 18.8002469000000012 Ti
atom 3.8002211996650281 7.7358754885185261 18.8002469063963993 O
atom 3.8002216269748090 2.0052749085185440 18.8002469411036195 O
atom 5.7003317508003510 12.1764304935185130 18.8002468949999972 Ti
atom 3.8002204063062170 17.4770077885184953 18.8002469013964024 O
atom 3.8002208736158094 11.7464096885185132 18.8002469361036155 O
atom 5.7003319638261827 10.1711473935185239 18.8002469301464252 O
atom 1.9001105383211483 4.8705590186419920 16.9001235337500546 Ti
atom 7.6004430224798263 7.3058635136419801 16.9001234574999977 Ti
atom -0.0000014967171310 19.4822582087654048 15.0000000862500542 Ti
atom 1.9001106841593667 2.4352953837654501 15.0000000100000008 Ti
atom 1.9001105411359622 4.4405466937654445 15.0000001148536519 O
atom 1.9001103352953084 6.8758422386419804 16.9001234086036192 O
atom -0.0000003744943511 5.3005802436419911 16.9001234326464242 O
atom 7.6004429896650674 7.7358750987654323 15.0000000263963997 O
atom -0.0000007005435826 9.3111146036419772 16.9001235623536452 O
atom 7.6004434369748584 2.0052743987654518 15.0000000211036202 O
atom 1.9001109071851996 0.4300122537654615 15.0000000451464324 O
atom 1.9001106413445521 2.8653077186419940 16.9001234588963989 O
atom 1.9001097849622486 14.6116924686419605 16.9001235887500485 Ti
atom -0.0000013308790097 17.0469958636419463 16.9001235024999978 Ti
atom -0.0000007533583518 9.7411263287654268 15.0000001012500483 Ti
atom 1.9001099308003753 12.1764300437654178 15.0000000249999985 Ti
atom 1.9001098177770062 14.1816808937654137 15.0000001398536469 O
atom 1.9001095719364314 16.6169753986419444 16.9001235636036178 O
atom -0.0000011678532028 15.0417130736419562 16.9001236776464303 O
atom 7.6004422463062671 17.4770072587654006 15.0000000213964064 O
atom -0.0000014339023976 19.0522469536419479 16.9001235373536467 O
atom 7.6004426736158495 11.7464092887654186 15.0000000661036204 O
atom 1.9001101338262028 10.1711469837654302 15.0000000801464282 O
atom 1.9001099279856193 12.6064416086419673 16.9001234638964029 O
atom 5.7003323683211597 4.8705590186419929 16.9001235237500502 Ti
atom 3.8002212024798152 7.3058635136419801 16.9001234474999968 Ti
atom 3.8002203032828787 19.4822582187653985 15.0000000862500542 Ti
atom 5.7003325141593777 2.4352953737654506 15.0000000000000000 Ti
atom 5.7003324111359737 4.4405466837654490 15.0000001048536475 O
atom 5.7003321452953175 6.8758422386419804 16.9001233986036183 O
atom 3.8002214355056605 5.3005802236419921 16.9001234326464278 O
atom 3.8002211996650570 7.7358750987654332 15.0000000263963997 O
atom 3.8002210894564277 9.3111146036419754 16.9001235523536479 O
atom 3.8002216269748459 2.0052744187654516 15.0000000211036202 O
atom 5.7003327171852112 0.4300122437654616 15.0000000651464305 O
atom 5.7003325213445617 2.8653077186419993 16.9001234588963989 O
atom 5.7003315949622531 14.6116925386419609 16.9001235887500485 Ti
atom 3.8002203991210002 17.0469958636419463 16.9001234924999970 Ti
atom 3.8002210766416584 9.7411263287654322 15.0000001012500483 Ti
atom 5.7003317408003822 12.1764300837654176 15.0000000349999993 Ti
atom 5.7003316077770130 14.1816809437654143 15.0000001098536515 O
atom 5.7003313919364453 16.6169753386419501 16.9001235636036178 O
atom 3.8002206721468070 15.0417130836419641 16.9001236776464303 O
atom 3.8002204163062561 17.4770072687654050 15.0000000213963993 O
atom 3.8002203060976121 19.0522469636419416 16.9001235473536511 O
atom 3.8002208636158392 11.7464092787654213 15.0000000661036168 O
atom 5.7003319538262138 10.1711469837654302 15.0000001001464298 O
atom 5.7003317079856304 12.6064415786419630 16.9001234638964029 O
atom 1.9001105483211140 4.8705594683950837 20.7003704537500504 Ti
atom 7.6004430124797935 7.3058639633950717 20.7003703775000005 Ti
atom -0.0000014967171668 19.4822586885184954 18.8002469762500510 Ti
atom 1.9001106841592645 2.4352967530247258 26.4007406600000003 Ti
atom 1.9001105411359240 4.4405472035185376 18.8002469948536515 O
atom 1.9001103352952742 6.8758426883950730 20.7003704586036186 O
atom -0.0000003744943847 5.3005806933950836 20.7003705026464289 O
atom 7.6004429996649714 7.7358763780247095 26.4007406663963984 O
atom -0.0000007205436169 9.3111150633950679 20.7003704323536475 O
atom 7.6004434369747536 2.0052757880247274 26.4007407011036186 O
atom 1.9001109071851641 0.4300127335185536 18.8002469751464325 O
atom 1.9001106513445167 2.8653081883950864 20.7003703288964012 O
atom 1.9001097949622157 14.6116929083950531 20.7003704087500502 Ti
atom 7.6004422591209764 17.0469963133950415 20.7003703125000023 Ti
atom -0.0000007333583831 9.7411267485185231 18.8002469812500550 Ti
atom 1.9001099408002768 12.1764313630246956 26.4007406849999917 Ti
atom 1.9001098177769786 14.1816812635185059 18.8002469998536483 O
atom 1.9001095719364032 16.6169757783950409 20.7003702836036183 O
atom -0.0000011278532363 15.0417135233950567 20.7003702776464280 O
atom 7.6004422463061587 17.4770086880246787 26.4007406613964015 O
atom -0.0000014639024304 19.0522473933950387 20.7003704273536471 O
atom 7.6004426836157508 11.7464105880246983 26.4007406961036146 O
atom 1.9001101438261734 10.1711473835185231 18.8002469601464277 O
atom 1.9001099279855913 12.6064419883950585 20.7003703538964032 O
atom 5.7003323783211242 4.8705594683950855 20.7003704437500531 Ti
atom 3.8002212024797823 7.3058639533950700 20.7003703774999970 Ti
atom 3.8002203032828437 19.4822586885184919 18.8002469862500554 Ti
atom 5.7003325141592747 2.4352967430247272 26.4007406600000003 Ti
atom 5.7003324111359346 4.4405471935185412 18.8002469848536506 O
atom 5.7003321452952846 6.8758426783950739 20.7003704486036249 O
atom 3.8002214355056276 5.3005806733950829 20.7003705026464289 O
atom 3.8002211996649611 7.7358763880247103 26.4007406663963984 O
atom 3.8002211094563938 9.3111150533950688 20.7003704323536475 O
atom 3.8002216269747415 2.0052758080247282 26.4007407011036186 O
atom 5.7003327171851748 0.4300127235185535 18.8002469651464352 O
atom 5.7003325313445270 2.8653081783950918 20.7003703288964012 O
atom 5.7003316049622210 14.6116929883950508 20.7003704087500502 Ti
atom 3.8002204291209680 17.0469963033950407 20.7003703125000023 Ti
atom 3.8002210866416264 9.7411267485185249 18.8002469812500550 Ti
atom 5.7003317508002835 12.1764313930246963 26.4007406549999963 Ti
atom 5.7003316077769846 14.1816813235185037 18.8002470198536500 O
atom 5.7003313919364080 16.6169758383950494 20.7003702836036183 O
atom 3.8002206621467725 15.0417135333950505 20.7003702776464280 O
atom 3.8002204063061495 17.4770086880246787 26.4007406613964015 O
atom 3.8002203360975790 19.0522474033950431 20.7003704373536479 O
atom 3.8002208736157419 11.7464105880246947 26.4007406961036146 O
atom 5.7003319638261161 10.1711482930247055 26.4007406901464243 O
atom 5.7003317179855939 12.6064420783950517 20.7003703438964024 O
atom 1.9001105383210810 4.8705599181481762 24.5006172937500502 Ti
atom 7.6004430224797597 7.3058644131481643 24.5006172174999968 Ti
atom -0.0000014967171981 19.4822591082715881 22.6004938462500498 Ti
atom 1.9001106841592996 2.4352962832716343 22.6004937700000035 Ti
atom 1.9001105411358947 4.4405475932716287 22.6004938748536439 O
atom 1.9001103352952409 6.8758431381481655 24.5006171686036218 O
atom -0.0000003744944183 5.3005811431481753 24.5006171926464269 O
atom 7.6004429896649999 7.7358759982716165 22.6004937863963953 O
atom -0.0000007005436497 9.3111155031481623 24.5006173223536514 O
atom 7.6004434369747917 2.0052752982716355 22.6004937811036264 O
atom 1.9001109071851328 0.4300131532716456 22.6004938051464315 O
atom 1.9001106413444850 2.8653086181481782 24.5006172188963980 O
atom 1.9001097849621817 14.6116933681481456 24.5006173487500583 Ti
atom -0.0000013308790769 17.0469967631481332 24.5006172624999898 Ti
atom -0.0000007533584190 9.7411272282716119 22.6004938612500474 Ti
atom 1.9001099308003080 12.1764309432716011 22.6004937849999941 Ti
atom 1.9001098177769391 14.1816817932715953 22.6004938998536495 O
atom 1.9001095719363641 16.6169762981481313 24.5006173236036169 O
atom -0.0000011678532699 15.0417139731481395 24.5006174376464294 O
atom 7.6004422463061987 17.4770081582715875 22.6004937813963984 O
atom -0.0000014339024648 19.0522478531481347 24.5006172973536529 O
atom 7.6004426736157820 11.7464101882716037 22.6004938261036195 O
atom 1.9001101338261355 10.1711478832716153 22.6004938401464308 O
atom 1.9001099279855524 12.6064425081481488 24.5006172238964020 O
atom 5.7003323683210914 4.8705599181481771 24.5006172837500493 Ti
atom 3.8002212024797482 7.3058644131481625 24.5006172074999888 Ti
atom 3.8002203032828108 19.4822591182715854 22.6004938462500498 Ti
atom 5.7003325141593102 2.4352962732716352 22.6004937599999955 Ti
atom 5.7003324111359062 4.4405475832716332 22.6004938648536502 O
atom 5.7003321452952500 6.8758431381481655 24.5006171586036210 O
atom 3.8002214355055934 5.3005811231481763 24.5006171926464269 O
atom 3.8002211996649895 7.7358759982716183 22.6004937863964024 O
atom 3.8002210894563602 9.3111155031481569 24.5006173123536506 O
atom 3.8002216269747784 2.0052753182716354 22.6004937811036264 O
atom 5.7003327171851437 0.4300131432716456 22.6004938251464331 O
atom 5.7003325213444942 2.8653086181481835 24.5006172188963980 O
atom 5.7003315949621873 14.6116934381481425 24.5006173487500583 Ti
atom 3.8002203991209331 17.0469967631481296 24.5006172524999961 Ti
atom 3.8002210766415923 9.7411272282716155 22.6004938612500474 Ti
atom 5.7003317408003147 12.1764309832715991 22.6004937949999949 Ti
atom 5.7003316077769446 14.1816818432715994 22.6004938698536471 O
atom 5.7003313919363778 16.6169762381481334 24.5006173236036169 O
atom 3.8002206721467400 15.0417139831481457 24.5006174376464294 O
atom 3.8002204163061886 17.4770081682715883 22.6004937813963984 O
atom 3.8002203060975446 19.0522478631481285 24.5006173073536537 O
atom 3.8002208636157722 11.7464101782716028 22.6004938261036195 O
atom 5.7003319538261463 10.1711478832716153 22.6004938601464254 O
atom 5.7003317079855638 12.6064424781481481 24.5006172238964020 O
atom -0.0000014967172340 19.4822595880246787 26.4007407362500537 Ti
atom 1.9001105411358572 4.4405481030247209 26.4007407548536470 O
atom 1.9001109071850970 0.4300136330247377 26.4007407351464316 O
atom -0.0000007333584503 9.7411276480247064 26.4007407412500505 Ti
atom 1.9001098177769113 14.1816821630246910 26.4007407598536439 O
atom 1.9001101438261057 10.1711482830247046 26.4007407201464197 O
atom 3.8002203032827757 19.4822595880246752 26.4007407462500545 Ti
atom 5.7003324111358671 4.4405480930247254 26.4007407448536462 O
atom 5.7003327171851081 0.4300136230247376 26.4007407251464308 O
atom 3.8002210866415593 9.7411276480247082 26.4007407412500505 Ti
atom 5.7003316077769179 14.1816822230246888 26.4007407798536455 O
