#===============================================================================
# Created using the Atomic Simulation Environment (ASE)

# Mon Mar 23 14:01:31 2026

#=======================================================
lattice_vector 7.6004937600000506 0.0000000000000000 0.0000000000000000 
lattice_vector -0.0000000000000672 7.6004436200000214 0.0000000000000000 
lattice_vector 0.0000000000000000 0.0000000000000000 74.6951335599995758 
atom 1.9001266015816967 7.6004414857621994 15.4300212850000058 Ti
atom 0.0000046413884537 7.6004405965652442 27.6064162349998909 Ti
atom 1.9001266317930445 1.9001088085776814 15.0000000099999973 O
atom 0.0000031813692823 7.6004414729474306 15.8600330249999999 O
atom 1.9001268937535822 7.6004413727388105 17.4352723849999798 O
atom 1.9001274974648799 1.9001082682446226 22.7358502299999401 Ti
atom 1.9001276894290100 7.6004407324033840 25.1711536349999179 Ti
atom 0.0000034935411877 7.6004413599240284 17.8652842949999773 Ti
atom 0.0000037255054556 1.9001084140827340 20.3005880099999558 Ti
atom 0.0000040376773056 1.9001082910593681 22.3058388099999405 O
atom 1.9001276096404438 1.9001080452188095 24.7411330999999279 O
atom 1.9001274172534550 7.6004409654291916 23.1658708449999438 O
atom 0.0000043292165916 7.6004407195886170 25.6011653349999193 O
atom 1.9001280416008932 7.6004406293799978 27.1764047149998902 O
atom 0.0000036857167598 7.6004411568982091 19.8705672349999602 O
atom 0.0000035233298664 1.9001086171085633 18.2953049299999790 O
atom 1.9001272052930152 1.9001084012679978 20.7305993099999597 O
atom 1.9001266015817289 3.8002196757621887 15.4300212750000050 Ti
atom 0.0000046513884873 3.8002187765652327 27.6064162349998767 Ti
atom 1.9001266217930097 5.7003306185776923 15.0000000000000000 O
atom 0.0000031813693159 3.8002196729474185 15.8600330350000078 O
atom 1.9001268937536144 3.8002195827388001 17.4352723749999825 O
atom 1.9001274974648552 5.7003300782446269 22.7358503099999396 Ti
atom 1.9001276894290422 3.8002189024033743 25.1711536249999170 Ti
atom 0.0000034935412213 3.8002195599240163 17.8652842949999844 Ti
atom 0.0000036955054255 5.7003302240827427 20.3005880399999654 Ti
atom 0.0000040576772790 5.7003300810593736 22.3058388699999313 O
atom 1.9001276096404167 5.7003298652188157 24.7411331599999329 O
atom 1.9001274172534897 3.8002191354291797 23.1658708549999517 O
atom 0.0000043292166252 3.8002188795886069 25.6011653349999051 O
atom 1.9001280516009280 3.8002188093799862 27.1764047249998839 O
atom 0.0000036857167933 3.8002193468981984 19.8705672349999602 O
atom 0.0000034933298344 5.7003304371085726 18.2953049399999799 O
atom 1.9001271952929917 5.7003301912680016 20.7305993999999600 O
atom 5.7003734415817222 7.6004414957621993 15.4300212850000058 Ti
atom 3.8002515113884754 7.6004405965652468 27.6064162049998814 Ti
atom 5.7003733417930693 1.9001088085776814 15.0000000100000186 O
atom 3.8002500613693160 7.6004414629474244 15.8600330950000021 O
atom 5.7003737837536059 7.6004413927388121 17.4352723749999754 O
atom 5.7003744374649061 1.9001082582446223 22.7358502399999267 Ti
atom 5.7003746394290360 7.6004407624033847 25.1711536349999037 Ti
atom 3.8002503735412168 7.6004413399240258 17.8652843249999798 Ti
atom 3.8002505855054833 1.9001084040827321 20.3005880399999654 Ti
atom 3.8002509376773403 1.9001082910593625 22.3058388899999329 O
atom 5.7003746496404775 1.9001080452188042 24.7411331699999053 O
atom 5.7003745772534806 7.6004409254291918 23.1658708449999153 O
atom 3.8002512092166070 7.6004407195886232 25.6011652549999127 O
atom 5.7003749116009192 7.6004406593799967 27.1764047249998981 O
atom 3.8002505757167913 7.6004411468982056 19.8705672849999573 O
atom 3.8002504033298981 1.9001086071085591 18.2953049799999725 O
atom 5.7003740752930492 1.9001084012679927 20.7305993799999584 O
atom 5.7003734315817551 3.8002196757621878 15.4300212850000058 Ti
atom 3.8002515113885096 3.8002187765652349 27.6064162149998893 Ti
atom 5.7003733317930365 5.7003306185776914 15.0000000100000186 O
atom 3.8002500613693502 3.8002196729474131 15.8600330950000021 O
atom 5.7003737737536397 3.8002195627388007 17.4352723749999825 O
atom 5.7003744374648821 5.7003300682446261 22.7358503099999254 Ti
atom 5.7003746294290698 3.8002188724033732 25.1711536349999037 Ti
atom 3.8002503735412501 3.8002195499240150 17.8652843249999833 Ti
atom 3.8002505955054544 5.7003302140827392 20.3005880799999545 Ti
atom 3.8002509076773130 5.7003300810593691 22.3058389399999442 O
atom 5.7003746496404366 5.7003298652188192 24.7411331099999146 O
atom 5.7003745772535162 3.8002191454291792 23.1658708549999091 O
atom 3.8002512092166421 3.8002188895886122 25.6011652649999064 O
atom 5.7003749216009538 3.8002187793799851 27.1764047349998918 O
atom 3.8002505757168237 3.8002193368981958 19.8705672749999565 O
atom 3.8002504233298646 5.7003304271085709 18.2953049799999796 O
atom 5.7003740752930128 5.7003301812680052 20.7305993499999630 O
atom 1.9001286953123426 1.9001074948857091 32.4769838699998417 Ti
atom 1.9001289072765992 7.6004399590443876 34.9122883649998172 Ti
atom 0.0000069470833561 7.6004390698474333 47.0886833149996988 Ti
atom 0.0000048533527836 1.9001076307239100 30.0417204799998601 Ti
atom 0.0000051855246966 1.9001074877005020 32.0469718299998405 O
atom 1.9001289374879471 1.9001072818598694 34.4822670899998087 O
atom 1.9001287951009893 7.6004401920702316 32.9070050949998318 O
atom 0.0000054870641861 7.6004399462296170 35.3423001049998149 O
atom 1.9001291994484848 7.6004398460209996 36.9175394649997912 O
atom 0.0000048435640657 7.6004403835393992 29.6116995149998701 O
atom 0.0000046911771891 1.9001078537497420 28.0364373599998800 O
atom 1.9001283331404362 1.9001075979091115 30.4717325899998599 O
atom 1.9001298031597824 1.9001067415268111 42.2181173099997409 Ti
atom 1.9001299951239130 7.6004392056855732 44.6534207149997258 Ti
atom 0.0000057992360902 7.6004398332062166 37.3475513749997887 Ti
atom 0.0000060312003577 1.9001068873649223 39.7828550899997637 Ti
atom 0.0000063433722081 1.9001067643415566 41.7881058899997413 O
atom 1.9001299153353464 1.9001065185009982 44.2234001799997287 O
atom 1.9001297229483578 7.6004394387113807 42.6481379249997516 O
atom 0.0000066349114954 7.6004391928708044 45.0834324149997272 O
atom 1.9001303472957958 7.6004391026621860 46.6586717949996981 O
atom 0.0000059914116635 7.6004396301803974 39.3528343149997681 O
atom 0.0000058290247688 1.9001070903907513 37.7775720099997940 O
atom 1.9001295109879175 1.9001068745501861 40.2128663899997605 O
atom 1.9001286853123092 5.7003293248857192 32.4769838699998417 Ti
atom 1.9001289072766314 3.8002181490443769 34.9122883549998093 Ti
atom 0.0000069570833897 3.8002172498474218 47.0886833149996846 Ti
atom 0.0000048533527483 5.7003294607239203 30.0417204699998734 Ti
atom 0.0000051755246619 5.7003293577005127 32.0469718199998468 O
atom 1.9001289274879123 5.7003290918598797 34.4822670799998150 O
atom 1.9001287951010206 3.8002183820702218 32.9070050749998160 O
atom 0.0000054870642197 3.8002181462296067 35.3423001149998157 O
atom 1.9001291994485170 3.8002180560209888 36.9175394549997975 O
atom 0.0000048435641009 3.8002185735393876 29.6116995349998646 O
atom 0.0000046811771544 5.7003296637497529 28.0364373499998862 O
atom 1.9001283331404015 5.7003294779091229 30.4717325799998733 O
atom 1.9001298031597578 5.7003285515268152 42.2181173899997475 Ti
atom 1.9001299951239452 3.8002173756855631 44.6534207049997249 Ti
atom 0.0000057992361237 3.8002180332062045 37.3475513749997958 Ti
atom 0.0000060012003276 5.7003286973649301 39.7828551199997662 Ti
atom 0.0000063633721814 5.7003285543415618 41.7881059499997320 O
atom 1.9001299153353197 5.7003283385010040 44.2234002399997408 O
atom 1.9001297229483922 3.8002176087113679 42.6481379349997525 O
atom 0.0000066349115273 3.8002173528707952 45.0834324149997130 O
atom 1.9001303572958310 3.8002172826621741 46.6586718049996989 O
atom 0.0000059914116971 3.8002178201803871 39.3528343149997681 O
atom 0.0000057990247365 5.7003289103907600 37.7775720199997878 O
atom 1.9001295009878942 5.7003286645501889 40.2128664799997679 O
atom 5.7003755353123688 1.9001074848857091 32.4769838699998417 Ti
atom 5.7003757472766265 7.6004399690443867 34.9122883649998244 Ti
atom 3.8002538170833775 7.6004390698474342 47.0886832849996964 Ti
atom 3.8002517233528046 1.9001076307239118 30.0417204599998655 Ti
atom 3.8002520655247154 1.9001074877005066 32.0469717699998355 O
atom 5.7003756474879737 1.9001072818598694 34.4822670899998300 O
atom 5.7003754851010147 7.6004401920702316 32.9070050949998461 O
atom 3.8002523670642181 7.6004399362296127 35.3423001749998136 O
atom 5.7003760894485094 7.6004398660209995 36.9175394549997833 O
atom 3.8002516835640852 7.6004403835394019 29.6116994749998668 O
atom 3.8002515211772110 1.9001078537497444 28.0364373299998917 O
atom 5.7003752231404592 1.9001075879091132 30.4717325699998582 O
atom 5.7003767431598105 1.9001067315268105 42.2181173199997417 Ti
atom 5.7003769451239377 7.6004392356855730 44.6534207149997187 Ti
atom 3.8002526792361189 7.6004398132062141 37.3475514049997841 Ti
atom 3.8002528912003855 1.9001068773649201 39.7828551199997662 Ti
atom 3.8002532433722420 1.9001067643415506 41.7881059699997408 O
atom 5.7003769553353809 1.9001065185009927 44.2234002499997061 O
atom 5.7003768829483832 7.6004393987113801 42.6481379249997232 O
atom 3.8002535149115100 7.6004391928708115 45.0834323349997206 O
atom 5.7003772172958209 7.6004391326621850 46.6586718049996989 O
atom 3.8002528814116929 7.6004396201803930 39.3528343649997723 O
atom 3.8002527090248002 1.9001070803907476 37.7775720599997911 O
atom 5.7003763809879526 1.9001068745501808 40.2128664599997734 O
atom 5.7003755253123360 5.7003293148857193 32.4769838699998417 Ti
atom 5.7003757372766586 3.8002181490443765 34.9122883649998244 Ti
atom 3.8002538170834117 3.8002172498474227 47.0886832949996901 Ti
atom 3.8002517133527705 5.7003294607239221 30.0417204499998718 Ti
atom 3.8002520555246804 5.7003293577005181 32.0469717599998418 O
atom 5.7003756374879400 5.7003290918598797 34.4822670899998300 O
atom 5.7003754851010466 3.8002183820702222 32.9070050749998444 O
atom 3.8002523670642523 3.8002181462296023 35.3423001749998136 O
atom 5.7003760794485441 3.8002180360209894 36.9175394549997975 O
atom 3.8002516835641211 3.8002185735393907 29.6116994949998826 O
atom 3.8002515411771758 5.7003296637497556 28.0364373199998980 O
atom 5.7003752231404254 5.7003294679091239 30.4717325699998653 O
atom 5.7003767431597838 5.7003285415268135 42.2181173899997404 Ti
atom 5.7003769351239724 3.8002173456855624 44.6534207149997044 Ti
atom 3.8002526792361522 3.8002180232062037 37.3475514049997841 Ti
atom 3.8002529012003565 5.7003286873649266 39.7828551599997695 Ti
atom 3.8002532133722151 5.7003285543415574 41.7881060199997378 O
atom 5.7003769553353392 5.7003283385010075 44.2234001899997153 O
atom 5.7003768829484178 3.8002176187113683 42.6481379349997241 O
atom 3.8002535149115442 3.8002173628708005 45.0834323449997214 O
atom 5.7003772272958564 3.8002172526621734 46.6586718149996926 O
atom 3.8002528814117258 3.8002178101803841 39.3528343549997714 O
atom 3.8002527290247667 5.7003289003907582 37.7775720599997911 O
atom 5.7003763809879144 5.7003286545501926 40.2128664299997638 O
atom 1.9001310010072452 1.9001059681678978 51.9592509499996424 Ti
atom 1.9001312129715018 7.6004384323265759 54.3945554449996251 Ti
atom 0.0000071590476857 1.9001061040060985 49.5239875599996680 Ti
atom 0.0000074912195991 1.9001059609826905 51.5292389099996413 O
atom 1.9001312431828492 1.9001057551420582 53.9645341699996237 O
atom 1.9001311007958919 7.6004386653524199 52.3892721749996326 O
atom 0.0000077927590865 7.6004384195118062 54.8245671849996228 O
atom 1.9001315051433874 7.6004383193031879 56.3998065449995778 O
atom 0.0000071492589678 7.6004388568215884 49.0939665949996780 O
atom 0.0000069968720915 1.9001063270319303 47.5187044399996950 O
atom 1.9001306388353387 1.9001060711913003 49.9539996699996749 O
atom 0.0000081049309926 7.6004383064884049 56.8298184549995966 Ti
atom 0.0000083368952598 1.9001053606471108 59.2651221699995716 Ti
atom 0.0000082971065656 7.6004381034625865 58.8351013949995689 O
atom 0.0000081347196713 1.9001055636729396 57.2598390899996019 O
atom 1.9001318166828196 1.9001053478323746 59.6951334699995897 O
atom 1.9001309910072113 5.7003277981679084 51.9592509499996424 Ti
atom 1.9001312129715340 3.8002166223265657 54.3945554349996456 Ti
atom 0.0000071590476504 5.7003279340061104 49.5239875499996813 Ti
atom 0.0000074812195643 5.7003278309827028 51.5292388999996547 O
atom 1.9001312331828144 5.7003275651420688 53.9645341599996158 O
atom 1.9001311007959227 3.8002168553524101 52.3892721549996310 O
atom 0.0000077927591218 3.8002166195117946 54.8245671949996307 O
atom 1.9001315051434196 3.8002165293031767 56.3998065349995983 O
atom 0.0000071492590047 3.8002170468215755 49.0939666149996725 O
atom 0.0000069868720568 5.7003281370319412 47.5187044299996941 O
atom 1.9001306388353039 5.7003279511913121 49.9539996599996812 O
atom 0.0000081049310262 3.8002165064883928 56.8298184549995966 Ti
atom 0.0000083068952297 5.7003271706471184 59.2651221999995670 Ti
atom 0.0000082971065992 3.8002162934625754 58.8351013949995689 O
atom 0.0000081047196386 5.7003273836729491 57.2598390999995814 O
atom 1.9001318066827968 5.7003271378323781 59.6951335599995758 O
atom 5.7003778410072705 1.9001059581678976 51.9592509499996424 Ti
atom 5.7003780529715273 7.6004384423265767 54.3945554449996251 Ti
atom 3.8002540290477076 1.9001061040060998 49.5239875399996805 Ti
atom 3.8002543712196184 1.9001059609826951 51.5292388499996434 O
atom 5.7003779531828744 1.9001057551420582 53.9645341699996237 O
atom 5.7003777907959163 7.6004386653524199 52.3892721749996610 O
atom 3.8002546727591211 7.6004384095118001 54.8245672549996215 O
atom 5.7003783951434110 7.6004383393031887 56.3998065349995983 O
atom 3.8002539892589882 7.6004388568215902 49.0939665549996818 O
atom 3.8002538268721140 1.9001063270319327 47.5187044099996996 O
atom 5.7003775288353618 1.9001060611913017 49.9539996499996732 O
atom 3.8002549849310219 7.6004382864884024 56.8298184849995920 Ti
atom 3.8002551968952885 1.9001053506471088 59.2651221999995670 Ti
atom 3.8002551871065959 7.6004380934625821 58.8351014449995802 O
atom 3.8002550147197023 1.9001055536729359 57.2598391399995847 O
atom 5.7003786866828534 1.9001053478323695 59.6951335399995600 O
atom 5.7003778310072377 5.7003277881679084 51.9592509499996424 Ti
atom 5.7003780429715603 3.8002166223265652 54.3945554449996536 Ti
atom 3.8002540190476726 5.7003279340061104 49.5239875299996726 Ti
atom 3.8002543612195825 5.7003278309827063 51.5292388399996426 O
atom 5.7003779431828416 5.7003275651420680 53.9645341699996237 O
atom 5.7003777907959474 3.8002168553524101 52.3892721549996594 O
atom 3.8002546727591544 3.8002166195117906 54.8245672549996215 O
atom 5.7003783851434449 3.8002165093031772 56.3998065349995983 O
atom 3.8002539892590232 3.8002170468215790 49.0939665749996834 O
atom 3.8002538468720779 5.7003281370319439 47.5187043999996988 O
atom 5.7003775288353289 5.7003279411913130 49.9539996499996803 O
atom 3.8002549849310552 3.8002164964883911 56.8298184849995920 Ti
atom 3.8002552068952595 5.7003271606471166 59.2651222399995703 Ti
atom 3.8002551871066284 3.8002162834625719 58.8351014349995722 O
atom 3.8002550347196689 5.7003273736729465 57.2598391399995847 O
atom 5.7003786866828179 5.7003271278323826 59.6951335099995646 O
