#===============================================================================
# Created using the Atomic Simulation Environment (ASE)

# Mon Mar 23 14:01:34 2026

#=======================================================
lattice_vector 9.2839158800000003 0.0000000000000000 0.0000000000000000 
lattice_vector 0.0000000000000000 9.2839361000000000 0.0000000000000000 
lattice_vector 0.0000000000000000 0.0000000000000000 40.4074679699999990 
atom 4.6419579100000004 9.2839360499999994 15.0000000000000000 Ti
atom 2.3209789600000001 2.3209840399999999 16.4867811500000023 Ti
atom 9.2839158099999999 9.2839360400000004 15.0000000200000017 Ti
atom 3.7390025300000000 0.9029265000000000 16.4867811400000015 O
atom 0.9029554700000000 3.7390416200000001 16.4867811500000023 O
atom 1.4180235400000001 1.4180575900000001 15.0000000100000008 O
atom 3.2239344399999998 3.2239105299999999 15.0000000100000008 O
atom 2.3209789600000001 2.3209840399999999 19.4603434099999966 Ti
atom 9.2839158099999999 9.2839360299999996 17.9735622799999994 Ti
atom 3.7390025300000000 0.9029265000000000 19.4603434099999966 O
atom 0.9029554700000000 3.7390416300000000 19.4603434199999974 O
atom 1.4180235400000001 1.4180575900000001 17.9735622799999994 O
atom 3.2239344399999998 3.2239105299999999 17.9735622799999994 O
atom 2.3209789700000001 6.9629519999999996 16.4867811400000015 Ti
atom 9.2839158200000007 4.6419680000000003 15.0000000200000017 Ti
atom 3.7390025400000000 5.5448945299999997 16.4867811400000015 O
atom 0.9029554700000000 8.3810096299999994 16.4867811400000015 O
atom 1.4180235600000000 6.0600256000000012 15.0000000100000008 O
atom 3.2239344600000002 7.8658785299999998 15.0000000100000008 O
atom 2.3209789700000001 6.9629519900000014 19.4603434199999974 Ti
atom 9.2839158200000007 4.6419680100000003 17.9735622900000003 Ti
atom 3.7390025400000000 5.5448945299999997 19.4603434099999966 O
atom 0.9029554600000000 8.3810096299999994 19.4603434199999974 O
atom 1.4180235600000000 6.0600256100000003 17.9735622799999994 O
atom 3.2239344600000002 7.8658785299999998 17.9735622799999994 O
atom 6.9629368500000002 2.3209840499999999 16.4867811500000023 Ti
atom 4.6419579100000004 9.2839360499999994 20.9471245400000008 Ti
atom 8.3809604499999999 0.9029265000000000 16.4867811500000023 O
atom 5.5449134100000004 3.7390416399999999 16.4867811400000015 O
atom 6.0599814800000003 1.4180576000000003 15.0000000100000008 O
atom 7.8658923500000002 3.2239105299999999 15.0000000100000008 O
atom 6.9629368600000001 2.3209840499999999 19.4603434199999974 Ti
atom 4.6419579000000004 9.2839360400000004 17.9735622699999986 Ti
atom 8.3809604499999999 0.9029265000000000 19.4603434199999974 O
atom 5.5449134100000004 3.7390416399999999 19.4603434199999974 O
atom 6.0599814800000003 1.4180576000000003 17.9735622799999994 O
atom 7.8658923500000002 3.2239105399999999 17.9735622799999994 O
atom 6.9629368700000001 6.9629519999999996 16.4867811500000023 Ti
atom 4.6419579100000004 4.6419680100000003 15.0000000100000008 Ti
atom 8.3809604499999999 5.5448945200000015 16.4867811500000023 O
atom 5.5449134100000004 8.3810096400000020 16.4867811300000007 O
atom 6.0599815000000001 6.0600256200000020 15.0000000100000008 O
atom 7.8658923700000010 7.8658785400000006 15.0000000100000008 O
atom 6.9629368700000001 6.9629520100000022 19.4603434199999974 Ti
atom 4.6419579100000004 4.6419680100000003 17.9735622799999994 Ti
atom 8.3809604600000007 5.5448945200000015 19.4603434299999982 O
atom 5.5449134000000004 8.3810096400000020 19.4603434099999966 O
atom 6.0599815000000001 6.0600256200000020 17.9735622799999994 O
atom 7.8658923700000010 7.8658785400000006 17.9735622799999994 O
atom 2.3209789600000001 2.3209840399999999 22.4339056899999996 Ti
atom 9.2839158099999999 9.2839360400000004 20.9471245599999953 Ti
atom 3.7390025300000000 0.9029265000000000 22.4339056799999987 O
atom 0.9029554700000000 3.7390416200000001 22.4339056899999996 O
atom 1.4180235400000001 1.4180575900000001 20.9471245500000016 O
atom 3.2239344399999998 3.2239105299999999 20.9471245500000016 O
atom 2.3209789600000001 2.3209840399999999 25.4074679500000009 Ti
atom 9.2839158099999999 9.2839360299999996 23.9206868199999967 Ti
atom 3.7390025300000000 0.9029265000000000 25.4074679500000009 O
atom 0.9029554700000000 3.7390416300000000 25.4074679600000017 O
atom 1.4180235400000001 1.4180575900000001 23.9206868199999967 O
atom 3.2239344399999998 3.2239105299999999 23.9206868199999967 O
atom 2.3209789700000001 6.9629519999999996 22.4339056799999987 Ti
atom 9.2839158200000007 4.6419680000000003 20.9471245599999953 Ti
atom 3.7390025400000000 5.5448945299999997 22.4339056799999987 O
atom 0.9029554700000000 8.3810096299999994 22.4339056799999987 O
atom 1.4180235600000000 6.0600256000000012 20.9471245500000016 O
atom 3.2239344600000002 7.8658785299999998 20.9471245500000016 O
atom 2.3209789700000001 6.9629519900000014 25.4074679600000017 Ti
atom 9.2839158200000007 4.6419680100000003 23.9206868299999975 Ti
atom 3.7390025400000000 5.5448945299999997 25.4074679500000009 O
atom 0.9029554600000000 8.3810096299999994 25.4074679600000017 O
atom 1.4180235600000000 6.0600256100000003 23.9206868199999967 O
atom 3.2239344600000002 7.8658785299999998 23.9206868199999967 O
atom 6.9629368500000002 2.3209840499999999 22.4339056899999996 Ti
atom 8.3809604499999999 0.9029265000000000 22.4339056899999996 O
atom 5.5449134100000004 3.7390416399999999 22.4339056799999987 O
atom 6.0599814800000003 1.4180576000000003 20.9471245500000016 O
atom 7.8658923500000002 3.2239105299999999 20.9471245500000016 O
atom 6.9629368600000001 2.3209840499999999 25.4074679600000017 Ti
atom 4.6419579000000004 9.2839360400000004 23.9206868100000030 Ti
atom 8.3809604499999999 0.9029265000000000 25.4074679600000017 O
atom 5.5449134100000004 3.7390416399999999 25.4074679600000017 O
atom 6.0599814800000003 1.4180576000000003 23.9206868199999967 O
atom 7.8658923500000002 3.2239105399999999 23.9206868199999967 O
atom 6.9629368700000001 6.9629519999999996 22.4339056899999996 Ti
atom 4.6419579100000004 4.6419680100000003 20.9471245500000016 Ti
atom 8.3809604499999999 5.5448945200000015 22.4339056899999996 O
atom 5.5449134100000004 8.3810096400000020 22.4339056699999979 O
atom 6.0599815000000001 6.0600256200000020 20.9471245500000016 O
atom 7.8658923700000010 7.8658785400000006 20.9471245500000016 O
atom 6.9629368700000001 6.9629520100000022 25.4074679600000017 Ti
atom 4.6419579100000004 4.6419680100000003 23.9206868199999967 Ti
atom 8.3809604600000007 5.5448945200000015 25.4074679700000026 O
atom 5.5449134000000004 8.3810096400000020 25.4074679500000009 O
atom 6.0599815000000001 6.0600256200000020 23.9206868199999967 O
atom 7.8658923700000010 7.8658785400000006 23.9206868199999967 O
