#===============================================================================
# Created using the Atomic Simulation Environment (ASE)

# Mon Mar 23 14:01:33 2026

#=======================================================
lattice_vector 11.0253972427838800 0.0000000000000000 0.0000000000000000 
lattice_vector 3.2078926060844428 10.5484209638685815 0.0000000000000000 
lattice_vector 0.0000000000000000 0.0000000000000000 34.4074923943455744 
atom 8.9699076332356995 6.6477024654527535 15.0000146844921254 Ti
atom 4.6096119662776065 3.4162495579195462 16.1018803697662491 Ti
atom 10.1639518304028247 5.0365114504508854 15.0000000163259770 O
atom 7.7758635088264505 8.2588934991710961 15.0000294022161711 O
atom 7.4076025001688803 5.4898915508474024 15.2445537414029673 O
atom 5.8036562139676242 0.2156810285865595 15.2445537319081765 O
atom 7.3659613386139577 1.3734918929451347 15.0000146417654605 Ti
atom 6.2135582777403080 8.6904600548955866 16.1018803840084814 Ti
atom 11.7678981418655333 10.3107219122219007 15.0000000115785781 O
atom 6.1719171973637490 2.9846829845925402 15.0000293784791197 O
atom 1.8949038787769446 5.4898915596486582 15.2445537461503804 O
atom 3.4572089781618298 6.6477024844970600 15.0000146702498611 Ti
atom 10.1223106237190379 3.4162495582323520 16.1018803691863326 Ti
atom 4.6512531867758966 5.0365114515748646 15.0000000142422216 O
atom 13.2885621302183914 8.2588935167736075 15.0000294117109831 O
atom 1.8532626835400940 1.3734919119894409 15.0000146275231998 Ti
atom 11.7262569297877164 8.6904600512108452 16.1018803908396535 Ti
atom 6.2551994898181178 10.3107219071053855 15.0000000000000000 O
atom 11.6846158379642127 2.9846829988281294 15.0000293731517829 O
atom 0.2909575925756900 0.2156810461890742 15.2445537414029886 O
atom 5.7620150271512527 4.2703120097629919 19.4074776671267131 Ti
atom 6.9560592243183876 2.6591209947611230 19.4074629989605683 O
atom 4.5679709027420046 5.8815030434813336 19.4074923848507588 O
atom 5.8036561971266627 4.3011963230025199 17.4482852327202664 O
atom 7.3243202161349910 5.4281229482063402 19.1629386502789352 O
atom 7.3659613355875040 5.4590072416054189 17.2037461683983395 Ti
atom 3.0056656686294057 2.2275543252709542 18.3056118489250537 Ti
atom 8.5600055273606035 3.8478162226060042 17.2037315076432691 O
atom 6.1719172057842249 7.0701982801274701 17.2037608982808763 O
atom 8.9282665191772068 6.6168181760512228 16.9592071589616324 O
atom 5.7620150409657578 0.1847966778990548 17.2037461304190877 Ti
atom 4.6096119746980824 7.5017648182494518 18.3056118705783675 Ti
atom 10.1639518388233032 9.1220266843770190 17.2037315028958737 O
atom 4.5679709081360365 1.7959877581844412 17.2037608671327575 O
atom 7.3243202329759516 1.3426076449891244 16.9592071447194286 O
atom 7.3659613386139648 9.5445224011239524 19.4074776244000553 Ti
atom 8.5600055357810874 7.9333314565321400 19.4074629942131693 O
atom 2.9640245912793080 0.6072925289027785 19.4074923611137073 O
atom 7.4076025170098516 9.5754067734115171 17.4482852279728782 O
atom 5.7203739299337304 0.1539124171442419 19.1629386360367278 O
atom 1.8532626666991261 5.4590072592129424 17.2037461568197401 Ti
atom 8.5183643290972952 2.2275543366279607 18.3056118699984580 Ti
atom 3.0473068837336861 3.8478162237299829 17.2037315055595172 O
atom 11.6846158325701897 7.0701982929262730 17.2037608956171937 O
atom 3.4155678725238157 6.6168181837335105 16.9592071447193788 O
atom 11.2747136148612590 4.2703120288072984 19.4074776528844488 Ti
atom 1.4433605806914562 2.6591209958851039 19.4074629968768093 O
atom 10.0806695241339490 5.8815030610838450 19.4074923943455744 O
atom 11.3163548185185991 4.3011963318037782 17.4482852374676725 O
atom 1.8116215694816007 5.4281229646898872 19.1629386407840805 O
atom 12.8786599263239712 9.5445224201682599 19.4074776101577946 Ti
atom 3.0473068837336763 7.9333314514156239 19.4074629826345912 O
atom 8.4767232318797756 0.6072925431383657 19.4074923557863741 O
atom 12.9203011384017881 9.5754067822127755 17.4482852327202806 O
atom 0.2076752832803403 0.1539124336277889 19.1629386265418802 O
atom 0.2493163804978789 0.1847966929458179 17.2037461235879050 Ti
atom 10.1223106267454970 7.5017648233659626 18.3056118821569456 Ti
atom 4.6512531898023513 9.1220266727021979 17.2037315034757938 O
atom 10.0806695211074846 1.7959877695464654 17.2037608671327362 O
atom 1.8116215863225660 1.3426076614726701 16.9592071352245881 O
