#===============================================================================
# Created using the Atomic Simulation Environment (ASE)

# Mon Mar 23 14:01:32 2026

#=======================================================
lattice_vector 10.7486859018486420 0.0000000000000000 0.0000000000000000 
lattice_vector -0.0000027099268353 19.4822670799998114 0.0000000000000000 
lattice_vector 0.0000000000000000 0.0000000000000000 38.0615146001796489 
atom 0.0000866334408202 14.6117101551355102 15.0000001633620954 Ti
atom 0.0000869553169076 12.6064269351355396 15.0000001272787955 O
atom 5.3744476618384365 11.7463938441626663 17.6871715351954748 O
atom 5.3744468975899471 17.4769944341626129 17.6871715514174142 O
atom 0.0000863044974532 16.6169614351354831 15.0000000368108424 O
atom 0.0000879495132669 4.8705767151356039 15.0000001386134869 Ti
atom 0.0000881865361755 2.8652938451356227 15.0000000035355257 O
atom 5.3744490061950998 2.0052615341627642 17.6871715387310395 O
atom 5.3744482419469453 7.7358596341627095 17.6871715549529824 O
atom 0.0000876488544572 6.8758276351355825 15.0000000827728215 O
atom 9.4051959883947962 12.1764056321491001 16.3435858047206608 Ti
atom 8.0616030763623225 0.0000107101356565 15.0000001403811787 Ti
atom 6.7180237912565719 17.0469735171490484 16.3435857958819710 Ti
atom 6.7180240919155798 15.0417221671490715 16.3435858941490437 O
atom 9.4051957443007925 14.1816889121490881 16.3435859468697160 O
atom 8.0616014030625411 11.7463939101355344 15.0000000668629028 O
atom 9.4051962607694541 10.1711545321491226 16.3435858888456913 O
atom 8.0616006458850986 17.4769944901354819 15.0000000760137482 O
atom 6.7180235259491763 19.0522566371490250 16.3435858743914864 O
atom 8.0616184085536311 16.6169613691626097 17.6871715617121410 O
atom 9.4051973044670110 2.4352732821491916 16.3435857516877796 Ti
atom 8.0616017037214878 9.7411426501355596 15.0000001509878373 Ti
atom 6.7180251426845983 7.3058388671491414 16.3435857923464454 Ti
atom 6.7180254999120823 5.3005880371491765 16.3435858906133369 O
atom 8.0616203330186291 2.8652937091627475 17.6871714860102713 O
atom 9.4051969472356056 4.4405560521491649 16.3435857807001241 O
atom 8.0616027757033812 2.0052616101356340 15.0000000421141024 O
atom 9.4051976263393016 0.4300221821492186 16.3435858853101230 O
atom 8.0616019902420923 7.7358597101355802 15.0000000795493165 O
atom 6.7180248490928811 9.3111219671491199 16.3435858567139221 O
atom 8.0616198094789571 6.8758274691627150 17.6871715369632554 O
atom 4.0308530021150712 12.1764056221491010 16.3435857835075709 Ti
atom 2.6872601042247735 0.0000107401356533 15.0000001333101807 Ti
atom 1.3436808474032558 17.0469735271490457 16.3435857746687425 Ti
atom 1.3436811904886155 15.0417222171490774 16.3435858587935421 O
atom 2.6872760377375311 12.6064268591626512 17.6871714824747066 O
atom 4.0308526590257454 14.1816888921490705 16.3435858125198692 O
atom 2.6872584662803169 11.7463938501355365 15.0000000527207220 O
atom 4.0308533169162200 10.1711545321491226 16.3435858959167319 O
atom 2.6872576666764041 17.4769945501354762 15.0000000477295714 O
atom 1.3436805467404906 19.0522566571490302 16.3435858461073131 O
atom 2.6872755212687589 16.6169613791626176 17.6871715122144586 O
atom 4.0308543676851043 2.4352732721491996 16.3435858365405480 Ti
atom 2.6872587740103118 9.7411426201355624 15.0000001297745662 Ti
atom 1.3436822059024109 7.3058388671491468 16.3435857923463992 Ti
atom 1.3436825348456751 5.3005880171491748 16.3435859047555176 O
atom 4.0308542084439312 4.4405560621491915 16.3435859645471879 O
atom 2.6872598035659143 2.0052616901356335 15.0000000633273771 O
atom 4.0308546329886150 0.4300221821492159 16.3435858994523961 O
atom 2.6872590534599126 7.7358596601355805 15.0000000795492738 O
atom 1.3436819335239338 9.3111219271491255 16.3435858637848739 O
atom 2.6872768444125512 6.8758274891627114 17.6871715511054326 O
atom 5.3744295419386363 14.6117101551355084 15.0000001350779648 Ti
atom 5.3744297789615905 12.6064269351355218 15.0000000000000000 O
atom 0.0001047038430856 11.7463937741626676 17.6871715422665652 O
atom 0.0001039183812601 17.4769944541626074 17.6871715231332374 O
atom 5.3744292200665900 16.6169614551354812 15.0000000863084395 O
atom 5.3744309499351868 4.8705766351356132 15.0000001739686653 Ti
atom 5.3744312435269066 2.8652938351356365 15.0000001237433267 O
atom 0.0001060694128579 2.0052616041627642 17.6871715245888552 O
atom 0.0001053051647690 7.7358595941627106 17.6871715549529398 O
atom 5.3744306139208211 6.8758275951355827 15.0000000544885026 O
atom 5.3744650386991681 14.6117100031897742 20.3743431141694273 Ti
atom 6.7180422400996562 12.1764055461762304 19.0307572801243232 Ti
atom 5.3744493139250418 0.0000106341627852 17.6871716157848873 Ti
atom 4.0308700571035221 17.0469734311761734 19.0307572571434491 Ti
atom 4.0308703931177998 15.0417220811762054 19.0307573341972045 O
atom 5.3744653605752601 12.6064267831898018 20.3743430780861310 O
atom 6.7180419960056552 14.1816888161762158 19.0307574222733820 O
atom 0.0001401652481477 11.7463936922169268 23.0615144860027961 O
atom 6.7180425266163990 10.1711544461762546 19.0307573501071694 O
atom 0.0001394009996542 17.4769942822168716 23.0615145022247425 O
atom 4.0308697847251276 19.0522565511761570 19.0307573568661965 O
atom 5.3744647097558111 16.6169612831897417 20.3743429876181743 O
atom 5.3744663547716200 4.8705765631898652 20.3743430894208082 Ti
atom 6.7180435420297719 2.4352731961763219 19.0307572412336228 Ti
atom 5.3744479624973849 9.7411425741626907 17.6871716193204094 Ti
atom 4.0308714156027285 7.3058388211762777 19.0307572889632475 Ti
atom 4.0308717233326510 5.3005880211763028 19.0307573660170881 O
atom 5.3744665917945191 2.8652936931898845 20.3743429543428469 O
atom 6.7180431847983764 4.4405559861762915 19.0307572702459709 O
atom 0.0001415096048061 2.0052613822170260 23.0615144895383715 O
atom 6.7180438639020217 0.4300221161763496 19.0307573607138316 O
atom 0.0001407453566542 7.7358594822169708 23.0615145057603108 O
atom 4.0308711290820547 9.3111219011762572 19.0307573462596302 O
atom 5.3744660541128102 6.8758274831898447 20.3743430335801428 O
atom 8.0616187657811302 14.6117100791626395 17.6871716458368979 Ti
atom 4.0308884918045029 12.1764054802033641 21.7179287555279856 Ti
atom 2.6872955797720341 0.0000105581899182 20.3743430911885035 Ti
atom 1.3437162946662828 17.0469733652033071 21.7179287466892923 Ti
atom 1.3437165953252956 15.0417220152033337 21.7179288449563686 O
atom 8.0616191017993160 12.6064268691626680 17.6871715956114173 O
atom 4.0308882477105028 14.1816887602033503 21.7179288976770408 O
atom 2.6872939064722536 11.7463937581897966 20.3743430176702311 O
atom 4.0308887641791653 10.1711543802033830 21.7179288396530161 O
atom 2.6872931492948013 17.4769943381897441 20.3743430268210801 O
atom 1.3437160293588848 19.0522564852032836 21.7179288251988112 O
atom 2.6873109119633494 16.6169612172168719 23.0615145125194729 O
atom 8.0616201030667654 4.8705765591627381 17.6871716140171493 Ti
atom 4.0308898078767230 2.4352731302034534 21.7179287024951044 Ti
atom 2.6872942071312016 9.7411424981898218 20.3743431017951622 Ti
atom 1.3437176460943063 7.3058387152034037 21.7179287431537738 Ti
atom 1.3437180033217933 5.3005878852034387 21.7179288414206653 O
atom 2.6873128364283385 2.8652935572170093 23.0615144368175962 O
atom 4.0308894506453221 4.4405559002034263 21.7179287315074490 O
atom 2.6872952791130884 2.0052614581898958 20.3743429929214344 O
atom 4.0308901297490101 0.4300220302034803 21.7179288361174478 O
atom 2.6872944936518035 7.7358595581898424 20.3743430303566520 O
atom 1.3437173525025949 9.3111218152033821 21.7179288075212504 O
atom 2.6873123128886705 6.8758273172169773 23.0615144877705802 O
atom 2.6872758148566724 14.6117100791626431 17.6871716034104942 Ti
atom 9.4052314073734191 12.1764054702033615 21.7179287343148992 Ti
atom 8.0616385094831262 0.0000105881899150 20.3743430841175091 Ti
atom 6.7180592526616039 17.0469733752033044 21.7179287254760709 Ti
atom 6.7180595957469693 15.0417220652033379 21.7179288096008669 O
atom 8.0616544429958843 12.6064267072169134 23.0615144332820314 O
atom 9.4052310642840933 14.1816887402033327 21.7179287633271976 O
atom 8.0616368715386688 11.7463936981897987 20.3743430035280504 O
atom 9.4052317221745732 10.1711543802033830 21.7179288467240532 O
atom 8.0616360719347515 17.4769943981897384 20.3743429985368998 O
atom 6.7180589519988390 19.0522565052032888 21.7179287969146344 O
atom 8.0616539265271108 16.6169612272168763 23.0615144630217870 O
atom 2.6872772016400330 4.8705766291627413 17.6871716493723241 Ti
atom 9.4052327729434584 2.4352731202034614 21.7179287873478692 Ti
atom 8.0616371792686596 9.7411424681898229 20.3743430805818875 Ti
atom 6.7180606111607641 7.3058387152034099 21.7179287431537311 Ti
atom 6.7180609401040234 5.3005878652034362 21.7179288555628389 O
atom 2.6872775023028130 2.8652936991627698 17.6871715920758952 O
atom 9.4052326137022781 4.4405559102034537 21.7179289153545163 O
atom 8.0616382088242631 2.0052615381898953 20.3743430141347055 O
atom 9.4052330382469691 0.4300220302034776 21.7179288502597210 O
atom 8.0616374587182609 7.7358595081898427 20.3743430303566022 O
atom 6.7180603387822817 9.3111217752033877 21.7179288145921952 O
atom 8.0616552496708938 6.8758273372169727 23.0615145019127610 O
atom 0.0001220453483420 14.6117100031897706 20.3743430858852896 Ti
atom 1.3436992538198818 12.1764055461762268 19.0307572447690987 Ti
atom 0.0001063630006751 0.0000106541627862 17.6871716016427563 Ti
atom 9.4052129797435633 17.0469734611761723 19.0307572571435450 Ti
atom 9.4052132945447493 15.0417221511762005 19.0307573695527097 O
atom 0.0001222823712993 12.6064267831897840 20.3743429508073284 O
atom 1.3436989107305937 14.1816888361761979 19.0307572879235387 O
atom 5.3744831091014342 11.7463936222169281 23.0615144930738900 O
atom 1.3436995756920775 10.1711544561762519 19.0307573501071730 O
atom 5.3744823236396080 17.4769943022168661 23.0615144739405622 O
atom 9.4052127144361659 19.0522565911761532 19.0307573356530568 O
atom 0.0001217234762984 16.6169613031897399 20.3743430371157572 O
atom 0.0001234533448983 4.8705764831898746 20.3743431247759901 Ti
atom 1.3437006688872242 2.4352731961763348 19.0307572483044360 Ti
atom 0.0001050115730784 9.7411425441626864 17.6871716193204094 Ti
atom 9.4052143665270087 7.3058387511762772 19.0307572748211093 Ti
atom 9.4052146813279922 5.3005878911763009 19.0307573448038632 O
atom 0.0001237469366158 2.8652936831898987 20.3743430745506480 O
atom 1.3437004389356542 4.4405559761763200 19.0307574611641250 O
atom 5.3744844746712159 2.0052614522170260 23.0615144753961836 O
atom 1.3437009412618761 0.4300220961763542 19.0307573324294665 O
atom 5.3744837104231182 7.7358594422169720 23.0615145057602646 O
atom 9.4052140941485654 9.3111218511762566 19.0307573604017151 O
atom 0.0001231173305313 6.8758274431898450 20.3743430052958310 O
atom 0.0001418173347529 0.0000104822170469 23.0615145665922121 Ti
atom 0.0001404659070968 9.7411424222169529 23.0615145701277342 Ti
atom 2.6873112691908334 14.6117099272169035 23.0615145966442228 Ti
atom 2.6873116052090276 12.6064267172169302 23.0615145464187457 O
atom 2.6873126064764823 4.8705764072170012 23.0615145648244741 Ti
atom 8.0616542201150221 14.6117099272169035 23.0615145542178190 Ti
atom 8.0616556068983805 4.8705764772170026 23.0615146001796489 Ti
atom 8.0616559075611676 2.8652935472170316 23.0615145428832200 O
atom 5.3744847682590278 0.0000105022170479 23.0615145524500846 Ti
atom 5.3744834168314268 9.7411423922169504 23.0615145701277342 Ti
