#===============================================================================
# Created using the Atomic Simulation Environment (ASE)

# Mon Mar 23 14:01:32 2026

#=======================================================
lattice_vector 10.7486859018486420 0.0000000000000000 0.0000000000000000 
lattice_vector -0.0000027099268353 19.4822670799998114 0.0000000000000000 
lattice_vector 0.0000000000000000 0.0000000000000000 42.0922717992991977 
atom 0.0000692565800882 11.7463939961084023 16.3435857835076916 O
atom 0.0000684923315971 17.4769945861083471 16.3435857997296345 O
atom 0.0000706009367490 2.0052616861085024 16.3435857870432635 O
atom 0.0000698366885947 7.7358597861084482 16.3435858032652028 O
atom 4.0308175831364537 12.1764057840948396 15.0000000530328812 Ti
atom 1.3436453859982234 17.0469736690947826 15.0000000441941914 Ti
atom 1.3436456866572315 15.0417223190948093 15.0000001424612641 O
atom 4.0308173390424384 14.1816890640948259 15.0000001951819364 O
atom 4.0308178555111027 10.1711546840948586 15.0000001371579081 O
atom 1.3436451206908253 19.0522567890947592 15.0000001227037068 O
atom 2.6872400032952828 16.6169615211083475 16.3435858100243649 O
atom 4.0308188992086578 2.4352734340949298 15.0000000000000000 Ti
atom 1.3436467374262493 7.3058390190948801 15.0000000406586693 Ti
atom 1.3436470946537269 5.3005881890949142 15.0000001389255537 O
atom 2.6872419277602790 2.8652938611084862 16.3435857343224953 O
atom 4.0308185419772604 4.4405562040949036 15.0000000290123410 O
atom 4.0308192210809510 0.4300223340949569 15.0000001336223399 O
atom 1.3436464438345306 9.3111221190948594 15.0000001050261424 O
atom 2.6872414042206088 6.8758276211084546 16.3435857852754758 O
atom 9.4051604987053619 12.1764057740948370 15.0000000318197912 Ti
atom 6.7179883439935475 17.0469736790947834 15.0000000229809629 Ti
atom 6.7179886870789067 15.0417223690948152 15.0000001071057589 O
atom 8.0615835343278270 12.6064270111083907 16.3435857307869234 O
atom 9.4051601556160342 14.1816890440948100 15.0000000608320896 O
atom 9.4051608135065194 10.1711546840948621 15.0000001442289523 O
atom 6.7179880433307773 19.0522568090947644 15.0000000944195300 O
atom 8.0615830178590464 16.6169615311083518 16.3435857605266825 O
atom 9.4051618642753976 2.4352734240949383 15.0000000848527648 Ti
atom 6.7179897024927051 7.3058390190948854 15.0000000406586231 Ti
atom 6.7179900314359635 5.3005881690949144 15.0000001530677380 O
atom 9.4051617050342209 4.4405562140949302 15.0000002128594083 O
atom 9.4051621295789118 0.4300223340949542 15.0000001477646130 O
atom 6.7179894301142253 9.3111220790948632 15.0000001120970943 O
atom 8.0615843410028383 6.8758276411084491 16.3435857994176565 O
atom 5.3744122004333716 11.7463939261084054 16.3435857905787820 O
atom 5.3744114149715516 17.4769946061083417 16.3435857714454542 O
atom 5.3744135660031498 2.0052617561085024 16.3435857729010756 O
atom 5.3744128017550628 7.7358597461084502 16.3435858032651566 O
atom 0.0000866334408202 14.6117101551355102 19.0307573624816406 Ti
atom 1.3436638348413057 12.1764056981219699 17.6871715284365401 Ti
atom 0.0000709086666935 0.0000107861085235 16.3435858640971077 Ti
atom 9.4051775536938163 17.0469735831219147 17.6871715054556695 Ti
atom 9.4051778897080904 15.0417222331219449 17.6871715825094249 O
atom 0.0000869553169076 12.6064269351355396 19.0307573263983407 O
atom 1.3436635907472971 14.1816889681219553 17.6871716705855988 O
atom 5.3744476618384365 11.7463938441626663 21.7179287343150200 O
atom 1.3436641213580516 10.1711545981219942 17.6871715984193933 O
atom 5.3744468975899471 17.4769944341626129 21.7179287505369594 O
atom 9.4051772813154138 19.0522567031218983 17.6871716051784098 O
atom 0.0000863044974532 16.6169614351354831 19.0307572359303876 O
atom 0.0000879495132669 4.8705767151356039 19.0307573377330321 Ti
atom 1.3436651367714261 2.4352733481220601 17.6871714895458432 Ti
atom 0.0000695572390373 9.7411427261084285 16.3435858676326298 Ti
atom 9.4051789121930174 7.3058389731220164 17.6871715372754643 Ti
atom 9.4051792199229478 5.3005881731220406 17.6871716143293085 O
atom 0.0000881865361755 2.8652938451356227 19.0307572026550709 O
atom 1.3436647795400234 4.4405561381220293 17.6871715185581841 O
atom 5.3744490061950998 2.0052615341627642 21.7179287378505848 O
atom 1.3436654586436683 0.4300222681220879 17.6871716090260520 O
atom 5.3744482419469453 7.7358596341627095 21.7179287540725277 O
atom 9.4051786256723453 9.3111220531219949 17.6871715945718471 O
atom 0.0000876488544572 6.8758276351355825 19.0307572818923667 O
atom 2.6872403605227810 14.6117102311083791 16.3435858941491183 Ti
atom 9.4051959883947962 12.1764056321491001 20.3743430038402060 Ti
atom 8.0616030763623225 0.0000107101356565 19.0307573395007239 Ti
atom 6.7180237912565719 17.0469735171490484 20.3743429950015162 Ti
atom 6.7180240919155798 15.0417221671490715 20.3743430932685889 O
atom 2.6872406965409632 12.6064270211084057 16.3435858439236377 O
atom 9.4051957443007925 14.1816889121490881 20.3743431459892612 O
atom 8.0616014030625411 11.7463939101355344 19.0307572659824480 O
atom 9.4051962607694541 10.1711545321491226 20.3743430879652365 O
atom 8.0616006458850986 17.4769944901354819 19.0307572751332934 O
atom 6.7180235259491763 19.0522566371490250 20.3743430735110316 O
atom 8.0616184085536311 16.6169613691626097 21.7179287608316862 O
atom 2.6872416978084201 4.8705767111084768 16.3435858623293733 Ti
atom 9.4051973044670110 2.4352732821491916 20.3743429508073248 Ti
atom 8.0616017037214878 9.7411426501355596 19.0307573501073826 Ti
atom 6.7180251426845983 7.3058388671491414 20.3743429914659906 Ti
atom 6.7180254999120823 5.3005880371491765 20.3743430897328821 O
atom 8.0616203330186291 2.8652937091627475 21.7179286851298166 O
atom 9.4051969472356056 4.4405560521491649 20.3743429798196694 O
atom 8.0616027757033812 2.0052616101356340 19.0307572412336476 O
atom 9.4051976263393016 0.4300221821492186 20.3743430844296682 O
atom 8.0616019902420923 7.7358597101355802 19.0307572786688617 O
atom 6.7180248490928811 9.3111219671491199 20.3743430558334673 O
atom 8.0616198094789571 6.8758274691627150 21.7179287360828006 O
atom 8.0615833114469648 14.6117102311083826 16.3435858517227111 Ti
atom 4.0308530021150712 12.1764056221491010 20.3743429826271161 Ti
atom 2.6872601042247735 0.0000107401356533 19.0307573324297259 Ti
atom 1.3436808474032558 17.0469735271490457 20.3743429737882877 Ti
atom 1.3436811904886155 15.0417222171490774 20.3743430579130873 O
atom 2.6872760377375311 12.6064268591626512 21.7179286815942518 O
atom 4.0308526590257454 14.1816888921490705 20.3743430116394144 O
atom 2.6872584662803169 11.7463938501355365 19.0307572518402672 O
atom 4.0308533169162200 10.1711545321491226 20.3743430950362772 O
atom 2.6872576666764041 17.4769945501354762 19.0307572468491166 O
atom 1.3436805467404906 19.0522566571490302 20.3743430452268584 O
atom 2.6872755212687589 16.6169613791626176 21.7179287113340038 O
atom 8.0615846982303268 4.8705767811084790 16.3435858976845445 Ti
atom 4.0308543676851043 2.4352732721491996 20.3743430356600932 Ti
atom 2.6872587740103118 9.7411426201355624 19.0307573288941114 Ti
atom 1.3436822059024109 7.3058388671491468 20.3743429914659444 Ti
atom 1.3436825348456751 5.3005880171491748 20.3743431038750629 O
atom 8.0615849988931121 2.8652938511085080 16.3435858403881191 O
atom 4.0308542084439312 4.4405560621491915 20.3743431636667331 O
atom 2.6872598035659143 2.0052616901356335 19.0307572624469223 O
atom 4.0308546329886150 0.4300221821492159 20.3743430985719414 O
atom 2.6872590534599126 7.7358596601355805 19.0307572786688191 O
atom 1.3436819335239338 9.3111219271491255 20.3743430629044191 O
atom 2.6872768444125512 6.8758274891627114 21.7179287502249778 O
atom 5.3744295419386363 14.6117101551355084 19.0307573341975100 Ti
atom 6.7180067504101677 12.1764056981219646 17.6871714930813191 Ti
atom 5.3744138595909616 0.0000108061085245 16.3435858499549731 Ti
atom 4.0308345744852154 17.0469736131219136 17.6871715054557654 Ti
atom 4.0308348892863988 15.0417223031219400 17.6871716178649301 O
atom 5.3744297789615905 12.6064269351355218 19.0307571991195452 O
atom 6.7180064073208872 14.1816889881219375 17.6871715362357556 O
atom 0.0001047038430856 11.7463937741626676 21.7179287413861104 O
atom 6.7180070722823686 10.1711546081219915 17.6871715984193898 O
atom 0.0001039183812601 17.4769944541626074 21.7179287222527826 O
atom 4.0308343091778136 19.0522567431218945 17.6871715839652772 O
atom 5.3744292200665900 16.6169614551354812 19.0307572854279847 O
atom 5.3744309499351868 4.8705766351356132 19.0307573730882105 Ti
atom 6.7180081654775128 2.4352733481220730 17.6871714966166529 Ti
atom 5.3744125081633625 9.7411426961084242 16.3435858676326298 Ti
atom 4.0308359612686555 7.3058389031220159 17.6871715231333262 Ti
atom 4.0308362760696390 5.3005880431220387 17.6871715931160871 O
atom 5.3744312435269066 2.8652938351356365 19.0307573228628719 O
atom 6.7180079355259430 4.4405561281220578 17.6871717094763419 O
atom 0.0001060694128579 2.0052616041627642 21.7179287237084004 O
atom 6.7180084378521698 0.4300222481220924 17.6871715807416869 O
atom 0.0001053051647690 7.7358595941627106 21.7179287540724850 O
atom 4.0308356888902139 9.3111220031219943 17.6871716087139355 O
atom 5.3744306139208211 6.8758275951355827 19.0307572536080478 O
atom 5.3744650386991681 14.6117100031897742 24.4051003132889726 Ti
atom 6.7180422400996562 12.1764055461762304 23.0615144792438684 Ti
atom 5.3744493139250418 0.0000106341627852 21.7179288149044325 Ti
atom 4.0308700571035221 17.0469734311761734 23.0615144562629943 Ti
atom 4.0308703931177998 15.0417220811762054 23.0615145333167497 O
atom 5.3744653605752601 12.6064267831898018 24.4051002772056762 O
atom 6.7180419960056552 14.1816888161762158 23.0615146213929272 O
atom 0.0001401652481477 11.7463936922169268 27.0922716851223413 O
atom 6.7180425266163990 10.1711544461762546 23.0615145492267146 O
atom 0.0001394009996542 17.4769942822168716 27.0922717013442877 O
atom 4.0308697847251276 19.0522565511761570 23.0615145559857417 O
atom 5.3744647097558111 16.6169612831897417 24.4051001867377195 O
atom 5.3744663547716200 4.8705765631898652 24.4051002885403534 Ti
atom 6.7180435420297719 2.4352731961763219 23.0615144403531680 Ti
atom 5.3744479624973849 9.7411425741626907 21.7179288184399546 Ti
atom 4.0308714156027285 7.3058388211762777 23.0615144880827927 Ti
atom 4.0308717233326510 5.3005880211763028 23.0615145651366333 O
atom 5.3744665917945191 2.8652936931898845 24.4051001534623921 O
atom 6.7180431847983764 4.4405559861762915 23.0615144693655161 O
atom 0.0001415096048061 2.0052613822170260 27.0922716886579167 O
atom 6.7180438639020217 0.4300221161763496 23.0615145598333768 O
atom 0.0001407453566542 7.7358594822169708 27.0922717048798560 O
atom 4.0308711290820547 9.3111219011762572 23.0615145453791754 O
atom 5.3744660541128102 6.8758274831898447 24.4051002326996880 O
atom 8.0616187657811302 14.6117100791626395 21.7179288449564432 Ti
atom 4.0308884918045029 12.1764054802033641 25.7486859546475308 Ti
atom 2.6872955797720341 0.0000105581899182 24.4051002903080487 Ti
atom 1.3437162946662828 17.0469733652033071 25.7486859458088375 Ti
atom 1.3437165953252956 15.0417220152033337 25.7486860440759138 O
atom 8.0616191017993160 12.6064268691626680 21.7179287947309625 O
atom 4.0308882477105028 14.1816887602033503 25.7486860967965860 O
atom 2.6872939064722536 11.7463937581897966 24.4051002167897764 O
atom 4.0308887641791653 10.1711543802033830 25.7486860387725613 O
atom 2.6872931492948013 17.4769943381897441 24.4051002259406253 O
atom 1.3437160293588848 19.0522564852032836 25.7486860243183564 O
atom 2.6873109119633494 16.6169612172168719 27.0922717116390182 O
atom 8.0616201030667654 4.8705765591627381 21.7179288131366945 Ti
atom 4.0308898078767230 2.4352731302034534 25.7486859016146497 Ti
atom 2.6872942071312016 9.7411424981898218 24.4051003009147074 Ti
atom 1.3437176460943063 7.3058387152034037 25.7486859422733190 Ti
atom 1.3437180033217933 5.3005878852034387 25.7486860405402105 O
atom 2.6873128364283385 2.8652935572170093 27.0922716359371414 O
atom 4.0308894506453221 4.4405559002034263 25.7486859306269942 O
atom 2.6872952791130884 2.0052614581898958 24.4051001920409796 O
atom 4.0308901297490101 0.4300220302034803 25.7486860352369931 O
atom 2.6872944936518035 7.7358595581898424 24.4051002294761972 O
atom 1.3437173525025949 9.3111218152033821 25.7486860066407957 O
atom 2.6873123128886705 6.8758273172169773 27.0922716868901254 O
atom 2.6872758148566724 14.6117100791626431 21.7179288025300394 Ti
atom 9.4052314073734191 12.1764054702033615 25.7486859334344445 Ti
atom 8.0616385094831262 0.0000105881899150 24.4051002832370543 Ti
atom 6.7180592526616039 17.0469733752033044 25.7486859245956161 Ti
atom 6.7180595957469693 15.0417220652033379 25.7486860087204121 O
atom 8.0616544429958843 12.6064267072169134 27.0922716324015767 O
atom 9.4052310642840933 14.1816887402033327 25.7486859624467428 O
atom 8.0616368715386688 11.7463936981897987 24.4051002026475956 O
atom 9.4052317221745732 10.1711543802033830 25.7486860458435984 O
atom 8.0616360719347515 17.4769943981897384 24.4051001976564450 O
atom 6.7180589519988390 19.0522565052032888 25.7486859960341796 O
atom 8.0616539265271108 16.6169612272168763 27.0922716621413322 O
atom 2.6872772016400330 4.8705766291627413 21.7179288484918693 Ti
atom 9.4052327729434584 2.4352731202034614 25.7486859864674145 Ti
atom 8.0616371792686596 9.7411424681898229 24.4051002797014327 Ti
atom 6.7180606111607641 7.3058387152034099 25.7486859422732763 Ti
atom 6.7180609401040234 5.3005878652034362 25.7486860546823841 O
atom 2.6872775023028130 2.8652936991627698 21.7179287911954404 O
atom 9.4052326137022781 4.4405559102034537 25.7486861144740615 O
atom 8.0616382088242631 2.0052615381898953 24.4051002132542507 O
atom 9.4052330382469691 0.4300220302034776 25.7486860493792662 O
atom 8.0616374587182609 7.7358595081898427 24.4051002294761474 O
atom 6.7180603387822817 9.3111217752033877 25.7486860137117404 O
atom 8.0616552496708938 6.8758273372169727 27.0922717010323062 O
atom 0.0001220453483420 14.6117100031897706 24.4051002850048349 Ti
atom 1.3436992538198818 12.1764055461762268 23.0615144438886439 Ti
atom 0.0001063630006751 0.0000106541627862 21.7179288007623015 Ti
atom 9.4052129797435633 17.0469734611761723 23.0615144562630903 Ti
atom 9.4052132945447493 15.0417221511762005 23.0615145686722549 O
atom 0.0001222823712993 12.6064267831897840 24.4051001499268736 O
atom 1.3436989107305937 14.1816888361761979 23.0615144870430839 O
atom 5.3744831091014342 11.7463936222169281 27.0922716921934352 O
atom 1.3436995756920775 10.1711544561762519 23.0615145492267182 O
atom 5.3744823236396080 17.4769943022168661 27.0922716730601074 O
atom 9.4052127144361659 19.0522565911761532 23.0615145347726020 O
atom 0.0001217234762984 16.6169613031897399 24.4051002362353024 O
atom 0.0001234533448983 4.8705764831898746 24.4051003238955353 Ti
atom 1.3437006688872242 2.4352731961763348 23.0615144474239813 Ti
atom 0.0001050115730784 9.7411425441626864 21.7179288184399546 Ti
atom 9.4052143665270087 7.3058387511762772 23.0615144739406546 Ti
atom 9.4052146813279922 5.3005878911763009 23.0615145439234084 O
atom 0.0001237469366158 2.8652936831898987 24.4051002736701932 O
atom 1.3437004389356542 4.4405559761763200 23.0615146602836703 O
atom 5.3744844746712159 2.0052614522170260 27.0922716745157288 O
atom 1.3437009412618761 0.4300220961763542 23.0615145315490118 O
atom 5.3744837104231182 7.7358594422169720 27.0922717048798098 O
atom 9.4052140941485654 9.3111218511762566 23.0615145595212603 O
atom 0.0001231173305313 6.8758274431898450 24.4051002044153762 O
atom 0.0001418173347529 0.0000104822170469 27.0922717657117573 Ti
atom 0.0001404659070968 9.7411424222169529 27.0922717692472794 Ti
atom 2.6873112691908334 14.6117099272169035 27.0922717957637680 Ti
atom 2.6873116052090276 12.6064267172169302 27.0922717455382909 O
atom 2.6873126064764823 4.8705764072170012 27.0922717639440194 Ti
atom 8.0616542201150221 14.6117099272169035 27.0922717533373643 Ti
atom 8.0616556068983805 4.8705764772170026 27.0922717992991942 Ti
atom 8.0616559075611676 2.8652935472170316 27.0922717420027652 O
atom 5.3744847682590278 0.0000105022170479 27.0922717515696299 Ti
atom 5.3744834168314268 9.7411423922169504 27.0922717692472794 Ti
