#===============================================================================
# Created using the Atomic Simulation Environment (ASE)

# Mon Mar 23 14:01:33 2026

#=======================================================
lattice_vector 10.7486859018486420 0.0000000000000000 0.0000000000000000 
lattice_vector -10.7486177031074206 22.2506846489501129 0.0000000000000000 
lattice_vector 0.0000000000000000 0.0000000000000000 34.2902185595080837 
atom 0.0000893433676442 2.2259235115901554 18.3215219327141270 Ti
atom 5.3744493139250382 7.7885954201034444 18.3215214947351228 Ti
atom -1.3435056382279948 3.7091439129302390 15.9686963633323096 Ti
atom 9.4051805996349245 1.9533848636253137 16.9373774963480130 O
atom 1.3436663006741298 1.2003565041521260 17.3528356852619829 O
atom 0.0001401652481388 20.6696953212001162 17.3528411701848526 O
atom -1.3435059106064007 5.4649308648251402 15.0000000378966973 O
atom 0.0000890144242855 3.9816824756935780 17.3528407901744188 O
atom -5.3742195470770344 13.3512659116679018 18.3215218627375123 Ti
atom 0.0001404659070880 18.9139363453575307 18.3215222707461827 Ti
atom -6.7178144862459250 14.8344853159053649 15.9686969080802896 Ti
atom 4.0308717233326474 13.0787267481697871 16.9373777754064072 O
atom -4.0306427170502754 12.3256993768491530 17.3528352091685250 O
atom 5.3744490061950936 9.5443540753970773 17.3528405791017910 O
atom -6.7178147727665927 16.5902722122820521 15.0000005648198709 O
atom -5.3742198477358434 15.1070245947206434 17.3528409560165855 O
atom 2.6872430704496102 0.9278259001026794 15.9686868149740704 Ti
atom -6.7177974100441409 20.3971564432277361 15.9686969172486251 Ti
atom -2.6870828254863279 6.4904978052000759 15.9686863708036704 Ti
atom -8.0613742966396220 21.4227235422663895 16.9373832272250091 O
atom -6.7177976541381499 22.1529435557105039 15.0000005516691246 O
atom -8.0613919953763968 19.3715977009568086 15.0000060572754776 O
atom -6.7177971376694821 18.6413976162338813 16.9373779356877776 O
atom 8.0616033558119291 4.7347107127798331 16.9373828141486911 O
atom 6.7180262358760086 6.7630284850684710 17.3528351508061220 O
atom 2.6872427132221155 2.6835848934569602 15.0000057047514588 O
atom -2.6870657987818802 12.0531682267181139 15.9686867774518717 Ti
atom -1.3434885973816391 9.2718151350748244 15.9686962959582246 Ti
atom -8.0613916947174484 17.6158387338700244 15.9686871530060799 Ti
atom -2.6870655688300200 10.2973814975666702 16.9373829476929743 O
atom -1.3434889546130400 11.0276017463583056 15.0000000776852147 O
atom -2.6870831261452666 8.2462564502461877 15.0000054365964530 O
atom -1.3434882755093565 7.5160563319917504 16.9373773577362527 O
atom 2.6872944936517964 15.8600519532429409 16.9373834162538230 O
atom 1.3437173525025854 17.8883698115979684 17.3528356811995081 O
atom -2.6870660923696894 13.8089268907675287 15.0000058569877801 O
atom 8.0615860213737953 0.9278258796076657 15.9686867778263313 Ti
atom -1.3434544944752267 20.3971564242244767 15.9686969035055846 Ti
atom 2.6872601042247668 6.4904978280516845 15.9686863501202794 Ti
atom -2.6870314588527608 21.4227234788573782 16.9373831329954356 O
atom -1.3434548375645556 22.1529434732982118 15.0000004436964680 O
atom -2.6870490303099777 19.3715976415902809 15.0000060738771808 O
atom -1.3434541796740753 18.6413976196497053 16.9373779418790491 O
atom 2.6872603766032399 4.7347107516513667 16.9373827603992879 O
atom 1.3436832566673154 6.7630284889167891 17.3528351163796017 O
atom 8.0615857277858858 2.6835848783018199 15.0000056565815250 O
atom 2.6872772016400241 12.0531683050878566 15.9686867745931238 Ti
atom 4.0308543676850981 9.2718151673090343 15.9686963750843738 Ti
atom -2.6870487225799913 17.6158386973550698 15.9686871489243174 Ti
atom 2.6872775023028108 10.2973815400482280 16.9373830453926821 O
atom 4.0308542084439258 11.0276018439255328 15.0000002338273930 O
atom 2.6872598035659090 8.2462565305401743 15.0000054165246084 O
atom 4.0308546329886088 7.5160563388234900 16.9373773701189521 O
atom -2.6870484431303825 15.8600519094638912 16.9373834404073911 O
atom -4.0306255630663692 17.8883697799905264 17.3528357067135772 O
atom 2.6872768444125397 13.8089269151108276 15.0000058597089634 O
atom 5.3744322518654659 2.2259234979268823 18.3215219079490943 Ti
atom 0.0001063630006643 7.7885954307833840 18.3215214726910958 Ti
atom 4.0308372844120450 3.7091439391976944 15.9686963488402291 Ti
atom 4.0308375992132381 1.9533849419952047 16.9373774934895636 O
atom 6.7180091172477168 1.2003564567630549 17.3528355579664364 O
atom -5.3742027927472114 20.6696952633253268 17.3528412101912117 O
atom 4.0308370191046459 5.4649308896008915 15.0000000000000000 O
atom 5.3744319299934249 3.9816825171160897 17.3528408238521088 O
atom 0.0001234533448886 13.3512658587005664 18.3215219323395857 Ti
atom -5.3742024850172259 18.9139363190901122 18.3215222852383484 Ti
atom -1.3434715353216373 14.8344852477830500 15.9686969295127668 Ti
atom -1.3434712205206663 13.0787266240967934 16.9373778196318909 O
atom 1.3437004389356435 12.3256994603206138 17.3528353811634553 O
atom 0.0001060694128522 9.5443541298560213 17.3528405329041213 O
atom -1.3434718077000851 16.5902721753346718 15.0000006013560210 O
atom 0.0001231173305217 15.1070245460340544 17.3528409505742758 O
atom -9.4049511583392817 21.6952540493752792 18.3215320460107662 Ti
atom 0.0000896652437434 0.4701365028796460 19.2902183621784147 O
atom -9.4049508718225390 19.9394952155497336 19.2902130520672905 O
atom 5.3744496075167802 6.0328083451947974 19.2902179284186630 O
atom -4.0306423598188772 10.5699127480540636 18.3215314371029727 Ti
atom -5.3742193100541265 11.5954791615890134 19.2902180364487492 O
atom -4.0306420379466212 8.8141539556509265 19.2902124768369880 O
atom 0.0001407453566476 17.1581495681462890 19.2902185401852364 O
atom 6.7180265011834122 5.0072415434210846 18.3215314948156198 Ti
atom 6.7180268018424165 3.2514825043637274 19.2902126464053012 O
atom 1.3437176460943052 16.1325828942938152 18.3215320279300613 Ti
atom 1.3437180033217819 14.3768243105382609 19.2902129283220667 O
atom 1.3436835573300834 5.0072415419293650 18.3215314714110136 Ti
atom 1.3436839004154451 3.2514825310635036 19.2902125912951021 O
atom -4.0306252906878788 16.1325828942937974 18.3215320279300258 Ti
atom -4.0306249617446328 14.3768242998583471 19.2902129503661257 O
atom -4.0306082427704206 21.6952540322961518 18.3215320150544159 Ti
atom 5.3744324888884218 0.4701364413947879 19.2902182507355811 O
atom -4.0306079208982171 19.9394952243055386 19.2902130472365698 O
atom 0.0001066283080949 6.0328083490430995 19.2902178939921463 O
atom 1.3437006688872120 10.5699127514697864 18.3215314432940346 Ti
atom 0.0001237469366096 11.5954792109022566 19.2902181465310747 O
atom 1.3437009412618690 8.8141539244759315 19.2902124617331836 O
atom -5.3742021914255345 17.1581495331230478 19.2902185595080837 O
