#===============================================================================
# Created using the Atomic Simulation Environment (ASE)

# Mon Mar 23 14:01:30 2026

#=======================================================
lattice_vector 20.9123456580894320 0.0000000000000000 0.0000000000000000 
lattice_vector 0.0000005548747295 7.6004436200000010 0.0000000000000000 
lattice_vector 0.0000000000000000 0.0000000000000000 40.0485865132057341 
atom 17.5590461655764791 7.6004432572894940 15.1562895526997714 Ti
atom 5.5247367044235478 7.6004432466641934 17.8115585099236782 Ti
atom 17.9596602809620975 1.9001105508578973 15.0000004165760998 O
atom 15.6909231003429461 7.6004432806494959 15.8850886931998687 O
atom 10.7528219873781303 1.9001105366641866 17.8115587809722129 Ti
atom 12.3309593722777073 1.9001105672894929 15.1562895246995382 Ti
atom 10.4628365937977446 1.9001105806494982 15.8850885747983597 O
atom 7.3928595760650682 7.6004432333041896 17.0827594234803257 O
atom 12.7315738287264804 7.6004432808578972 15.0000005050854277 O
atom 12.6209448849208670 1.9001105333041817 17.0827597058922684 O
atom 17.5590458974552668 3.8002214472894917 15.1562895490653204 Ti
atom 5.5247364306206359 3.8002214266641925 17.8115585192398314 Ti
atom 17.9596605640811653 5.7003323608578986 15.0000004036254886 O
atom 15.6909228322217373 3.8002214906494962 15.8850886895654142 O
atom 10.7528221902862544 5.7003323466641858 17.8115588100478419 Ti
atom 12.3309596108632462 5.7003323772894952 15.1562895076544315 Ti
atom 10.4628368226070823 5.7003323706494973 15.8850886152373860 O
atom 7.3928592986277009 3.8002213933041875 17.0827594234803257 O
atom 12.7315735512891166 3.8002214708578954 15.0000005050854277 O
atom 12.6209450748783780 5.7003323233041812 17.0827597292861881 O
atom 0.2966490669890852 1.9001105166641854 17.8115588219748204 Ti
atom 1.8747875459733396 1.9001105472895030 15.1562890959376162 Ti
atom 0.0066643032728114 1.9001105406495031 15.8850883593420065 O
atom 17.8490311958268073 7.6004432133041782 17.0827599006172903 O
atom 2.2754021980613808 7.6004432708579079 15.0000000000000000 O
atom 2.1647723112768196 1.9001104833041846 17.0827595901533513 O
atom 7.1028744469714864 7.6004432972895035 15.1562891248579419 Ti
atom 15.9809080167521582 7.6004432266641802 17.8115591069975920 Ti
atom 7.5034878004796122 1.9001105508579008 15.0000002644926482 O
atom 5.2347513837852011 7.6004433306495063 15.8850882430912783 O
atom 0.2966493407920001 5.7003323466641858 17.8115588126586673 Ti
atom 1.8747878290924089 5.7003323772895023 15.1562890829870049 Ti
atom 0.0066645863918837 5.7003324106495050 15.8850883463913988 O
atom 17.8490309183894453 3.8002214233041776 17.0827599006172903 O
atom 2.2754019019917027 3.8002214608579075 15.0000000072689019 O
atom 2.1647725887141802 5.7003323633041845 17.0827595901533584 O
atom 7.1028741658996664 3.8002214072895022 15.1562891155417816 Ti
atom 15.9809077393147945 3.8002214366641800 17.8115591069975920 Ti
atom 7.5034881338139074 5.7003323708579012 15.0000002426859282 O
atom 5.2347511006661351 3.8002214506495058 15.8850882560418825 O
atom 1.6778305332841816 1.9001104258302099 21.3519280696850942 Ti
atom 20.3214090690910361 7.6004430556215441 22.2370279735910756 Ti
atom 8.2870996079381083 7.6004430449962435 24.8922969308149860 Ti
atom 3.2559689827327674 1.9001104464555278 18.6966583229683323 Ti
atom 1.3878456991331602 1.9001104398155280 19.4254575915943732 O
atom 20.7220231844766580 1.9001103491899480 22.0807388374674076 O
atom 1.2772165117272265 7.6004431522618026 21.5082173087465236 O
atom 19.2302127127971758 7.6004431224702049 20.6231290856217697 O
atom 18.4532860038575066 7.6004430789815469 22.9658271140911765 O
atom 3.6565836270918495 7.6004431700239321 18.5403692622480847 O
atom 5.1241219255437898 1.9001105330957870 17.9678476660597930 O
atom 3.5459537407673403 1.9001103924702101 20.6231287985517540 O
atom 13.5151848908926890 1.9001103349962372 24.8922972018635207 Ti
atom 8.4840558732875913 7.6004431664555288 18.6966582700905093 Ti
atom 17.3620894964579051 7.6004431458302051 21.3519283065398824 Ti
atom 15.0933222757922643 1.9001103656215435 22.2370279455908459 Ti
atom 13.2251994973123015 1.9001103789815488 22.9658269956896675 O
atom 8.8846692592987271 1.9001104500239308 18.5403693004386483 O
atom 10.3522084686865004 7.6004432630957899 17.9678476306412129 O
atom 10.1552224795796278 7.6004430316362406 24.1634978443716335 O
atom 6.6159328484930908 7.6004431998155324 19.4254574592186309 O
atom 15.4939367322410391 7.6004430791899473 22.0807389259767319 O
atom 16.9614751668008559 1.9001104322618034 21.5082172659555013 O
atom 15.3833077884354275 1.9001103316362324 24.1634981267835727 O
atom 1.6778308070870964 5.7003322558302107 21.3519280603689481 Ti
atom 20.3214088009698237 3.8002212456215418 22.2370279699566211 Ti
atom 8.2870993341351937 3.8002212249962430 24.8922969401311391 Ti
atom 3.2559692694862878 5.7003322764555282 18.6966583193338778 Ti
atom 1.3878459822522329 5.7003323098155310 19.4254575786437691 O
atom 20.7220234675957258 5.7003321591899487 22.0807388245167999 O
atom 1.2772162529221709 3.8002213422618025 21.5082173014776146 O
atom 19.2302124260436500 3.8002213224702035 20.6231290892562313 O
atom 18.4532857357362943 3.8002212889815463 22.9658271104567220 O
atom 3.6565833310221705 3.8002213600239312 18.5403692695169902 O
atom 5.1241222086628486 5.7003323430957877 17.9678476531091924 O
atom 3.5459540275208554 5.7003322724702095 20.6231287949173065 O
atom 13.5151850938008131 5.7003321449962376 24.8922972309391426 Ti
atom 8.4840556051663789 3.8002213364555293 18.6966582664560548 Ti
atom 17.3620892190205431 3.8002213458302037 21.3519283065398824 Ti
atom 15.0933225143778031 5.7003321756215453 22.2370279285457357 Ti
atom 13.2251997261216392 5.7003321689815474 22.9658270361286867 O
atom 8.8846694808391611 5.7003322700239307 18.5403693222453683 O
atom 10.3522081819329852 3.8002214330957891 17.9678476342756639 O
atom 10.1552222021422605 3.8002211916362389 24.1634978443716335 O
atom 6.6159325653740204 3.8002213798155311 19.4254574721692421 O
atom 15.4939364548036735 3.8002212691899464 22.0807389259767390 O
atom 16.9614754240187047 5.7003322522618047 21.5082172416414892 O
atom 15.3833079783929385 5.7003321216362322 24.1634981501775030 O
atom 3.0590119705036467 1.9001103149962362 24.8922972428661282 Ti
atom 18.9402276027959466 7.6004431664555199 18.6966587258808019 Ti
atom 6.9059181804948393 7.6004431458302193 21.3519277001498153 Ti
atom 4.6371504494879012 1.9001103456215536 22.2370275168289240 Ti
atom 2.7690272067873729 1.9001103389815537 22.9658267802333143 O
atom 19.3408416709336741 1.9001104500239270 18.5403694686471070 O
atom 20.8083806490047714 7.6004432530957819 17.9678479212939202 O
atom 20.6113940993413678 7.6004430116362292 24.1634983215085981 O
atom 17.0721045650508358 7.6004431998155209 19.4254579093272213 O
atom 5.0377651015759426 7.6004430691899589 22.0807384208913007 O
atom 6.5053033870772730 1.9001104322618141 21.5082168190213139 O
atom 4.9271352147913801 1.9001102816362352 24.1634980110446591 O
atom 12.1340034516259738 1.9001104258302102 21.3519280509492546 Ti
atom 9.8652373504860442 7.6004430956215527 22.2370275457492497 Ti
atom 18.7432709202667169 7.6004430249962311 24.8922975278888998 Ti
atom 13.7121407888176154 1.9001104564555185 18.6966587274162421 Ti
atom 11.8440179782946888 1.9001104798155224 19.4254578329519418 O
atom 10.2658507039941700 1.9001103491899514 22.0807386853839560 O
atom 11.7333900222084626 7.6004431222618072 21.5082171019392163 O
atom 8.7740411023515907 7.6004431324702155 20.6231286048503577 O
atom 7.9971142872997598 7.6004431289815573 22.9658266639825825 O
atom 14.1127552375374368 7.6004431700239214 18.5403697430194967 O
atom 15.5802936684628008 1.9001105230957778 17.9678480736821129 O
atom 14.0021262678306044 1.9001104324702072 20.6231289324629401 O
atom 3.0590122443065568 5.7003321449962376 24.8922972335499750 Ti
atom 18.9402273217241230 3.8002213464555186 18.6966587165646452 Ti
atom 6.9059178937413215 3.8002213258302184 21.3519277037842770 Ti
atom 4.6371507326069699 5.7003321756215541 22.2370275038783163 Ti
atom 2.7690274899064402 5.7003322089815551 22.9658267672827066 O
atom 19.3408419447365887 5.7003322600239290 18.5403694593309503 O
atom 20.8083803901997193 3.8002214430957815 17.9678479140250147 O
atom 20.6113938219040058 3.8002212216362286 24.1634983215086052 O
atom 17.0721042839790158 3.8002213698155209 19.4254579000110681 O
atom 5.0377648055062689 3.8002212591899580 22.0807384281602097 O
atom 6.5053036810996945 5.7003322422618128 21.5082168340191728 O
atom 4.9271354922287411 5.7003321616362355 24.1634980110446591 O
atom 12.1340036638502529 5.7003322358302091 21.3519280763904291 Ti
atom 9.8652370694142242 3.8002212056215532 22.2370275364330894 Ti
atom 18.7432706428293550 3.8002212349962301 24.8922975278888998 Ti
atom 13.7121410326248139 5.7003322664555176 18.6966587512702027 Ti
atom 11.8440181982479107 5.7003322698155232 19.4254578231757407 O
atom 10.2658510373284670 5.7003321691899513 22.0807386635772431 O
atom 11.7333897354549492 3.8002213422618056 21.5082171055736637 O
atom 8.7740408155980667 3.8002213024702147 20.6231286084848051 O
atom 7.9971140041806938 3.8002212489815563 22.9658266769331902 O
atom 14.1127549694162262 3.8002213600239205 18.5403697393850457 O
atom 15.5802939531690683 5.7003323430957780 17.9678480923144193 O
atom 14.0021265732164366 5.7003322124702072 20.6231289215595766 O
atom 7.8864848290583467 1.9001103314278376 25.0485860869511043 O
atom 13.1145713722010591 7.6004430614278391 25.0485860515325172 O
atom 7.8864851121774056 5.7003321414278396 25.0485860740004966 O
atom 13.1145710854475439 3.8002212314278392 25.0485860551669717 O
atom 2.6583978944298985 7.6004430514278329 25.0485863421852315 O
atom 18.3426565719773578 1.9001103214278283 25.0485864945734136 O
atom 2.6583976356248429 3.8002212414278329 25.0485863349163154 O
atom 18.3426568566836323 5.7003321414278290 25.0485865132057341 O
