#===============================================================================
# Created using the Atomic Simulation Environment (ASE)

# Mon Mar 23 14:01:32 2026

#=======================================================
lattice_vector 7.6004436200000214 0.0000000000000000 0.0000000000000000 
lattice_vector -0.0000015267178117 19.4822670799999393 0.0000000000000000 
lattice_vector 0.0000000000000000 0.0000000000000000 30.0000001248536492 
atom 1.9001106841592645 2.4352967530247258 15.0000000050000040 Ti
atom 7.6004429996649714 7.7358763780247095 15.0000000113964020 O
atom 7.6004434369747536 2.0052757880247274 15.0000000461036223 O
atom 1.9001099408002768 12.1764313630246956 15.0000000299999954 Ti
atom 7.6004422463061587 17.4770086880246787 15.0000000063964052 O
atom 7.6004426836157508 11.7464105880246983 15.0000000411036183 O
atom 5.7003325141592747 2.4352967430247272 15.0000000050000040 Ti
atom 3.8002211996649611 7.7358763880247103 15.0000000113964020 O
atom 3.8002216269747415 2.0052758080247282 15.0000000461036223 O
atom 5.7003317508002835 12.1764313930246963 15.0000000000000000 Ti
atom 3.8002204063061495 17.4770086880246787 15.0000000063964052 O
atom 3.8002208736157419 11.7464105880246947 15.0000000411036183 O
atom 5.7003319638261161 10.1711482930247055 15.0000000351464280 O
atom -0.0000014967172340 19.4822595880246787 15.0000000812500573 Ti
atom 1.9001105411358572 4.4405481030247209 15.0000000998536507 O
atom 1.9001109071850970 0.4300136330247377 15.0000000801464353 O
atom -0.0000007333584503 9.7411276480247064 15.0000000862500542 Ti
atom 1.9001098177769113 14.1816821630246910 15.0000001048536475 O
atom 1.9001101438261057 10.1711482830247046 15.0000000651464234 O
atom 3.8002203032827757 19.4822595880246752 15.0000000912500582 Ti
atom 5.7003324111358671 4.4405480930247254 15.0000000898536499 O
atom 5.7003327171851081 0.4300136230247376 15.0000000701464344 O
atom 3.8002210866415593 9.7411276480247082 15.0000000862500542 Ti
atom 5.7003316077769179 14.1816822230246888 15.0000001248536492 O
