#===============================================================================
# Created using the Atomic Simulation Environment (ASE)

# Mon Mar 23 14:01:32 2026

#=======================================================
lattice_vector 7.6004436200000214 0.0000000000000000 0.0000000000000000 
lattice_vector -0.0000015267178117 19.4822670799999393 0.0000000000000000 
lattice_vector 0.0000000000000000 0.0000000000000000 39.5006173812500236 
atom 1.9001106841593318 2.4352958535185412 16.9001235013963793 Ti
atom 7.6004429996650380 7.7358754785185262 16.9001235077927809 O
atom 7.6004434369748219 2.0052748885185436 16.9001235425000047 O
atom 1.9001099408003439 12.1764304635185105 16.9001235263963743 Ti
atom 7.6004422463062262 17.4770077885184953 16.9001235027927841 O
atom 7.6004426836158183 11.7464096885185132 16.9001235374999972 O
atom 5.7003325141593413 2.4352958435185426 16.9001235013963829 Ti
atom 3.8002211996650281 7.7358754885185261 16.9001235077927809 O
atom 3.8002216269748090 2.0052749085185440 16.9001235425000012 O
atom 5.7003317508003510 12.1764304935185130 16.9001234963963789 Ti
atom 3.8002204063062170 17.4770077885184953 16.9001235027927841 O
atom 3.8002208736158094 11.7464096885185132 16.9001235374999972 O
atom 5.7003319638261827 10.1711473935185239 16.9001235315428069 O
atom 1.9001105383211483 4.8705590186419920 15.0000001351464363 Ti
atom 7.6004430224798263 7.3058635136419801 15.0000000588963793 Ti
atom 1.9001103352953084 6.8758422386419804 15.0000000100000008 O
atom -0.0000003744943511 5.3005802436419911 15.0000000340428059 O
atom -0.0000007005435826 9.3111146036419772 15.0000001637500269 O
atom 1.9001106413445521 2.8653077186419940 15.0000000602927805 O
atom 1.9001097849622486 14.6116924686419605 15.0000001901464302 Ti
atom -0.0000013308790097 17.0469958636419463 15.0000001038963795 Ti
atom 1.9001095719364314 16.6169753986419444 15.0000001649999994 O
atom -0.0000011678532028 15.0417130736419562 15.0000002790428120 O
atom -0.0000014339023976 19.0522469536419479 15.0000001387500284 O
atom 1.9001099279856193 12.6064416086419673 15.0000000652927845 O
atom 5.7003323683211597 4.8705590186419929 15.0000001251464319 Ti
atom 3.8002212024798152 7.3058635136419801 15.0000000488963785 Ti
atom 5.7003321452953175 6.8758422386419804 15.0000000000000000 O
atom 3.8002214355056605 5.3005802236419921 15.0000000340428095 O
atom 3.8002210894564277 9.3111146036419754 15.0000001537500296 O
atom 5.7003325213445617 2.8653077186419993 15.0000000602927805 O
atom 5.7003315949622531 14.6116925386419609 15.0000001901464302 Ti
atom 3.8002203991210002 17.0469958636419463 15.0000000938963787 Ti
atom 5.7003313919364453 16.6169753386419501 15.0000001649999994 O
atom 3.8002206721468070 15.0417130836419641 15.0000002790428120 O
atom 3.8002203060976121 19.0522469636419416 15.0000001487500327 O
atom 5.7003317079856304 12.6064415786419630 15.0000000652927845 O
atom 1.9001105483211140 4.8705594683950837 18.8002470551464320 Ti
atom 7.6004430124797935 7.3058639633950717 18.8002469788963822 Ti
atom -0.0000014967171668 19.4822586885184954 16.9001235776464327 Ti
atom 1.9001106841592645 2.4352967530247258 24.5006172613963820 Ti
atom 1.9001105411359240 4.4405472035185376 16.9001235962500331 O
atom 1.9001103352952742 6.8758426883950730 18.8002470600000002 O
atom -0.0000003744943847 5.3005806933950836 18.8002471040428105 O
atom 7.6004429996649714 7.7358763780247095 24.5006172677927800 O
atom -0.0000007205436169 9.3111150633950679 18.8002470337500291 O
atom 7.6004434369747536 2.0052757880247274 24.5006173025000002 O
atom 1.9001109071851641 0.4300127335185536 16.9001235765428142 O
atom 1.9001106513445167 2.8653081883950864 18.8002469302927828 O
atom 1.9001097949622157 14.6116929083950531 18.8002470101464318 Ti
atom 7.6004422591209764 17.0469963133950415 18.8002469138963839 Ti
atom -0.0000007333583831 9.7411267485185231 16.9001235826464367 Ti
atom 1.9001099408002768 12.1764313630246956 24.5006172863963734 Ti
atom 1.9001098177769786 14.1816812635185059 16.9001236012500300 O
atom 1.9001095719364032 16.6169757783950409 18.8002468850000000 O
atom -0.0000011278532363 15.0417135233950567 18.8002468790428097 O
atom 7.6004422463061587 17.4770086880246787 24.5006172627927832 O
atom -0.0000014639024304 19.0522473933950387 18.8002470287500287 O
atom 7.6004426836157508 11.7464105880246983 24.5006172974999963 O
atom 1.9001101438261734 10.1711473835185231 16.9001235615428094 O
atom 1.9001099279855913 12.6064419883950585 18.8002469552927849 O
atom 5.7003323783211242 4.8705594683950855 18.8002470451464347 Ti
atom 3.8002212024797823 7.3058639533950700 18.8002469788963786 Ti
atom 3.8002203032828437 19.4822586885184919 16.9001235876464371 Ti
atom 5.7003325141592747 2.4352967430247272 24.5006172613963820 Ti
atom 5.7003324111359346 4.4405471935185412 16.9001235862500323 O
atom 5.7003321452952846 6.8758426783950739 18.8002470500000065 O
atom 3.8002214355056276 5.3005806733950829 18.8002471040428105 O
atom 3.8002211996649611 7.7358763880247103 24.5006172677927800 O
atom 3.8002211094563938 9.3111150533950688 18.8002470337500291 O
atom 3.8002216269747415 2.0052758080247282 24.5006173025000002 O
atom 5.7003327171851748 0.4300127235185535 16.9001235665428169 O
atom 5.7003325313445270 2.8653081783950918 18.8002469302927828 O
atom 5.7003316049622210 14.6116929883950508 18.8002470101464318 Ti
atom 3.8002204291209680 17.0469963033950407 18.8002469138963839 Ti
atom 3.8002210866416264 9.7411267485185249 16.9001235826464367 Ti
atom 5.7003317508002835 12.1764313930246963 24.5006172563963780 Ti
atom 5.7003316077769846 14.1816813235185037 16.9001236212500316 O
atom 5.7003313919364080 16.6169758383950494 18.8002468850000000 O
atom 3.8002206621467725 15.0417135333950505 18.8002468790428097 O
atom 3.8002204063061495 17.4770086880246787 24.5006172627927832 O
atom 3.8002203360975790 19.0522474033950431 18.8002470387500296 O
atom 3.8002208736157419 11.7464105880246947 24.5006172974999963 O
atom 5.7003319638261161 10.1711482930247055 24.5006172915428060 O
atom 5.7003317179855939 12.6064420783950517 18.8002469452927841 O
atom 1.9001105383210810 4.8705599181481762 22.6004938951464318 Ti
atom 7.6004430224797597 7.3058644131481643 22.6004938188963784 Ti
atom -0.0000014967171981 19.4822591082715881 20.7003704476464314 Ti
atom 1.9001106841592996 2.4352962832716343 20.7003703713963851 Ti
atom 1.9001105411358947 4.4405475932716287 20.7003704762500256 O
atom 1.9001103352952409 6.8758431381481655 22.6004937700000035 O
atom -0.0000003744944183 5.3005811431481753 22.6004937940428086 O
atom 7.6004429896649999 7.7358759982716165 20.7003703877927769 O
atom -0.0000007005436497 9.3111155031481623 22.6004939237500331 O
atom 7.6004434369747917 2.0052752982716355 20.7003703825000080 O
atom 1.9001109071851328 0.4300131532716456 20.7003704065428131 O
atom 1.9001106413444850 2.8653086181481782 22.6004938202927796 O
atom 1.9001097849621817 14.6116933681481456 22.6004939501464399 Ti
atom -0.0000013308790769 17.0469967631481332 22.6004938638963715 Ti
atom -0.0000007533584190 9.7411272282716119 20.7003704626464291 Ti
atom 1.9001099308003080 12.1764309432716011 20.7003703863963757 Ti
atom 1.9001098177769391 14.1816817932715953 20.7003705012500312 O
atom 1.9001095719363641 16.6169762981481313 22.6004939249999985 O
atom -0.0000011678532699 15.0417139731481395 22.6004940390428111 O
atom 7.6004422463061987 17.4770081582715875 20.7003703827927801 O
atom -0.0000014339024648 19.0522478531481347 22.6004938987500346 O
atom 7.6004426736157820 11.7464101882716037 20.7003704275000011 O
atom 1.9001101338261355 10.1711478832716153 20.7003704415428125 O
atom 1.9001099279855524 12.6064425081481488 22.6004938252927836 O
atom 5.7003323683210914 4.8705599181481771 22.6004938851464310 Ti
atom 3.8002212024797482 7.3058644131481625 22.6004938088963705 Ti
atom 3.8002203032828108 19.4822591182715854 20.7003704476464314 Ti
atom 5.7003325141593102 2.4352962732716352 20.7003703613963772 Ti
atom 5.7003324111359062 4.4405475832716332 20.7003704662500319 O
atom 5.7003321452952500 6.8758431381481655 22.6004937600000027 O
atom 3.8002214355055934 5.3005811231481763 22.6004937940428086 O
atom 3.8002211996649895 7.7358759982716183 20.7003703877927840 O
atom 3.8002210894563602 9.3111155031481569 22.6004939137500322 O
atom 3.8002216269747784 2.0052753182716354 20.7003703825000080 O
atom 5.7003327171851437 0.4300131432716456 20.7003704265428148 O
atom 5.7003325213444942 2.8653086181481835 22.6004938202927796 O
atom 5.7003315949621873 14.6116934381481425 22.6004939501464399 Ti
atom 3.8002203991209331 17.0469967631481296 22.6004938538963778 Ti
atom 3.8002210766415923 9.7411272282716155 20.7003704626464291 Ti
atom 5.7003317408003147 12.1764309832715991 20.7003703963963765 Ti
atom 5.7003316077769446 14.1816818432715994 20.7003704712500287 O
atom 5.7003313919363778 16.6169762381481334 22.6004939249999985 O
atom 3.8002206721467400 15.0417139831481457 22.6004940390428111 O
atom 3.8002204163061886 17.4770081682715883 20.7003703827927801 O
atom 3.8002203060975446 19.0522478631481285 22.6004939087500354 O
atom 3.8002208636157722 11.7464101782716028 20.7003704275000011 O
atom 5.7003319538261463 10.1711478832716153 20.7003704615428070 O
atom 5.7003317079855638 12.6064424781481481 22.6004938252927836 O
atom -0.0000014967172340 19.4822595880246787 24.5006173376464353 Ti
atom 1.9001105411358572 4.4405481030247209 24.5006173562500287 O
atom 1.9001109071850970 0.4300136330247377 24.5006173365428133 O
atom -0.0000007333584503 9.7411276480247064 24.5006173426464322 Ti
atom 1.9001098177769113 14.1816821630246910 24.5006173612500255 O
atom 1.9001101438261057 10.1711482830247046 24.5006173215428014 O
atom 3.8002203032827757 19.4822595880246752 24.5006173476464362 Ti
atom 5.7003324111358671 4.4405480930247254 24.5006173462500279 O
atom 5.7003327171851081 0.4300136230247376 24.5006173265428124 O
atom 3.8002210866415593 9.7411276480247082 24.5006173426464322 Ti
atom 5.7003316077769179 14.1816822230246888 24.5006173812500272 O
