#===============================================================================
# Created using the Atomic Simulation Environment (ASE)

# Mon Mar 23 14:01:33 2026

#=======================================================
lattice_vector 11.0253972427838800 0.0000000000000000 0.0000000000000000 
lattice_vector 3.2078926060844428 10.5484209638685815 0.0000000000000000 
lattice_vector 0.0000000000000000 0.0000000000000000 34.1629386624373979 
atom 4.6096119662776065 3.4162495579195462 15.8573266378580726 Ti
atom 7.4076025001688803 5.4898915508474024 15.0000000094947907 O
atom 5.8036562139676242 0.2156810285865595 15.0000000000000000 O
atom 6.2135582777403080 8.6904600548955866 15.8573266521003049 Ti
atom 1.8949038787769446 5.4898915596486582 15.0000000142422039 O
atom 10.1223106237190379 3.4162495582323520 15.8573266372781561 Ti
atom 11.7262569297877164 8.6904600512108452 15.8573266589314770 Ti
atom 0.2909575925756900 0.2156810461890742 15.0000000094948120 O
atom 5.7620150271512527 4.2703120097629919 19.1629239352185365 Ti
atom 6.9560592243183876 2.6591209947611230 19.1629092670523917 O
atom 4.5679709027420046 5.8815030434813336 19.1629386529425823 O
atom 5.8036561971266627 4.3011963230025199 17.2037315008120899 O
atom 7.3243202161349910 5.4281229482063402 18.9183849183707586 O
atom 7.3659613355875040 5.4590072416054189 16.9591924364901629 Ti
atom 3.0056656686294057 2.2275543252709542 18.0610581170168771 Ti
atom 8.5600055273606035 3.8478162226060042 16.9591777757350926 O
atom 6.1719172057842249 7.0701982801274701 16.9592071663726998 O
atom 8.9282665191772068 6.6168181760512228 16.7146534270534559 O
atom 5.7620150409657578 0.1847966778990548 16.9591923985109112 Ti
atom 4.6096119746980824 7.5017648182494518 18.0610581386701909 Ti
atom 10.1639518388233032 9.1220266843770190 16.9591777709876972 O
atom 4.5679709081360365 1.7959877581844412 16.9592071352245810 O
atom 7.3243202329759516 1.3426076449891244 16.7146534128112521 O
atom 7.3659613386139648 9.5445224011239524 19.1629238924918788 Ti
atom 8.5600055357810874 7.9333314565321400 19.1629092623049928 O
atom 2.9640245912793080 0.6072925289027785 19.1629386292055308 O
atom 7.4076025170098516 9.5754067734115171 17.2037314960647016 O
atom 5.7203739299337304 0.1539124171442419 18.9183849041285512 O
atom 1.8532626666991261 5.4590072592129424 16.9591924249115635 Ti
atom 8.5183643290972952 2.2275543366279607 18.0610581380902815 Ti
atom 3.0473068837336861 3.8478162237299829 16.9591777736513407 O
atom 11.6846158325701897 7.0701982929262730 16.9592071637090172 O
atom 3.4155678725238157 6.6168181837335105 16.7146534128112023 O
atom 11.2747136148612590 4.2703120288072984 19.1629239209762723 Ti
atom 1.4433605806914562 2.6591209958851039 19.1629092649686328 O
atom 10.0806695241339490 5.8815030610838450 19.1629386624373979 O
atom 11.3163548185185991 4.3011963318037782 17.2037315055594959 O
atom 1.8116215694816007 5.4281229646898872 18.9183849088759040 O
atom 12.8786599263239712 9.5445224201682599 19.1629238782496181 Ti
atom 3.0473068837336763 7.9333314514156239 19.1629092507264147 O
atom 8.4767232318797756 0.6072925431383657 19.1629386238781976 O
atom 12.9203011384017881 9.5754067822127755 17.2037315008121041 O
atom 0.2076752832803403 0.1539124336277889 18.9183848946337037 O
atom 0.2493163804978789 0.1847966929458179 16.9591923916797285 Ti
atom 10.1223106267454970 7.5017648233659626 18.0610581502487690 Ti
atom 4.6512531898023513 9.1220266727021979 16.9591777715676173 O
atom 10.0806695211074846 1.7959877695464654 16.9592071352245597 O
atom 1.8116215863225660 1.3426076614726701 16.7146534033164116 O
