#===============================================================================
# Created using the Atomic Simulation Environment (ASE)

# Mon Mar 23 14:01:35 2026

#=======================================================
lattice_vector 9.2839361000000000 0.0000000000000000 0.0000000000000000 
lattice_vector 0.0000000000000000 5.9471245399999999 0.0000000000000000 
lattice_vector 0.0000000000000000 0.0000000000000000 59.6576585600000016 
atom 2.3209840400000008 1.4867811399999995 15.9029554199999996 Ti
atom 9.2839360399999986 0.0000000100000000 22.8658922699999998 Ti
atom 0.9029265000000000 1.4867811300000000 17.3209789900000004 O
atom 1.4180575900000001 0.0000000000000000 15.0000000000000000 O
atom 3.2239105299999999 0.0000000000000000 16.8059109000000007 O
atom 2.3209840400000008 4.4603433999999993 15.9029554199999996 Ti
atom 9.2839360299999996 2.9735622699999991 22.8658922699999998 Ti
atom 0.9029265000000000 4.4603433999999993 17.3209789900000004 O
atom 1.4180575900000001 2.9735622699999991 15.0000000000000000 O
atom 3.2239105299999999 2.9735622699999991 16.8059109000000007 O
atom 6.9629519999999996 1.4867811300000000 15.9029554300000004 Ti
atom 4.6419680000000003 0.0000000100000000 22.8658922799999971 Ti
atom 5.5448945299999997 1.4867811300000000 17.3209789999999977 O
atom 6.0600256000000012 0.0000000000000000 15.0000000199999999 O
atom 7.8658785300000016 0.0000000000000000 16.8059109199999988 O
atom 6.9629519900000014 4.4603434099999992 15.9029554300000004 Ti
atom 4.6419680100000003 2.9735622799999990 22.8658922799999971 Ti
atom 5.5448945299999997 4.4603433999999993 17.3209789999999977 O
atom 6.0600256100000003 2.9735622699999991 15.0000000199999999 O
atom 7.8658785300000016 2.9735622699999991 16.8059109199999988 O
atom 2.3209840500000003 1.4867811399999995 20.5449133099999983 Ti
atom 9.2839360500000030 5.9471245299999991 18.2239343699999985 Ti
atom 0.9029265000000000 1.4867811399999995 21.9629369099999963 O
atom 3.7390416400000004 1.4867811300000000 19.1268898699999994 O
atom 1.4180576000000003 0.0000000000000000 19.6419579400000011 O
atom 3.2239105299999999 0.0000000000000000 21.4478688099999992 O
atom 2.3209840500000003 4.4603434099999992 20.5449133199999991 Ti
atom 9.2839360399999986 2.9735622600000000 18.2239343600000012 Ti
atom 0.9029265000000000 4.4603434099999992 21.9629369099999963 O
atom 3.7390416400000004 4.4603434099999992 19.1268898699999994 O
atom 1.4180576000000003 2.9735622699999991 19.6419579400000011 O
atom 3.2239105399999999 2.9735622699999991 21.4478688099999992 O
atom 6.9629519999999996 1.4867811399999995 20.5449133300000000 Ti
atom 4.6419680100000003 0.0000000000000000 18.2239343699999985 Ti
atom 5.5448945200000006 1.4867811399999995 21.9629369099999963 O
atom 8.3810096400000020 1.4867811199999996 19.1268898699999994 O
atom 6.0600256200000020 0.0000000000000000 19.6419579599999992 O
atom 7.8658785400000006 0.0000000000000000 21.4478688299999973 O
atom 6.9629520100000022 4.4603434099999992 20.5449133300000000 Ti
atom 4.6419680100000003 2.9735622699999991 18.2239343699999985 Ti
atom 5.5448945200000006 4.4603434199999983 21.9629369200000006 O
atom 8.3810096400000020 4.4603433999999993 19.1268898599999986 O
atom 6.0600256200000020 2.9735622699999991 19.6419579599999992 O
atom 7.8658785400000006 2.9735622699999991 21.4478688299999973 O
atom 2.3209840400000008 1.4867811399999995 25.1868713000000000 Ti
atom 9.2839360399999986 0.0000000100000000 32.1498081499999984 Ti
atom 0.9029265000000000 1.4867811300000000 26.6048948700000025 O
atom 3.7390416200000010 1.4867811399999995 23.7688478100000005 O
atom 1.4180575900000001 0.0000000000000000 24.2839158800000021 O
atom 3.2239105299999999 0.0000000000000000 26.0898267799999992 O
atom 2.3209840400000008 4.4603433999999993 25.1868713000000000 Ti
atom 9.2839360299999996 2.9735622699999991 32.1498081499999984 Ti
atom 0.9029265000000000 4.4603433999999993 26.6048948700000025 O
atom 3.7390416300000004 4.4603434099999992 23.7688478100000005 O
atom 1.4180575900000001 2.9735622699999991 24.2839158800000021 O
atom 3.2239105299999999 2.9735622699999991 26.0898267799999992 O
atom 6.9629519999999996 1.4867811300000000 25.1868713100000008 Ti
atom 4.6419680000000003 0.0000000100000000 32.1498081599999992 Ti
atom 5.5448945299999997 1.4867811300000000 26.6048948799999998 O
atom 8.3810096299999994 1.4867811300000000 23.7688478100000005 O
atom 6.0600256000000012 0.0000000000000000 24.2839159000000002 O
atom 7.8658785300000016 0.0000000000000000 26.0898268000000009 O
atom 6.9629519900000014 4.4603434099999992 25.1868713100000008 Ti
atom 4.6419680100000003 2.9735622799999990 32.1498081599999992 Ti
atom 5.5448945299999997 4.4603433999999993 26.6048948799999998 O
atom 8.3810096299999994 4.4603434099999992 23.7688477999999996 O
atom 6.0600256100000003 2.9735622699999991 24.2839159000000002 O
atom 7.8658785300000016 2.9735622699999991 26.0898268000000009 O
atom 2.3209840500000003 1.4867811399999995 29.8288291900000004 Ti
atom 9.2839360500000030 5.9471245299999991 27.5078502500000006 Ti
atom 0.9029265000000000 1.4867811399999995 31.2468527899999984 O
atom 3.7390416400000004 1.4867811300000000 28.4108057500000015 O
atom 1.4180576000000003 0.0000000000000000 28.9258738199999996 O
atom 3.2239105299999999 0.0000000000000000 30.7317846899999978 O
atom 2.3209840500000003 4.4603434099999992 29.8288292000000013 Ti
atom 9.2839360399999986 2.9735622600000000 27.5078502399999998 Ti
atom 0.9029265000000000 4.4603434099999992 31.2468527899999984 O
atom 3.7390416400000004 4.4603434099999992 28.4108057500000015 O
atom 1.4180576000000003 2.9735622699999991 28.9258738199999996 O
atom 3.2239105399999999 2.9735622699999991 30.7317846899999978 O
atom 6.9629519999999996 1.4867811399999995 29.8288292099999985 Ti
atom 4.6419680100000003 0.0000000000000000 27.5078502500000006 Ti
atom 5.5448945200000006 1.4867811399999995 31.2468527899999984 O
atom 8.3810096400000020 1.4867811199999996 28.4108057500000015 O
atom 6.0600256200000020 0.0000000000000000 28.9258738399999977 O
atom 7.8658785400000006 0.0000000000000000 30.7317847099999994 O
atom 6.9629520100000022 4.4603434099999992 29.8288292099999985 Ti
atom 4.6419680100000003 2.9735622699999991 27.5078502500000006 Ti
atom 5.5448945200000006 4.4603434199999983 31.2468527999999992 O
atom 8.3810096400000020 4.4603433999999993 28.4108057400000007 O
atom 6.0600256200000020 2.9735622699999991 28.9258738399999977 O
atom 7.8658785400000006 2.9735622699999991 30.7317847099999994 O
atom 2.3209840400000008 1.4867811399999995 34.4707871800000021 Ti
atom 9.2839360399999986 0.0000000100000000 41.4337240300000005 Ti
atom 0.9029265000000000 1.4867811300000000 35.8888107500000046 O
atom 3.7390416200000010 1.4867811399999995 33.0527636899999990 O
atom 1.4180575900000001 0.0000000000000000 33.5678317600000042 O
atom 3.2239105299999999 0.0000000000000000 35.3737426599999978 O
atom 2.3209840400000008 4.4603433999999993 34.4707871800000021 Ti
atom 9.2839360299999996 2.9735622699999991 41.4337240300000005 Ti
atom 0.9029265000000000 4.4603433999999993 35.8888107500000046 O
atom 3.7390416300000004 4.4603434099999992 33.0527636899999990 O
atom 1.4180575900000001 2.9735622699999991 33.5678317600000042 O
atom 3.2239105299999999 2.9735622699999991 35.3737426599999978 O
atom 6.9629519999999996 1.4867811300000000 34.4707871899999958 Ti
atom 4.6419680000000003 0.0000000100000000 41.4337240400000013 Ti
atom 5.5448945299999997 1.4867811300000000 35.8888107599999984 O
atom 8.3810096299999994 1.4867811300000000 33.0527636899999990 O
atom 6.0600256000000012 0.0000000000000000 33.5678317799999988 O
atom 7.8658785300000016 0.0000000000000000 35.3737426799999994 O
atom 6.9629519900000014 4.4603434099999992 34.4707871899999958 Ti
atom 4.6419680100000003 2.9735622799999990 41.4337240400000013 Ti
atom 5.5448945299999997 4.4603433999999993 35.8888107599999984 O
atom 8.3810096299999994 4.4603434099999992 33.0527636799999982 O
atom 6.0600256100000003 2.9735622699999991 33.5678317799999988 O
atom 7.8658785300000016 2.9735622699999991 35.3737426799999994 O
atom 2.3209840500000003 1.4867811399999995 39.1127450700000026 Ti
atom 9.2839360500000030 5.9471245299999991 36.7917661299999992 Ti
atom 0.9029265000000000 1.4867811399999995 40.5307686700000005 O
atom 3.7390416400000004 1.4867811300000000 37.6947216300000036 O
atom 1.4180576000000003 0.0000000000000000 38.2097897000000017 O
atom 3.2239105299999999 0.0000000000000000 40.0157005699999928 O
atom 2.3209840500000003 4.4603434099999992 39.1127450799999963 Ti
atom 9.2839360399999986 2.9735622600000000 36.7917661199999984 Ti
atom 0.9029265000000000 4.4603434099999992 40.5307686700000005 O
atom 3.7390416400000004 4.4603434099999992 37.6947216300000036 O
atom 1.4180576000000003 2.9735622699999991 38.2097897000000017 O
atom 3.2239105399999999 2.9735622699999991 40.0157005699999928 O
atom 6.9629519999999996 1.4867811399999995 39.1127450900000042 Ti
atom 4.6419680100000003 0.0000000000000000 36.7917661299999992 Ti
atom 5.5448945200000006 1.4867811399999995 40.5307686700000005 O
atom 8.3810096400000020 1.4867811199999996 37.6947216300000036 O
atom 6.0600256200000020 0.0000000000000000 38.2097897199999963 O
atom 7.8658785400000006 0.0000000000000000 40.0157005900000016 O
atom 6.9629520100000022 4.4603434099999992 39.1127450900000042 Ti
atom 4.6419680100000003 2.9735622699999991 36.7917661299999992 Ti
atom 5.5448945200000006 4.4603434199999983 40.5307686800000013 O
atom 8.3810096400000020 4.4603433999999993 37.6947216200000028 O
atom 6.0600256200000020 2.9735622699999991 38.2097897199999963 O
atom 7.8658785400000006 2.9735622699999991 40.0157005900000016 O
atom 2.3209840400000008 1.4867811399999995 43.7547030599999971 Ti
atom 3.7390416200000010 1.4867811399999995 42.3366795699999940 O
atom 1.4180575900000001 0.0000000000000000 42.8517476399999993 O
atom 3.2239105299999999 0.0000000000000000 44.6576585399999999 O
atom 2.3209840400000008 4.4603433999999993 43.7547030599999971 Ti
atom 3.7390416300000004 4.4603434099999992 42.3366795699999940 O
atom 1.4180575900000001 2.9735622699999991 42.8517476399999993 O
atom 3.2239105299999999 2.9735622699999991 44.6576585399999999 O
atom 6.9629519999999996 1.4867811300000000 43.7547030699999979 Ti
atom 8.3810096299999994 1.4867811300000000 42.3366795699999940 O
atom 6.0600256000000012 0.0000000000000000 42.8517476600000009 O
atom 7.8658785300000016 0.0000000000000000 44.6576585600000016 O
atom 6.9629519900000014 4.4603434099999992 43.7547030699999979 Ti
atom 8.3810096299999994 4.4603434099999992 42.3366795600000003 O
atom 6.0600256100000003 2.9735622699999991 42.8517476600000009 O
atom 7.8658785300000016 2.9735622699999991 44.6576585600000016 O
