#===============================================================================
# Created using the Atomic Simulation Environment (ASE)

# Mon Mar 23 14:01:32 2026

#=======================================================
lattice_vector 10.7486859018486420 0.0000000000000000 0.0000000000000000 
lattice_vector -0.0000027099268353 19.4822670799998114 0.0000000000000000 
lattice_vector 0.0000000000000000 0.0000000000000000 30.0000001668976175 
atom 0.0001401652481477 11.7463936922169268 15.0000000527207646 O
atom 0.0001394009996542 17.4769942822168716 15.0000000689427111 O
atom 0.0001415096048061 2.0052613822170260 15.0000000562563400 O
atom 0.0001407453566542 7.7358594822169708 15.0000000724782794 O
atom 2.6873109119633494 16.6169612172168719 15.0000000792374415 O
atom 2.6873128364283385 2.8652935572170093 15.0000000035355647 O
atom 2.6873123128886705 6.8758273172169773 15.0000000544885488 O
atom 8.0616544429958843 12.6064267072169134 15.0000000000000000 O
atom 8.0616539265271108 16.6169612272168763 15.0000000297397555 O
atom 8.0616552496708938 6.8758273372169727 15.0000000686307295 O
atom 5.3744831091014342 11.7463936222169281 15.0000000597918586 O
atom 5.3744823236396080 17.4769943022168661 15.0000000406585308 O
atom 5.3744844746712159 2.0052614522170260 15.0000000421141522 O
atom 5.3744837104231182 7.7358594422169720 15.0000000724782332 O
atom 0.0001418173347529 0.0000104822170469 15.0000001333101807 Ti
atom 0.0001404659070968 9.7411424222169529 15.0000001368457028 Ti
atom 2.6873112691908334 14.6117099272169035 15.0000001633621913 Ti
atom 2.6873116052090276 12.6064267172169302 15.0000001131367142 O
atom 2.6873126064764823 4.8705764072170012 15.0000001315424427 Ti
atom 8.0616542201150221 14.6117099272169035 15.0000001209357876 Ti
atom 8.0616556068983805 4.8705764772170026 15.0000001668976175 Ti
atom 8.0616559075611676 2.8652935472170316 15.0000001096011886 O
atom 5.3744847682590278 0.0000105022170479 15.0000001191680532 Ti
atom 5.3744834168314268 9.7411423922169504 15.0000001368457028 Ti
