#===============================================================================
# Created using the Atomic Simulation Environment (ASE)

# Mon Mar 23 14:01:32 2026

#=======================================================
lattice_vector 10.7486859018486420 0.0000000000000000 0.0000000000000000 
lattice_vector -0.0000027099268353 19.4822670799998114 0.0000000000000000 
lattice_vector 0.0000000000000000 0.0000000000000000 34.0307573589460262 
atom 5.3744650386991681 14.6117100031897742 16.3435858729358046 Ti
atom 6.7180422400996562 12.1764055461762304 15.0000000388907004 Ti
atom 4.0308700571035221 17.0469734311761734 15.0000000159098263 Ti
atom 4.0308703931177998 15.0417220811762054 15.0000000929635817 O
atom 5.3744653605752601 12.6064267831898018 16.3435858368525082 O
atom 6.7180419960056552 14.1816888161762158 15.0000001810397592 O
atom 0.0001401652481477 11.7463936922169268 19.0307572447691733 O
atom 6.7180425266163990 10.1711544461762546 15.0000001088735466 O
atom 0.0001394009996542 17.4769942822168716 19.0307572609911198 O
atom 4.0308697847251276 19.0522565511761570 15.0000001156325737 O
atom 5.3744647097558111 16.6169612831897417 16.3435857463845515 O
atom 5.3744663547716200 4.8705765631898652 16.3435858481871854 Ti
atom 6.7180435420297719 2.4352731961763219 15.0000000000000000 Ti
atom 4.0308714156027285 7.3058388211762777 15.0000000477296247 Ti
atom 4.0308717233326510 5.3005880211763028 15.0000001247834653 O
atom 5.3744665917945191 2.8652936931898845 16.3435857131092241 O
atom 6.7180431847983764 4.4405559861762915 15.0000000290123481 O
atom 0.0001415096048061 2.0052613822170260 19.0307572483047487 O
atom 6.7180438639020217 0.4300221161763496 15.0000001194802088 O
atom 0.0001407453566542 7.7358594822169708 19.0307572645266880 O
atom 4.0308711290820547 9.3111219011762572 15.0000001050260074 O
atom 5.3744660541128102 6.8758274831898447 16.3435857923465200 O
atom 4.0308884918045029 12.1764054802033641 17.6871715142943629 Ti
atom 2.6872955797720341 0.0000105581899182 16.3435858499548807 Ti
atom 1.3437162946662828 17.0469733652033071 17.6871715054556695 Ti
atom 1.3437165953252956 15.0417220152033337 17.6871716037227458 O
atom 4.0308882477105028 14.1816887602033503 17.6871716564434180 O
atom 2.6872939064722536 11.7463937581897966 16.3435857764366084 O
atom 4.0308887641791653 10.1711543802033830 17.6871715984193933 O
atom 2.6872931492948013 17.4769943381897441 16.3435857855874573 O
atom 1.3437160293588848 19.0522564852032836 17.6871715839651884 O
atom 2.6873109119633494 16.6169612172168719 19.0307572712858502 O
atom 4.0308898078767230 2.4352731302034534 17.6871714612614817 Ti
atom 2.6872942071312016 9.7411424981898218 16.3435858605615394 Ti
atom 1.3437176460943063 7.3058387152034037 17.6871715019201510 Ti
atom 1.3437180033217933 5.3005878852034387 17.6871716001870425 O
atom 2.6873128364283385 2.8652935572170093 19.0307571955839734 O
atom 4.0308894506453221 4.4405559002034263 17.6871714902738262 O
atom 2.6872952791130884 2.0052614581898958 16.3435857516878116 O
atom 4.0308901297490101 0.4300220302034803 17.6871715948838251 O
atom 2.6872944936518035 7.7358595581898424 16.3435857891230292 O
atom 1.3437173525025949 9.3111218152033821 17.6871715662876277 O
atom 2.6873123128886705 6.8758273172169773 19.0307572465369574 O
atom 9.4052314073734191 12.1764054702033615 17.6871714930812765 Ti
atom 8.0616385094831262 0.0000105881899150 16.3435858428838863 Ti
atom 6.7180592526616039 17.0469733752033044 17.6871714842424481 Ti
atom 6.7180595957469693 15.0417220652033379 17.6871715683672441 O
atom 8.0616544429958843 12.6064267072169134 19.0307571920484087 O
atom 9.4052310642840933 14.1816887402033327 17.6871715220935748 O
atom 8.0616368715386688 11.7463936981897987 16.3435857622944276 O
atom 9.4052317221745732 10.1711543802033830 17.6871716054904304 O
atom 8.0616360719347515 17.4769943981897384 16.3435857573032770 O
atom 6.7180589519988390 19.0522565052032888 17.6871715556810116 O
atom 8.0616539265271108 16.6169612272168763 19.0307572217881642 O
atom 9.4052327729434584 2.4352731202034614 17.6871715461142465 Ti
atom 8.0616371792686596 9.7411424681898229 16.3435858393482647 Ti
atom 6.7180606111607641 7.3058387152034099 17.6871715019201083 Ti
atom 6.7180609401040234 5.3005878652034362 17.6871716143292161 O
atom 9.4052326137022781 4.4405559102034537 17.6871716741208935 O
atom 8.0616382088242631 2.0052615381898953 16.3435857729010827 O
atom 9.4052330382469691 0.4300220302034776 17.6871716090260982 O
atom 8.0616374587182609 7.7358595081898427 16.3435857891229794 O
atom 6.7180603387822817 9.3111217752033877 17.6871715733585724 O
atom 8.0616552496708938 6.8758273372169727 19.0307572606791382 O
atom 0.0001220453483420 14.6117100031897706 16.3435858446516669 Ti
atom 1.3436992538198818 12.1764055461762268 15.0000000035354759 Ti
atom 9.4052129797435633 17.0469734611761723 15.0000000159099223 Ti
atom 9.4052132945447493 15.0417221511762005 15.0000001283190869 O
atom 0.0001222823712993 12.6064267831897840 16.3435857095737056 O
atom 1.3436989107305937 14.1816888361761979 15.0000000466899159 O
atom 5.3744831091014342 11.7463936222169281 19.0307572518402672 O
atom 1.3436995756920775 10.1711544561762519 15.0000001088735502 O
atom 5.3744823236396080 17.4769943022168661 19.0307572327069394 O
atom 9.4052127144361659 19.0522565911761532 15.0000000944194340 O
atom 0.0001217234762984 16.6169613031897399 16.3435857958821344 O
atom 0.0001234533448983 4.8705764831898746 16.3435858835423673 Ti
atom 1.3437006688872242 2.4352731961763348 15.0000000070708133 Ti
atom 9.4052143665270087 7.3058387511762772 15.0000000335874866 Ti
atom 9.4052146813279922 5.3005878911763009 15.0000001035702404 O
atom 0.0001237469366158 2.8652936831898987 16.3435858333170252 O
atom 1.3437004389356542 4.4405559761763200 15.0000002199305023 O
atom 5.3744844746712159 2.0052614522170260 19.0307572341625608 O
atom 1.3437009412618761 0.4300220961763542 15.0000000911958438 O
atom 5.3744837104231182 7.7358594422169720 19.0307572645266418 O
atom 9.4052140941485654 9.3111218511762566 15.0000001191680923 O
atom 0.0001231173305313 6.8758274431898450 16.3435857640622082 O
atom 0.0001418173347529 0.0000104822170469 19.0307573253585893 Ti
atom 0.0001404659070968 9.7411424222169529 19.0307573288941114 Ti
atom 2.6873112691908334 14.6117099272169035 19.0307573554106000 Ti
atom 2.6873116052090276 12.6064267172169302 19.0307573051851229 O
atom 2.6873126064764823 4.8705764072170012 19.0307573235908514 Ti
atom 8.0616542201150221 14.6117099272169035 19.0307573129841963 Ti
atom 8.0616556068983805 4.8705764772170026 19.0307573589460262 Ti
atom 8.0616559075611676 2.8652935472170316 19.0307573016495972 O
atom 5.3744847682590278 0.0000105022170479 19.0307573112164619 Ti
atom 5.3744834168314268 9.7411423922169504 19.0307573288941114 Ti
