#===============================================================================
# Created using the Atomic Simulation Environment (ASE)

# Mon Mar 23 14:01:32 2026

#=======================================================
lattice_vector 7.6004436200000214 0.0000000000000000 0.0000000000000000 
lattice_vector -0.0000015267178117 19.4822670799999393 0.0000000000000000 
lattice_vector 0.0000000000000000 0.0000000000000000 31.9001236212500245 
atom 1.9001106841592645 2.4352967530247258 16.9001235013963793 Ti
atom 7.6004429996649714 7.7358763780247095 16.9001235077927774 O
atom 7.6004434369747536 2.0052757880247274 16.9001235424999976 O
atom 1.9001099408002768 12.1764313630246956 16.9001235263963707 Ti
atom 7.6004422463061587 17.4770086880246787 16.9001235027927805 O
atom 7.6004426836157508 11.7464105880246983 16.9001235374999936 O
atom 5.7003325141592747 2.4352967430247272 16.9001235013963793 Ti
atom 3.8002211996649611 7.7358763880247103 16.9001235077927774 O
atom 3.8002216269747415 2.0052758080247282 16.9001235424999976 O
atom 5.7003317508002835 12.1764313930246963 16.9001234963963753 Ti
atom 3.8002204063061495 17.4770086880246787 16.9001235027927805 O
atom 3.8002208736157419 11.7464105880246947 16.9001235374999936 O
atom 5.7003319638261161 10.1711482930247055 16.9001235315428033 O
atom 1.9001105383210810 4.8705599181481762 15.0000001351464292 Ti
atom 7.6004430224797597 7.3058644131481643 15.0000000588963758 Ti
atom 1.9001103352952409 6.8758431381481655 15.0000000100000008 O
atom -0.0000003744944183 5.3005811431481753 15.0000000340428059 O
atom -0.0000007005436497 9.3111155031481623 15.0000001637500304 O
atom 1.9001106413444850 2.8653086181481782 15.0000000602927770 O
atom 1.9001097849621817 14.6116933681481456 15.0000001901464373 Ti
atom -0.0000013308790769 17.0469967631481332 15.0000001038963688 Ti
atom 1.9001095719363641 16.6169762981481313 15.0000001649999959 O
atom -0.0000011678532699 15.0417139731481395 15.0000002790428084 O
atom -0.0000014339024648 19.0522478531481347 15.0000001387500319 O
atom 1.9001099279855524 12.6064425081481488 15.0000000652927810 O
atom 5.7003323683210914 4.8705599181481771 15.0000001251464283 Ti
atom 3.8002212024797482 7.3058644131481625 15.0000000488963678 Ti
atom 5.7003321452952500 6.8758431381481655 15.0000000000000000 O
atom 3.8002214355055934 5.3005811231481763 15.0000000340428059 O
atom 3.8002210894563602 9.3111155031481569 15.0000001537500296 O
atom 5.7003325213444942 2.8653086181481835 15.0000000602927770 O
atom 5.7003315949621873 14.6116934381481425 15.0000001901464373 Ti
atom 3.8002203991209331 17.0469967631481296 15.0000000938963751 Ti
atom 5.7003313919363778 16.6169762381481334 15.0000001649999959 O
atom 3.8002206721467400 15.0417139831481457 15.0000002790428084 O
atom 3.8002203060975446 19.0522478631481285 15.0000001487500327 O
atom 5.7003317079855638 12.6064424781481481 15.0000000652927810 O
atom -0.0000014967172340 19.4822595880246787 16.9001235776464327 Ti
atom 1.9001105411358572 4.4405481030247209 16.9001235962500260 O
atom 1.9001109071850970 0.4300136330247377 16.9001235765428106 O
atom -0.0000007333584503 9.7411276480247064 16.9001235826464296 Ti
atom 1.9001098177769113 14.1816821630246910 16.9001236012500229 O
atom 1.9001101438261057 10.1711482830247046 16.9001235615427987 O
atom 3.8002203032827757 19.4822595880246752 16.9001235876464335 Ti
atom 5.7003324111358671 4.4405480930247254 16.9001235862500252 O
atom 5.7003327171851081 0.4300136230247376 16.9001235665428098 O
atom 3.8002210866415593 9.7411276480247082 16.9001235826464296 Ti
atom 5.7003316077769179 14.1816822230246888 16.9001236212500245 O
