#===============================================================================
# Created using the Atomic Simulation Environment (ASE)

# Mon Mar 23 14:01:35 2026

#=======================================================
lattice_vector 9.2839361000000000 0.0000000000000000 0.0000000000000000 
lattice_vector 0.0000000000000000 5.9471245399999999 0.0000000000000000 
lattice_vector 0.0000000000000000 0.0000000000000000 41.0898267999999973 
atom 2.3209840400000008 1.4867811399999995 15.9029554199999978 Ti
atom 9.2839360399999986 0.0000000100000000 22.8658922699999962 Ti
atom 0.9029265000000000 1.4867811300000000 17.3209789900000004 O
atom 1.4180575900000001 0.0000000000000000 15.0000000000000000 O
atom 3.2239105299999999 0.0000000000000000 16.8059108999999935 O
atom 2.3209840400000008 4.4603433999999993 15.9029554199999978 Ti
atom 9.2839360299999996 2.9735622699999991 22.8658922699999962 Ti
atom 0.9029265000000000 4.4603433999999993 17.3209789900000004 O
atom 1.4180575900000001 2.9735622699999991 15.0000000000000000 O
atom 3.2239105299999999 2.9735622699999991 16.8059108999999935 O
atom 6.9629519999999996 1.4867811300000000 15.9029554299999916 Ti
atom 4.6419680000000003 0.0000000100000000 22.8658922799999971 Ti
atom 5.5448945299999997 1.4867811300000000 17.3209789999999941 O
atom 6.0600256000000012 0.0000000000000000 15.0000000199999945 O
atom 7.8658785300000016 0.0000000000000000 16.8059109199999952 O
atom 6.9629519900000014 4.4603434099999992 15.9029554299999916 Ti
atom 4.6419680100000003 2.9735622799999990 22.8658922799999971 Ti
atom 5.5448945299999997 4.4603433999999993 17.3209789999999941 O
atom 6.0600256100000003 2.9735622699999991 15.0000000199999945 O
atom 7.8658785300000016 2.9735622699999991 16.8059109199999952 O
atom 2.3209840500000003 1.4867811399999995 20.5449133099999983 Ti
atom 9.2839360500000030 5.9471245299999991 18.2239343699999949 Ti
atom 0.9029265000000000 1.4867811399999995 21.9629369099999963 O
atom 3.7390416400000004 1.4867811300000000 19.1268898699999994 O
atom 1.4180576000000003 0.0000000000000000 19.6419579399999975 O
atom 3.2239105299999999 0.0000000000000000 21.4478688099999886 O
atom 2.3209840500000003 4.4603434099999992 20.5449133199999920 Ti
atom 9.2839360399999986 2.9735622600000000 18.2239343599999941 Ti
atom 0.9029265000000000 4.4603434099999992 21.9629369099999963 O
atom 3.7390416400000004 4.4603434099999992 19.1268898699999994 O
atom 1.4180576000000003 2.9735622699999991 19.6419579399999975 O
atom 3.2239105399999999 2.9735622699999991 21.4478688099999886 O
atom 6.9629519999999996 1.4867811399999995 20.5449133300000000 Ti
atom 4.6419680100000003 0.0000000000000000 18.2239343699999949 Ti
atom 5.5448945200000006 1.4867811399999995 21.9629369099999963 O
atom 8.3810096400000020 1.4867811199999996 19.1268898699999994 O
atom 6.0600256200000020 0.0000000000000000 19.6419579599999921 O
atom 7.8658785400000006 0.0000000000000000 21.4478688299999973 O
atom 6.9629520100000022 4.4603434099999992 20.5449133300000000 Ti
atom 4.6419680100000003 2.9735622699999991 18.2239343699999949 Ti
atom 5.5448945200000006 4.4603434199999983 21.9629369199999971 O
atom 8.3810096400000020 4.4603433999999993 19.1268898599999986 O
atom 6.0600256200000020 2.9735622699999991 19.6419579599999921 O
atom 7.8658785400000006 2.9735622699999991 21.4478688299999973 O
atom 2.3209840400000008 1.4867811399999995 25.1868712999999929 Ti
atom 3.7390416200000010 1.4867811399999995 23.7688478099999898 O
atom 1.4180575900000001 0.0000000000000000 24.2839158799999950 O
atom 3.2239105299999999 0.0000000000000000 26.0898267799999957 O
atom 2.3209840400000008 4.4603433999999993 25.1868712999999929 Ti
atom 3.7390416300000004 4.4603434099999992 23.7688478099999898 O
atom 1.4180575900000001 2.9735622699999991 24.2839158799999950 O
atom 3.2239105299999999 2.9735622699999991 26.0898267799999957 O
atom 6.9629519999999996 1.4867811300000000 25.1868713099999937 Ti
atom 8.3810096299999994 1.4867811300000000 23.7688478099999898 O
atom 6.0600256000000012 0.0000000000000000 24.2839158999999967 O
atom 7.8658785300000016 0.0000000000000000 26.0898267999999973 O
atom 6.9629519900000014 4.4603434099999992 25.1868713099999937 Ti
atom 8.3810096299999994 4.4603434099999992 23.7688477999999961 O
atom 6.0600256100000003 2.9735622699999991 24.2839158999999967 O
atom 7.8658785300000016 2.9735622699999991 26.0898267999999973 O
