#===============================================================================
# Created using the Atomic Simulation Environment (ASE)

# Mon Mar 23 14:01:36 2026

#=======================================================
lattice_vector 13.1294540471338479 0.0000000000000000 0.0000000000000000 
lattice_vector 0.0000000000000000 5.9471245399999999 0.0000000000000000 
lattice_vector 0.0000000000000000 0.0000000000000000 42.4009932245363430 
atom 6.5647055593405810 4.4603433999999993 16.2769513163203925 Ti
atom 13.1294254446646512 5.9471245299999991 19.5593147326366648 Ti
atom 8.5701177442416157 4.4603434099999992 16.2769294797546955 O
atom 4.5592934027237151 4.4603433999999993 16.2769732377389325 O
atom 6.5646864650302374 0.0000000000000000 15.0000000000000000 O
atom 6.5647246677929800 0.0000000000000000 17.5539027033514792 O
atom 6.5647055593405810 1.4867811400000002 16.2769513163203925 Ti
atom 13.1294254517357256 2.9735622699999995 19.5593147255656064 Ti
atom 8.5701177442416157 1.4867811400000002 16.2769294797546955 O
atom 4.5592933956526398 1.4867811300000000 16.2769732448099944 O
atom 6.5646864650302374 2.9735622699999995 15.0000000000000000 O
atom 6.5647246677929800 2.9735622699999995 17.5539027033514792 O
atom 3.2823349694182991 4.4603434099999992 19.5593147715276032 Ti
atom 3.2823420581638101 5.9471245299999991 16.2769512350031249 Ti
atom 5.2877471048218094 4.4603434099999992 19.5592929844593328 O
atom 3.2823158468236353 0.0000000000000000 18.2823634976335896 O
atom 3.2823349764893717 1.4867811300000000 19.5593147644565448 Ti
atom 3.2823420510927286 2.9735622600000000 16.2769512420741869 Ti
atom 5.2877471048218094 1.4867811400000002 19.5592929844593328 O
atom 3.2823158397525622 2.9735622699999995 18.2823635047046480 O
atom 9.8470618798481109 4.4603433999999993 19.5593147998117516 Ti
atom 9.8470691029439106 0.0000000099999998 16.2769512562163534 Ti
atom 11.8524740930334023 4.4603433999999993 19.5592929773882247 O
atom 9.8470428208930638 0.0000000000000000 18.2823635188467364 O
atom 9.8470618869191693 1.4867811300000000 19.5593148068828313 Ti
atom 9.8470691029439266 2.9735622800000003 16.2769512420742188 Ti
atom 11.8524740930334023 1.4867811300000000 19.5592929773882247 O
atom 9.8470428208930638 2.9735622699999995 18.2823635188467364 O
atom 13.1294326253340046 4.4603433999999993 16.2769512314676277 Ti
atom 6.5646984352398139 0.0000000000000000 19.5593147750630862 Ti
atom 2.0053907277457990 4.4603433999999993 16.2769294443993644 O
atom 11.1240204475038684 4.4603434199999983 16.2769732165257608 O
atom 13.1294135168814297 0.0000000000000000 15.0000000000000320 O
atom 13.1294517125731485 0.0000000000000000 17.5539026679961658 O
atom 13.1294326182629266 1.4867811300000000 16.2769512385386896 Ti
atom 6.5646984352398139 2.9735622699999995 19.5593147750630862 Ti
atom 2.0053907348168600 1.4867811199999996 16.2769294514704406 O
atom 11.1240204404328082 1.4867811400000002 16.2769732094546811 O
atom 13.1294135168814297 2.9735622699999995 15.0000000000000320 O
atom 13.1294517125731485 2.9735622699999995 17.5539026679961658 O
atom 13.1294182852083896 4.4603433999999993 22.8416783398717484 Ti
atom 6.5646841233986137 5.9471245299999991 26.1240417561880207 Ti
atom 2.0053764229755782 4.4603434099999992 22.8416565033060479 O
atom 11.1240061285915299 4.4603433999999993 22.8417002612902849 O
atom 13.1293991908980416 0.0000000000000000 21.5647270235513560 O
atom 13.1294373936607940 0.0000000000000000 24.1186297269028351 O
atom 13.1294182852083896 1.4867811400000002 22.8416783398717484 Ti
atom 6.5646841304696899 2.9735622699999995 26.1240417491169623 Ti
atom 2.0053764229755782 1.4867811400000002 22.8416565033060479 O
atom 11.1240061215204538 1.4867811300000000 22.8417002683613468 O
atom 13.1293991908980416 2.9735622699999995 21.5647270235513560 O
atom 13.1294373936607940 2.9735622699999995 24.1186297269028351 O
atom 9.8470476952861077 4.4603434099999992 26.1240417950789556 Ti
atom 9.8470547840316183 5.9471245299999991 22.8416782585544773 Ti
atom 11.8524598306896198 4.4603434099999992 26.1240200080106817 O
atom 1.2769227703749997 4.4603434099999992 19.5593367212303733 O
atom 9.8470285726914462 0.0000000000000000 24.8470905211849455 O
atom 3.2823540566574589 0.0000000000000000 20.8362661939140068 O
atom 9.8470477023571821 1.4867811300000000 26.1240417880078972 Ti
atom 9.8470547769605421 2.9735622600000000 22.8416782656255393 Ti
atom 11.8524598306896198 1.4867811400000002 26.1240200080106817 O
atom 1.2769227633039415 1.4867811300000000 19.5593367141593006 O
atom 9.8470285656203735 2.9735622699999995 24.8470905282560039 O
atom 3.2823540566574589 2.9735622699999995 20.8362661939140068 O
atom 3.2823205585820738 4.4603433999999993 26.1240418233631075 Ti
atom 3.2823277816778713 0.0000000099999998 22.8416782797677058 Ti
atom 5.2877327717673674 4.4603433999999993 26.1240200009395771 O
atom 7.8416497515154751 4.4603434099999992 19.5593367636567343 O
atom 3.2823014996270241 0.0000000000000000 24.8470905423980959 O
atom 9.8470810095137082 0.0000000000000000 20.8362661939139358 O
atom 3.2823205656531291 1.4867811300000000 26.1240418304341802 Ti
atom 3.2823277816778886 2.9735622800000003 22.8416782656255677 Ti
atom 5.2877327717673674 1.4867811300000000 26.1240200009395771 O
atom 7.8416497515154751 1.4867811300000000 19.5593367636567343 O
atom 3.2823014996270241 2.9735622699999995 24.8470905423980959 O
atom 9.8470810024426321 2.9735622699999995 20.8362662009849942 O
atom 6.5646913040679626 4.4603433999999993 22.8416782550189765 Ti
atom 13.1294111611076243 0.0000000000000000 26.1240417986144422 Ti
atom 8.5701034536136103 4.4603433999999993 22.8416564679507204 O
atom 4.5592791262378292 4.4603434199999983 22.8417002400771096 O
atom 6.5646721956153922 0.0000000000000000 21.5647270235513879 O
atom 6.5647103913071083 0.0000000000000000 24.1186296915475182 O
atom 6.5646912969968874 1.4867811300000000 22.8416782620900385 Ti
atom 13.1294111611076243 2.9735622699999995 26.1240417986144422 Ti
atom 8.5701034606846740 1.4867811199999996 22.8416564750217965 O
atom 4.5592791191667654 1.4867811400000002 22.8417002330060335 O
atom 6.5646721956153922 2.9735622699999995 21.5647270235513879 O
atom 6.5647103913071083 2.9735622699999995 24.1186296915475182 O
atom 7.8416354962428079 4.4603434099999992 26.1240637447817257 O
atom 9.8470667825252676 0.0000000000000000 27.4009932174653592 O
atom 7.8416354891717495 1.4867811300000000 26.1240637377106495 O
atom 9.8470667825252676 2.9735622699999995 27.4009932174653592 O
atom 1.2769084302494325 4.4603434099999992 26.1240637872080832 O
atom 3.2823396882476650 0.0000000000000000 27.4009932174652810 O
atom 1.2769084302494325 1.4867811300000000 26.1240637872080832 O
atom 3.2823396811765919 2.9735622699999995 27.4009932245363430 O
