#===============================================================================
# Created using the Atomic Simulation Environment (ASE)

# Mon Mar 23 14:01:32 2026

#=======================================================
lattice_vector 7.6004436200000214 0.0000000000000000 0.0000000000000000 
lattice_vector -0.0000015267178117 19.4822670799999393 0.0000000000000000 
lattice_vector 0.0000000000000000 0.0000000000000000 35.7003705022072211 
atom 1.9001105483211140 4.8705594683950837 15.0000001761036224 Ti
atom 7.6004430124797935 7.3058639633950717 15.0000000998535725 Ti
atom 1.9001106841592645 2.4352967530247258 20.7003703823535723 Ti
atom 1.9001103352952742 6.8758426883950730 15.0000001809571906 O
atom -0.0000003744943847 5.3005806933950836 15.0000002250000009 O
atom 7.6004429996649714 7.7358763780247095 20.7003703887499704 O
atom -0.0000007205436169 9.3111150633950679 15.0000001547072195 O
atom 7.6004434369747536 2.0052757880247274 20.7003704234571906 O
atom 1.9001106513445167 2.8653081883950864 15.0000000512499732 O
atom 1.9001097949622157 14.6116929083950531 15.0000001311036222 Ti
atom 7.6004422591209764 17.0469963133950415 15.0000000348535742 Ti
atom 1.9001099408002768 12.1764313630246956 20.7003704073535637 Ti
atom 1.9001095719364032 16.6169757783950409 15.0000000059571903 O
atom -0.0000011278532363 15.0417135233950567 15.0000000000000000 O
atom 7.6004422463061587 17.4770086880246787 20.7003703837499735 O
atom -0.0000014639024304 19.0522473933950387 15.0000001497072191 O
atom 7.6004426836157508 11.7464105880246983 20.7003704184571866 O
atom 1.9001099279855913 12.6064419883950585 15.0000000762499752 O
atom 5.7003323783211242 4.8705594683950855 15.0000001661036251 Ti
atom 3.8002212024797823 7.3058639533950700 15.0000000998535690 Ti
atom 5.7003325141592747 2.4352967430247272 20.7003703823535723 Ti
atom 5.7003321452952846 6.8758426783950739 15.0000001709571968 O
atom 3.8002214355056276 5.3005806733950829 15.0000002250000009 O
atom 3.8002211996649611 7.7358763880247103 20.7003703887499704 O
atom 3.8002211094563938 9.3111150533950688 15.0000001547072195 O
atom 3.8002216269747415 2.0052758080247282 20.7003704234571906 O
atom 5.7003325313445270 2.8653081783950918 15.0000000512499732 O
atom 5.7003316049622210 14.6116929883950508 15.0000001311036222 Ti
atom 3.8002204291209680 17.0469963033950407 15.0000000348535742 Ti
atom 5.7003317508002835 12.1764313930246963 20.7003703773535683 Ti
atom 5.7003313919364080 16.6169758383950494 15.0000000059571903 O
atom 3.8002206621467725 15.0417135333950505 15.0000000000000000 O
atom 3.8002204063061495 17.4770086880246787 20.7003703837499735 O
atom 3.8002203360975790 19.0522474033950431 15.0000001597072199 O
atom 3.8002208736157419 11.7464105880246947 20.7003704184571866 O
atom 5.7003319638261161 10.1711482930247055 20.7003704124999963 O
atom 5.7003317179855939 12.6064420783950517 15.0000000662499744 O
atom 1.9001105383210810 4.8705599181481762 18.8002470161036221 Ti
atom 7.6004430224797597 7.3058644131481643 18.8002469398535688 Ti
atom -0.0000014967171981 19.4822591082715881 16.9001235686036217 Ti
atom 1.9001106841592996 2.4352962832716343 16.9001234923535755 Ti
atom 1.9001105411358947 4.4405475932716287 16.9001235972072159 O
atom 1.9001103352952409 6.8758431381481655 18.8002468909571938 O
atom -0.0000003744944183 5.3005811431481753 18.8002469149999989 O
atom 7.6004429896649999 7.7358759982716165 16.9001235087499673 O
atom -0.0000007005436497 9.3111155031481623 18.8002470447072234 O
atom 7.6004434369747917 2.0052752982716355 16.9001235034571984 O
atom 1.9001109071851328 0.4300131532716456 16.9001235275000035 O
atom 1.9001106413444850 2.8653086181481782 18.8002469412499700 O
atom 1.9001097849621817 14.6116933681481456 18.8002470711036302 Ti
atom -0.0000013308790769 17.0469967631481332 18.8002469848535618 Ti
atom -0.0000007533584190 9.7411272282716119 16.9001235836036194 Ti
atom 1.9001099308003080 12.1764309432716011 16.9001235073535661 Ti
atom 1.9001098177769391 14.1816817932715953 16.9001236222072215 O
atom 1.9001095719363641 16.6169762981481313 18.8002470459571889 O
atom -0.0000011678532699 15.0417139731481395 18.8002471600000014 O
atom 7.6004422463061987 17.4770081582715875 16.9001235037499704 O
atom -0.0000014339024648 19.0522478531481347 18.8002470197072249 O
atom 7.6004426736157820 11.7464101882716037 16.9001235484571914 O
atom 1.9001101338261355 10.1711478832716153 16.9001235625000028 O
atom 1.9001099279855524 12.6064425081481488 18.8002469462499739 O
atom 5.7003323683210914 4.8705599181481771 18.8002470061036213 Ti
atom 3.8002212024797482 7.3058644131481625 18.8002469298535608 Ti
atom 3.8002203032828108 19.4822591182715854 16.9001235686036217 Ti
atom 5.7003325141593102 2.4352962732716352 16.9001234823535675 Ti
atom 5.7003324111359062 4.4405475832716332 16.9001235872072222 O
atom 5.7003321452952500 6.8758431381481655 18.8002468809571930 O
atom 3.8002214355055934 5.3005811231481763 18.8002469149999989 O
atom 3.8002211996649895 7.7358759982716183 16.9001235087499744 O
atom 3.8002210894563602 9.3111155031481569 18.8002470347072226 O
atom 3.8002216269747784 2.0052753182716354 16.9001235034571984 O
atom 5.7003327171851437 0.4300131432716456 16.9001235475000051 O
atom 5.7003325213444942 2.8653086181481835 18.8002469412499700 O
atom 5.7003315949621873 14.6116934381481425 18.8002470711036302 Ti
atom 3.8002203991209331 17.0469967631481296 18.8002469748535681 Ti
atom 3.8002210766415923 9.7411272282716155 16.9001235836036194 Ti
atom 5.7003317408003147 12.1764309832715991 16.9001235173535669 Ti
atom 5.7003316077769446 14.1816818432715994 16.9001235922072190 O
atom 5.7003313919363778 16.6169762381481334 18.8002470459571889 O
atom 3.8002206721467400 15.0417139831481457 18.8002471600000014 O
atom 3.8002204163061886 17.4770081682715883 16.9001235037499704 O
atom 3.8002203060975446 19.0522478631481285 18.8002470297072257 O
atom 3.8002208636157722 11.7464101782716028 16.9001235484571914 O
atom 5.7003319538261463 10.1711478832716153 16.9001235824999974 O
atom 5.7003317079855638 12.6064424781481481 18.8002469462499739 O
atom -0.0000014967172340 19.4822595880246787 20.7003704586036257 Ti
atom 1.9001105411358572 4.4405481030247209 20.7003704772072190 O
atom 1.9001109071850970 0.4300136330247377 20.7003704575000036 O
atom -0.0000007333584503 9.7411276480247064 20.7003704636036225 Ti
atom 1.9001098177769113 14.1816821630246910 20.7003704822072159 O
atom 1.9001101438261057 10.1711482830247046 20.7003704424999917 O
atom 3.8002203032827757 19.4822595880246752 20.7003704686036265 Ti
atom 5.7003324111358671 4.4405480930247254 20.7003704672072182 O
atom 5.7003327171851081 0.4300136230247376 20.7003704475000028 O
atom 3.8002210866415593 9.7411276480247082 20.7003704636036225 Ti
atom 5.7003316077769179 14.1816822230246888 20.7003705022072175 O
