#===============================================================================
# Created using the Atomic Simulation Environment (ASE)

# Mon Mar 23 14:01:34 2026

#=======================================================
lattice_vector 9.2839158800000003 0.0000000000000000 0.0000000000000000 
lattice_vector 0.0000000000000000 9.2839361000000000 0.0000000000000000 
lattice_vector 0.0000000000000000 0.0000000000000000 43.3810302400000012 
atom 2.3209789600000001 2.3209840399999999 16.4867811399999979 Ti
atom 9.2839158099999999 9.2839360299999996 15.0000000100000008 Ti
atom 3.7390025300000000 0.9029265000000000 16.4867811399999979 O
atom 0.9029554700000000 3.7390416300000000 16.4867811499999988 O
atom 1.4180235400000001 1.4180575900000001 15.0000000100000008 O
atom 3.2239344399999998 3.2239105299999999 15.0000000100000008 O
atom 2.3209789700000001 6.9629519900000014 16.4867811499999988 Ti
atom 9.2839158200000007 4.6419680100000003 15.0000000199999981 Ti
atom 3.7390025400000000 5.5448945299999997 16.4867811399999979 O
atom 0.9029554600000000 8.3810096299999994 16.4867811499999988 O
atom 1.4180235600000000 6.0600256100000003 15.0000000100000008 O
atom 3.2239344600000002 7.8658785299999998 15.0000000100000008 O
atom 4.6419579100000004 9.2839360499999994 17.9735622699999986 Ti
atom 6.9629368600000001 2.3209840499999999 16.4867811499999988 Ti
atom 4.6419579000000004 9.2839360400000004 15.0000000000000000 Ti
atom 8.3809604499999999 0.9029265000000000 16.4867811499999988 O
atom 5.5449134100000004 3.7390416399999999 16.4867811499999988 O
atom 6.0599814800000003 1.4180576000000003 15.0000000100000008 O
atom 7.8658923500000002 3.2239105399999999 15.0000000100000008 O
atom 6.9629368700000001 6.9629520100000022 16.4867811499999988 Ti
atom 4.6419579100000004 4.6419680100000003 15.0000000100000008 Ti
atom 8.3809604600000007 5.5448945200000015 16.4867811599999960 O
atom 5.5449134000000004 8.3810096400000020 16.4867811399999979 O
atom 6.0599815000000001 6.0600256200000020 15.0000000100000008 O
atom 7.8658923700000010 7.8658785400000006 15.0000000100000008 O
atom 2.3209789600000001 2.3209840399999999 19.4603434200000009 Ti
atom 9.2839158099999999 9.2839360400000004 17.9735622900000003 Ti
atom 3.7390025300000000 0.9029265000000000 19.4603434100000001 O
atom 0.9029554700000000 3.7390416200000001 19.4603434200000009 O
atom 1.4180235400000001 1.4180575900000001 17.9735622799999994 O
atom 3.2239344399999998 3.2239105299999999 17.9735622799999994 O
atom 2.3209789600000001 2.3209840399999999 22.4339056799999952 Ti
atom 9.2839158099999999 9.2839360299999996 20.9471245499999981 Ti
atom 3.7390025300000000 0.9029265000000000 22.4339056799999952 O
atom 0.9029554700000000 3.7390416300000000 22.4339056899999960 O
atom 1.4180235400000001 1.4180575900000001 20.9471245499999981 O
atom 3.2239344399999998 3.2239105299999999 20.9471245499999981 O
atom 2.3209789700000001 6.9629519999999996 19.4603434100000001 Ti
atom 9.2839158200000007 4.6419680000000003 17.9735622900000003 Ti
atom 3.7390025400000000 5.5448945299999997 19.4603434100000001 O
atom 0.9029554700000000 8.3810096299999994 19.4603434100000001 O
atom 1.4180235600000000 6.0600256000000012 17.9735622799999994 O
atom 3.2239344600000002 7.8658785299999998 17.9735622799999994 O
atom 2.3209789700000001 6.9629519900000014 22.4339056899999960 Ti
atom 9.2839158200000007 4.6419680100000003 20.9471245599999989 Ti
atom 3.7390025400000000 5.5448945299999997 22.4339056799999952 O
atom 0.9029554600000000 8.3810096299999994 22.4339056899999960 O
atom 1.4180235600000000 6.0600256100000003 20.9471245499999981 O
atom 3.2239344600000002 7.8658785299999998 20.9471245499999981 O
atom 6.9629368500000002 2.3209840499999999 19.4603434200000009 Ti
atom 4.6419579100000004 9.2839360499999994 23.9206868099999994 Ti
atom 8.3809604499999999 0.9029265000000000 19.4603434200000009 O
atom 5.5449134100000004 3.7390416399999999 19.4603434100000001 O
atom 6.0599814800000003 1.4180576000000003 17.9735622799999994 O
atom 7.8658923500000002 3.2239105299999999 17.9735622799999994 O
atom 6.9629368600000001 2.3209840499999999 22.4339056899999960 Ti
atom 4.6419579000000004 9.2839360400000004 20.9471245399999972 Ti
atom 8.3809604499999999 0.9029265000000000 22.4339056899999960 O
atom 5.5449134100000004 3.7390416399999999 22.4339056899999960 O
atom 6.0599814800000003 1.4180576000000003 20.9471245499999981 O
atom 7.8658923500000002 3.2239105399999999 20.9471245499999981 O
atom 6.9629368700000001 6.9629519999999996 19.4603434200000009 Ti
atom 4.6419579100000004 4.6419680100000003 17.9735622799999994 Ti
atom 8.3809604499999999 5.5448945200000015 19.4603434200000009 O
atom 5.5449134100000004 8.3810096400000020 19.4603433999999993 O
atom 6.0599815000000001 6.0600256200000020 17.9735622799999994 O
atom 7.8658923700000010 7.8658785400000006 17.9735622799999994 O
atom 6.9629368700000001 6.9629520100000022 22.4339056899999960 Ti
atom 4.6419579100000004 4.6419680100000003 20.9471245499999981 Ti
atom 8.3809604600000007 5.5448945200000015 22.4339056999999968 O
atom 5.5449134000000004 8.3810096400000020 22.4339056799999952 O
atom 6.0599815000000001 6.0600256200000020 20.9471245499999981 O
atom 7.8658923700000010 7.8658785400000006 20.9471245499999981 O
atom 2.3209789600000001 2.3209840399999999 25.4074679599999982 Ti
atom 9.2839158099999999 9.2839360400000004 23.9206868299999940 Ti
atom 3.7390025300000000 0.9029265000000000 25.4074679499999974 O
atom 0.9029554700000000 3.7390416200000001 25.4074679599999982 O
atom 1.4180235400000001 1.4180575900000001 23.9206868200000002 O
atom 3.2239344399999998 3.2239105299999999 23.9206868200000002 O
atom 2.3209789600000001 2.3209840399999999 28.3810302199999995 Ti
atom 9.2839158099999999 9.2839360299999996 26.8942490899999953 Ti
atom 3.7390025300000000 0.9029265000000000 28.3810302199999995 O
atom 0.9029554700000000 3.7390416300000000 28.3810302300000004 O
atom 1.4180235400000001 1.4180575900000001 26.8942490899999953 O
atom 3.2239344399999998 3.2239105299999999 26.8942490899999953 O
atom 2.3209789700000001 6.9629519999999996 25.4074679499999974 Ti
atom 9.2839158200000007 4.6419680000000003 23.9206868299999940 Ti
atom 3.7390025400000000 5.5448945299999997 25.4074679499999974 O
atom 0.9029554700000000 8.3810096299999994 25.4074679499999974 O
atom 1.4180235600000000 6.0600256000000012 23.9206868200000002 O
atom 3.2239344600000002 7.8658785299999998 23.9206868200000002 O
atom 2.3209789700000001 6.9629519900000014 28.3810302300000004 Ti
atom 9.2839158200000007 4.6419680100000003 26.8942490999999961 Ti
atom 3.7390025400000000 5.5448945299999997 28.3810302199999995 O
atom 0.9029554600000000 8.3810096299999994 28.3810302300000004 O
atom 1.4180235600000000 6.0600256100000003 26.8942490899999953 O
atom 3.2239344600000002 7.8658785299999998 26.8942490899999953 O
atom 6.9629368500000002 2.3209840499999999 25.4074679599999982 Ti
atom 8.3809604499999999 0.9029265000000000 25.4074679599999982 O
atom 5.5449134100000004 3.7390416399999999 25.4074679499999974 O
atom 6.0599814800000003 1.4180576000000003 23.9206868200000002 O
atom 7.8658923500000002 3.2239105299999999 23.9206868200000002 O
atom 6.9629368600000001 2.3209840499999999 28.3810302300000004 Ti
atom 4.6419579000000004 9.2839360400000004 26.8942490800000016 Ti
atom 8.3809604499999999 0.9029265000000000 28.3810302300000004 O
atom 5.5449134100000004 3.7390416399999999 28.3810302300000004 O
atom 6.0599814800000003 1.4180576000000003 26.8942490899999953 O
atom 7.8658923500000002 3.2239105399999999 26.8942490899999953 O
atom 6.9629368700000001 6.9629519999999996 25.4074679599999982 Ti
atom 4.6419579100000004 4.6419680100000003 23.9206868200000002 Ti
atom 8.3809604499999999 5.5448945200000015 25.4074679599999982 O
atom 5.5449134100000004 8.3810096400000020 25.4074679399999965 O
atom 6.0599815000000001 6.0600256200000020 23.9206868200000002 O
atom 7.8658923700000010 7.8658785400000006 23.9206868200000002 O
atom 6.9629368700000001 6.9629520100000022 28.3810302300000004 Ti
atom 4.6419579100000004 4.6419680100000003 26.8942490899999953 Ti
atom 8.3809604600000007 5.5448945200000015 28.3810302400000012 O
atom 5.5449134000000004 8.3810096400000020 28.3810302199999995 O
atom 6.0599815000000001 6.0600256200000020 26.8942490899999953 O
atom 7.8658923700000010 7.8658785400000006 26.8942490899999953 O
