#===============================================================================
# Created using the Atomic Simulation Environment (ASE)

# Mon Mar 23 14:01:35 2026

#=======================================================
lattice_vector 11.0253972427838800 0.0000000000000000 0.0000000000000000 
lattice_vector 0.0000000000000000 9.2839361000000000 0.0000000000000000 
lattice_vector 0.0000000000000000 0.0000000000000000 36.5375358028941406 
atom 4.6096119662775994 9.2839360400000004 15.7648851124725127 Ti
atom 7.3659613355874951 2.3209840399999999 15.7648851322059294 Ti
atom 6.1719172057842240 3.7390416300000000 15.0000000203923136 O
atom 8.9282665191772033 3.2239105299999999 15.0000000161820708 O
atom 4.6096119746980788 4.6419680000000003 15.7648851178665375 Ti
atom 6.1719171973637437 8.3810096299999994 15.0000000149982888 O
atom 8.9282665360181710 7.8658785299999998 15.0000000269701168 O
atom 1.8532626666991210 2.3209840499999999 15.7648851136562911 Ti
atom 0.6592185897863100 3.7390416399999999 15.0000000119718280 O
atom 3.4155678725238179 3.2239105299999999 15.0000000000000000 O
atom 10.1223106237190272 9.2839360400000004 15.7648851118136193 Ti
atom 1.8532626835400861 6.9629519999999996 15.7648851244443406 Ti
atom 0.6592185951803335 8.3810096400000020 15.0000000035513494 O
atom 3.4155678893647834 7.8658785400000006 15.0000000107880496 O
atom 10.1223106267454899 4.6419680100000003 15.7648851256281226 Ti
atom 5.7620150271512536 2.3209840399999999 18.2687678915803637 Ti
atom 1.4017193601931581 9.2839360400000004 20.7726506143804173 Ti
atom 6.9560592243183779 0.9029265000000000 19.0336530465461635 O
atom 4.5679709027420081 3.7390416200000001 17.5038827713462695 O
atom 5.8036561971266565 1.4180575900000001 16.5297702890144080 O
atom 7.3243202161349803 3.2239105299999999 17.5038827671360266 O
atom 4.1580687295030536 2.3209840399999999 20.7726506341138375 Ti
atom 3.0056656686294043 9.2839360299999996 18.2687678550059900 Ti
atom 8.5600055273605999 0.9029265000000000 16.5297702955922112 O
atom 2.9640245996997856 3.7390416300000000 20.0077655223002218 O
atom 4.1997098940844353 1.4180575900000001 19.0336530399683639 O
atom 5.7203739130927627 3.2239105299999999 20.0077655180899825 O
atom 5.7620150409657569 6.9629519999999996 18.2687678885539029 Ti
atom 1.4017193686136431 4.6419680000000003 20.7726506197744456 Ti
atom 6.9560592327388626 5.5448945299999997 19.0336530519401919 O
atom 4.5679709081360267 8.3810096299999994 17.5038827629257838 O
atom 5.8036562139676162 6.0600256000000012 16.5297702998024505 O
atom 7.3243202329759480 7.8658785299999998 17.5038827779240727 O
atom 7.3659613386139569 6.9629519900000014 15.7648851460204327 Ti
atom 3.0056656716558612 4.6419680100000003 18.2687678688204933 Ti
atom 8.5600055357810803 5.5448945299999997 16.5297703009862360 O
atom 2.9640245912793004 8.3810096299999994 20.0077655169061970 O
atom 4.1997099109253959 6.0600256100000003 19.0336530507564063 O
atom 5.7203739299337322 7.8658785299999998 20.0077655288780250 O
atom 9.6707673033985593 2.3209840499999999 20.7726506155642028 Ti
atom 8.5183643290972917 9.2839360499999994 18.2687678681615964 Ti
atom 3.0473068837336719 0.9029265000000000 16.5297702932246473 O
atom 8.4767232264857437 3.7390416399999999 20.0077655138797361 O
atom 9.7124085154763762 1.4180576000000003 19.0336530399683639 O
atom 0.2076752664393771 3.2239105299999999 20.0077655019079117 O
atom 0.2493163720773879 2.3209840499999999 18.2687678700042753 Ti
atom 6.9144180176345857 9.2839360400000004 20.7726506137215310 Ti
atom 1.4433605806914538 0.9029265000000000 19.0336530441785996 O
atom 10.0806695241339455 3.7390416399999999 17.5038827713462659 O
atom 0.2909575757347185 1.4180576000000003 16.5297702890144080 O
atom 1.8116215694816000 3.2239105399999999 17.5038827509539558 O
atom 9.6707673202395252 6.9629519999999996 20.7726506263522488 Ti
atom 8.5183643237032705 4.6419680100000003 18.2687678765820785 Ti
atom 3.0473068837336719 5.5448945200000015 16.5297702932246473 O
atom 8.4767232318797685 8.3810096400000020 20.0077655054592540 O
atom 9.7124085323173368 6.0600256200000020 19.0336530507564063 O
atom 0.2076752832803423 7.8658785400000006 20.0077655126959577 O
atom 0.2493163804978681 6.9629520100000022 18.2687678753982965 Ti
atom 6.9144180206610519 4.6419680100000003 20.7726506275360308 Ti
atom 1.4433605837179153 5.5448945200000015 19.0336530579931065 O
atom 10.0806695211074846 8.3810096400000020 17.5038827575317626 O
atom 0.2909575925756788 6.0600256200000020 16.5297702998024505 O
atom 1.8116215863225651 7.8658785400000006 17.5038827617420054 O
atom 2.5957635910422128 1.4180575900000001 21.5375357909223162 O
atom 5.3521129212761593 0.9029265000000000 21.5375357975001194 O
atom 2.5957636078831730 6.0600256000000012 21.5375358017103586 O
atom 4.1580687325295109 6.9629519900000014 20.7726506479283373 Ti
atom 5.3521129296966352 5.5448945299999997 21.5375358028941406 O
atom 10.8648115204331113 0.9029265000000000 21.5375357951325554 O
atom 8.1084622124341479 1.4180576000000003 21.5375357909223126 O
atom 10.8648115204331113 5.5448945200000015 21.5375357951325554 O
atom 8.1084622292751138 6.0600256200000020 21.5375358017103586 O
