#===============================================================================
# Created using the Atomic Simulation Environment (ASE)

# Mon Mar 23 14:01:31 2026

#=======================================================
lattice_vector 7.6004937600000506 0.0000000000000000 0.0000000000000000 
lattice_vector -0.0000000000000672 7.6004436200000214 0.0000000000000000 
lattice_vector 0.0000000000000000 0.0000000000000000 67.3892947499996353 
atom 0.0000046413884537 7.6004405965652442 20.3005774249999504 Ti
atom 1.9001274974648799 1.9001082682446226 15.4300114199999996 Ti
atom 1.9001276894290100 7.6004407324033840 17.8653148249999774 Ti
atom 0.0000040376773056 1.9001082910593681 15.0000000000000000 O
atom 1.9001276096404438 1.9001080452188095 17.4352942899999874 O
atom 1.9001274172534550 7.6004409654291916 15.8600320350000032 O
atom 0.0000043292165916 7.6004407195886170 18.2953265249999788 O
atom 1.9001280416008932 7.6004406293799978 19.8705659049999497 O
atom 0.0000046513884873 3.8002187765652327 20.3005774249999362 Ti
atom 1.9001274974648552 5.7003300782446269 15.4300114999999991 Ti
atom 1.9001276894290422 3.8002189024033743 17.8653148149999765 Ti
atom 0.0000040576772790 5.7003300810593736 15.0000000599999908 O
atom 1.9001276096404167 5.7003298652188157 17.4352943499999924 O
atom 1.9001274172534897 3.8002191354291797 15.8600320450000112 O
atom 0.0000043292166252 3.8002188795886069 18.2953265249999646 O
atom 1.9001280516009280 3.8002188093799862 19.8705659149999434 O
atom 3.8002515113884754 7.6004405965652468 20.3005773949999409 Ti
atom 5.7003744374649061 1.9001082582446223 15.4300114299999862 Ti
atom 5.7003746394290360 7.6004407624033847 17.8653148249999632 Ti
atom 3.8002509376773403 1.9001082910593625 15.0000000799999924 O
atom 5.7003746496404775 1.9001080452188042 17.4352943599999648 O
atom 5.7003745772534806 7.6004409254291918 15.8600320349999748 O
atom 3.8002512092166070 7.6004407195886232 18.2953264449999722 O
atom 5.7003749116009192 7.6004406593799967 19.8705659149999576 O
atom 3.8002515113885096 3.8002187765652349 20.3005774049999488 Ti
atom 5.7003744374648821 5.7003300682446261 15.4300114999999849 Ti
atom 5.7003746294290698 3.8002188724033732 17.8653148249999632 Ti
atom 3.8002509076773130 5.7003300810593691 15.0000001300000037 O
atom 5.7003746496404366 5.7003298652188192 17.4352942999999740 O
atom 5.7003745772535162 3.8002191454291792 15.8600320449999685 O
atom 3.8002512092166421 3.8002188895886122 18.2953264549999659 O
atom 5.7003749216009538 3.8002187793799851 19.8705659249999513 O
atom 1.9001286953123426 1.9001074948857091 25.1711450599999012 Ti
atom 1.9001289072765992 7.6004399590443876 27.6064495549998767 Ti
atom 0.0000069470833561 7.6004390698474333 39.7828445049997583 Ti
atom 0.0000048533527836 1.9001076307239100 22.7358816699999196 Ti
atom 0.0000051855246966 1.9001074877005020 24.7411330199999000 O
atom 1.9001289374879471 1.9001072818598694 27.1764282799998682 O
atom 1.9001287951009893 7.6004401920702316 25.6011662849998913 O
atom 0.0000054870641861 7.6004399462296170 28.0364612949998744 O
atom 1.9001291994484848 7.6004398460209996 29.6117006549998507 O
atom 0.0000048435640657 7.6004403835393992 22.3058607049999296 O
atom 0.0000046911771891 1.9001078537497420 20.7305985499999395 O
atom 1.9001283331404362 1.9001075979091115 23.1658937799999194 O
atom 1.9001298031597824 1.9001067415268111 34.9122784999998004 Ti
atom 1.9001299951239130 7.6004392056855732 37.3475819049997853 Ti
atom 0.0000057992360902 7.6004398332062166 30.0417125649998482 Ti
atom 0.0000060312003577 1.9001068873649223 32.4770162799998232 Ti
atom 0.0000063433722081 1.9001067643415566 34.4822670799998008 O
atom 1.9001299153353464 1.9001065185009982 36.9175613699997882 O
atom 1.9001297229483578 7.6004394387113807 35.3422991149998111 O
atom 0.0000066349114954 7.6004391928708044 37.7775936049997867 O
atom 1.9001303472957958 7.6004391026621860 39.3528329849997576 O
atom 0.0000059914116635 7.6004396301803974 32.0469955049998276 O
atom 0.0000058290247688 1.9001070903907513 30.4717331999998535 O
atom 1.9001295109879175 1.9001068745501861 32.9070275799998200 O
atom 1.9001286853123092 5.7003293248857192 25.1711450599999012 Ti
atom 1.9001289072766314 3.8002181490443769 27.6064495449998688 Ti
atom 0.0000069570833897 3.8002172498474218 39.7828445049997441 Ti
atom 0.0000048533527483 5.7003294607239203 22.7358816599999329 Ti
atom 0.0000051755246619 5.7003293577005127 24.7411330099999063 O
atom 1.9001289274879123 5.7003290918598797 27.1764282699998745 O
atom 1.9001287951010206 3.8002183820702218 25.6011662649998755 O
atom 0.0000054870642197 3.8002181462296067 28.0364613049998752 O
atom 1.9001291994485170 3.8002180560209888 29.6117006449998570 O
atom 0.0000048435641009 3.8002185735393876 22.3058607249999241 O
atom 0.0000046811771544 5.7003296637497529 20.7305985399999457 O
atom 1.9001283331404015 5.7003294779091229 23.1658937699999328 O
atom 1.9001298031597578 5.7003285515268152 34.9122785799998070 Ti
atom 1.9001299951239452 3.8002173756855631 37.3475818949997844 Ti
atom 0.0000057992361237 3.8002180332062045 30.0417125649998553 Ti
atom 0.0000060012003276 5.7003286973649301 32.4770163099998257 Ti
atom 0.0000063633721814 5.7003285543415618 34.4822671399997915 O
atom 1.9001299153353197 5.7003283385010040 36.9175614299998003 O
atom 1.9001297229483922 3.8002176087113679 35.3422991249998120 O
atom 0.0000066349115273 3.8002173528707952 37.7775936049997725 O
atom 1.9001303572958310 3.8002172826621741 39.3528329949997584 O
atom 0.0000059914116971 3.8002178201803871 32.0469955049998276 O
atom 0.0000057990247365 5.7003289103907600 30.4717332099998472 O
atom 1.9001295009878942 5.7003286645501889 32.9070276699998274 O
atom 5.7003755353123688 1.9001074848857091 25.1711450599999012 Ti
atom 5.7003757472766265 7.6004399690443867 27.6064495549998838 Ti
atom 3.8002538170833775 7.6004390698474342 39.7828444749997558 Ti
atom 3.8002517233528046 1.9001076307239118 22.7358816499999250 Ti
atom 3.8002520655247154 1.9001074877005066 24.7411329599998950 O
atom 5.7003756474879737 1.9001072818598694 27.1764282799998895 O
atom 5.7003754851010147 7.6004401920702316 25.6011662849999055 O
atom 3.8002523670642181 7.6004399362296127 28.0364613649998731 O
atom 5.7003760894485094 7.6004398660209995 29.6117006449998428 O
atom 3.8002516835640852 7.6004403835394019 22.3058606649999263 O
atom 3.8002515211772110 1.9001078537497444 20.7305985199999512 O
atom 5.7003752231404592 1.9001075879091132 23.1658937599999177 O
atom 5.7003767431598105 1.9001067315268105 34.9122785099998012 Ti
atom 5.7003769451239377 7.6004392356855730 37.3475819049997781 Ti
atom 3.8002526792361189 7.6004398132062141 30.0417125949998436 Ti
atom 3.8002528912003855 1.9001068773649201 32.4770163099998257 Ti
atom 3.8002532433722420 1.9001067643415506 34.4822671599998003 O
atom 5.7003769553353809 1.9001065185009927 36.9175614399997656 O
atom 5.7003768829483832 7.6004393987113801 35.3422991149997827 O
atom 3.8002535149115100 7.6004391928708115 37.7775935249997801 O
atom 5.7003772172958209 7.6004391326621850 39.3528329949997584 O
atom 3.8002528814116929 7.6004396201803930 32.0469955549998318 O
atom 3.8002527090248002 1.9001070803907476 30.4717332499998506 O
atom 5.7003763809879526 1.9001068745501808 32.9070276499998329 O
atom 5.7003755253123360 5.7003293148857193 25.1711450599999012 Ti
atom 5.7003757372766586 3.8002181490443765 27.6064495549998838 Ti
atom 3.8002538170834117 3.8002172498474227 39.7828444849997496 Ti
atom 3.8002517133527705 5.7003294607239221 22.7358816399999313 Ti
atom 3.8002520555246804 5.7003293577005181 24.7411329499999013 O
atom 5.7003756374879400 5.7003290918598797 27.1764282799998895 O
atom 5.7003754851010466 3.8002183820702222 25.6011662649999039 O
atom 3.8002523670642523 3.8002181462296023 28.0364613649998731 O
atom 5.7003760794485441 3.8002180360209894 29.6117006449998570 O
atom 3.8002516835641211 3.8002185735393907 22.3058606849999421 O
atom 3.8002515411771758 5.7003296637497556 20.7305985099999575 O
atom 5.7003752231404254 5.7003294679091239 23.1658937599999248 O
atom 5.7003767431597838 5.7003285415268135 34.9122785799997999 Ti
atom 5.7003769351239724 3.8002173456855624 37.3475819049997639 Ti
atom 3.8002526792361522 3.8002180232062037 30.0417125949998436 Ti
atom 3.8002529012003565 5.7003286873649266 32.4770163499998290 Ti
atom 3.8002532133722151 5.7003285543415574 34.4822672099997973 O
atom 5.7003769553353392 5.7003283385010075 36.9175613799997748 O
atom 5.7003768829484178 3.8002176187113683 35.3422991249997835 O
atom 3.8002535149115442 3.8002173628708005 37.7775935349997809 O
atom 5.7003772272958564 3.8002172526621734 39.3528330049997521 O
atom 3.8002528814117258 3.8002178101803841 32.0469955449998309 O
atom 3.8002527290247667 5.7003289003907582 30.4717332499998506 O
atom 5.7003763809879144 5.7003286545501926 32.9070276199998233 O
atom 1.9001310010072452 1.9001059681678978 44.6534121399997019 Ti
atom 1.9001312129715018 7.6004384323265759 47.0887166349996846 Ti
atom 0.0000071590476857 1.9001061040060985 42.2181487499997274 Ti
atom 0.0000074912195991 1.9001059609826905 44.2234000999997008 O
atom 1.9001312431828492 1.9001057551420582 46.6586953599996832 O
atom 1.9001311007958919 7.6004386653524199 45.0834333649996921 O
atom 0.0000077927590865 7.6004384195118062 47.5187283749996823 O
atom 1.9001315051433874 7.6004383193031879 49.0939677349996373 O
atom 0.0000071492589678 7.6004388568215884 41.7881277849997375 O
atom 0.0000069968720915 1.9001063270319303 40.2128656299997544 O
atom 1.9001306388353387 1.9001060711913003 42.6481608599997344 O
atom 0.0000081049309926 7.6004383064884049 49.5239796449996561 Ti
atom 0.0000083368952598 1.9001053606471108 51.9592833599996311 Ti
atom 0.0000082971065656 7.6004381034625865 51.5292625849996284 O
atom 0.0000081347196713 1.9001055636729396 49.9540002799996614 O
atom 1.9001318166828196 1.9001053478323746 52.3892946599996492 O
atom 1.9001309910072113 5.7003277981679084 44.6534121399997019 Ti
atom 1.9001312129715340 3.8002166223265657 47.0887166249997051 Ti
atom 0.0000071590476504 5.7003279340061104 42.2181487399997408 Ti
atom 0.0000074812195643 5.7003278309827028 44.2234000899997142 O
atom 1.9001312331828144 5.7003275651420688 46.6586953499996753 O
atom 1.9001311007959227 3.8002168553524101 45.0834333449996905 O
atom 0.0000077927591218 3.8002166195117946 47.5187283849996902 O
atom 1.9001315051434196 3.8002165293031767 49.0939677249996578 O
atom 0.0000071492590047 3.8002170468215755 41.7881278049997320 O
atom 0.0000069868720568 5.7003281370319412 40.2128656199997536 O
atom 1.9001306388353039 5.7003279511913121 42.6481608499997407 O
atom 0.0000081049310262 3.8002165064883928 49.5239796449996561 Ti
atom 0.0000083068952297 5.7003271706471184 51.9592833899996265 Ti
atom 0.0000082971065992 3.8002162934625754 51.5292625849996284 O
atom 0.0000081047196386 5.7003273836729491 49.9540002899996409 O
atom 1.9001318066827968 5.7003271378323781 52.3892947499996353 O
atom 5.7003778410072705 1.9001059581678976 44.6534121399997019 Ti
atom 5.7003780529715273 7.6004384423265767 47.0887166349996846 Ti
atom 3.8002540290477076 1.9001061040060998 42.2181487299997400 Ti
atom 3.8002543712196184 1.9001059609826951 44.2234000399997029 O
atom 5.7003779531828744 1.9001057551420582 46.6586953599996832 O
atom 5.7003777907959163 7.6004386653524199 45.0834333649997205 O
atom 3.8002546727591211 7.6004384095118001 47.5187284449996810 O
atom 5.7003783951434110 7.6004383393031887 49.0939677249996578 O
atom 3.8002539892589882 7.6004388568215902 41.7881277449997413 O
atom 3.8002538268721140 1.9001063270319327 40.2128655999997591 O
atom 5.7003775288353618 1.9001060611913017 42.6481608399997327 O
atom 3.8002549849310219 7.6004382864884024 49.5239796749996515 Ti
atom 3.8002551968952885 1.9001053506471088 51.9592833899996265 Ti
atom 3.8002551871065959 7.6004380934625821 51.5292626349996397 O
atom 3.8002550147197023 1.9001055536729359 49.9540003299996442 O
atom 5.7003786866828534 1.9001053478323695 52.3892947299996194 O
atom 5.7003778310072377 5.7003277881679084 44.6534121399997019 Ti
atom 5.7003780429715603 3.8002166223265652 47.0887166349997131 Ti
atom 3.8002540190476726 5.7003279340061104 42.2181487199997321 Ti
atom 3.8002543612195825 5.7003278309827063 44.2234000299997021 O
atom 5.7003779431828416 5.7003275651420680 46.6586953599996832 O
atom 5.7003777907959474 3.8002168553524101 45.0834333449997189 O
atom 3.8002546727591544 3.8002166195117906 47.5187284449996810 O
atom 5.7003783851434449 3.8002165093031772 49.0939677249996578 O
atom 3.8002539892590232 3.8002170468215790 41.7881277649997429 O
atom 3.8002538468720779 5.7003281370319439 40.2128655899997582 O
atom 5.7003775288353289 5.7003279411913130 42.6481608399997398 O
atom 3.8002549849310552 3.8002164964883911 49.5239796749996515 Ti
atom 3.8002552068952595 5.7003271606471166 51.9592834299996298 Ti
atom 3.8002551871066284 3.8002162834625719 51.5292626249996317 O
atom 3.8002550347196689 5.7003273736729465 49.9540003299996442 O
atom 5.7003786866828179 5.7003271278323826 52.3892946999996241 O
