#===============================================================================
# Created using the Atomic Simulation Environment (ASE)

# Mon Mar 23 14:01:35 2026

#=======================================================
lattice_vector 11.0253972427838800 0.0000000000000000 0.0000000000000000 
lattice_vector 0.0000000000000000 9.2839361000000000 0.0000000000000000 
lattice_vector 0.0000000000000000 0.0000000000000000 31.5297703009862289 
atom 1.4017193601931581 9.2839360400000004 15.7648851124725056 Ti
atom 4.1580687295030536 2.3209840399999999 15.7648851322059258 Ti
atom 2.9640245996997856 3.7390416300000000 15.0000000203923101 O
atom 5.7203739130927627 3.2239105299999999 15.0000000161820708 O
atom 1.4017193686136431 4.6419680000000003 15.7648851178665339 Ti
atom 2.9640245912793004 8.3810096299999994 15.0000000149982853 O
atom 5.7203739299337322 7.8658785299999998 15.0000000269701133 O
atom 9.6707673033985593 2.3209840499999999 15.7648851136562911 Ti
atom 8.4767232264857437 3.7390416399999999 15.0000000119718244 O
atom 0.2076752664393771 3.2239105299999999 15.0000000000000000 O
atom 6.9144180176345857 9.2839360400000004 15.7648851118136193 Ti
atom 9.6707673202395252 6.9629519999999996 15.7648851244443371 Ti
atom 8.4767232318797685 8.3810096400000020 15.0000000035513423 O
atom 0.2076752832803423 7.8658785400000006 15.0000000107880460 O
atom 6.9144180206610519 4.6419680100000003 15.7648851256281191 Ti
atom 2.5957635910422128 1.4180575900000001 16.5297702890144045 O
atom 5.3521129212761593 0.9029265000000000 16.5297702955922077 O
atom 2.5957636078831730 6.0600256000000012 16.5297702998024469 O
atom 4.1580687325295109 6.9629519900000014 15.7648851460204256 Ti
atom 5.3521129296966352 5.5448945299999997 16.5297703009862289 O
atom 10.8648115204331113 0.9029265000000000 16.5297702932246438 O
atom 8.1084622124341479 1.4180576000000003 16.5297702890144009 O
atom 10.8648115204331113 5.5448945200000015 16.5297702932246438 O
atom 8.1084622292751138 6.0600256200000020 16.5297702998024469 O
