#===============================================================================
# Created using the Atomic Simulation Environment (ASE)

# Mon Mar 23 14:01:34 2026

#=======================================================
lattice_vector 9.2839158800000003 0.0000000000000000 0.0000000000000000 
lattice_vector 0.0000000000000000 9.2839361000000000 0.0000000000000000 
lattice_vector 0.0000000000000000 0.0000000000000000 30.0000000200000017 
atom 2.3209789600000001 2.3209840399999999 15.0000000000000000 Ti
atom 3.7390025300000000 0.9029265000000000 15.0000000000000000 O
atom 0.9029554700000000 3.7390416300000000 15.0000000100000008 O
atom 2.3209789700000001 6.9629519900000014 15.0000000100000008 Ti
atom 3.7390025400000000 5.5448945299999997 15.0000000000000000 O
atom 0.9029554600000000 8.3810096299999994 15.0000000100000008 O
atom 6.9629368600000001 2.3209840499999999 15.0000000100000008 Ti
atom 8.3809604499999999 0.9029265000000000 15.0000000100000008 O
atom 5.5449134100000004 3.7390416399999999 15.0000000100000008 O
atom 6.9629368700000001 6.9629520100000022 15.0000000100000008 Ti
atom 8.3809604600000007 5.5448945200000015 15.0000000200000017 O
atom 5.5449134000000004 8.3810096400000020 15.0000000000000000 O
