#===============================================================================
# Created using the Atomic Simulation Environment (ASE)

# Mon Mar 23 14:01:31 2026

#=======================================================
lattice_vector 7.6004937600000506 0.0000000000000000 0.0000000000000000 
lattice_vector -0.0000000000000672 7.6004436200000214 0.0000000000000000 
lattice_vector 0.0000000000000000 0.0000000000000000 50.3422992449998077 
atom 0.0000069470833561 7.6004390698474333 22.7358489999999307 Ti
atom 1.9001298031597824 1.9001067415268111 17.8652829949999727 Ti
atom 1.9001299951239130 7.6004392056855732 20.3005863999999576 Ti
atom 0.0000060312003577 1.9001068873649223 15.4300207749999956 Ti
atom 0.0000063433722081 1.9001067643415566 17.4352715749999732 O
atom 1.9001299153353464 1.9001065185009982 19.8705658649999606 O
atom 1.9001297229483578 7.6004394387113807 18.2953036099999835 O
atom 0.0000066349114954 7.6004391928708044 20.7305980999999591 O
atom 1.9001303472957958 7.6004391026621860 22.3058374799999299 O
atom 0.0000059914116635 7.6004396301803974 15.0000000000000000 O
atom 1.9001295109879175 1.9001068745501861 15.8600320749999923 O
atom 0.0000069570833897 3.8002172498474218 22.7358489999999165 Ti
atom 1.9001298031597578 5.7003285515268152 17.8652830749999794 Ti
atom 1.9001299951239452 3.8002173756855631 20.3005863899999568 Ti
atom 0.0000060012003276 5.7003286973649301 15.4300208049999981 Ti
atom 0.0000063633721814 5.7003285543415618 17.4352716349999639 O
atom 1.9001299153353197 5.7003283385010040 19.8705659249999727 O
atom 1.9001297229483922 3.8002176087113679 18.2953036199999843 O
atom 0.0000066349115273 3.8002173528707952 20.7305980999999448 O
atom 1.9001303572958310 3.8002172826621741 22.3058374899999308 O
atom 0.0000059914116971 3.8002178201803871 15.0000000000000000 O
atom 1.9001295009878942 5.7003286645501889 15.8600321649999998 O
atom 3.8002538170833775 7.6004390698474342 22.7358489699999282 Ti
atom 5.7003767431598105 1.9001067315268105 17.8652830049999736 Ti
atom 5.7003769451239377 7.6004392356855730 20.3005863999999505 Ti
atom 3.8002528912003855 1.9001068773649201 15.4300208049999981 Ti
atom 3.8002532433722420 1.9001067643415506 17.4352716549999727 O
atom 5.7003769553353809 1.9001065185009927 19.8705659349999380 O
atom 5.7003768829483832 7.6004393987113801 18.2953036099999551 O
atom 3.8002535149115100 7.6004391928708115 20.7305980199999524 O
atom 5.7003772172958209 7.6004391326621850 22.3058374899999308 O
atom 3.8002528814116929 7.6004396201803930 15.0000000500000041 O
atom 5.7003763809879526 1.9001068745501808 15.8600321450000052 O
atom 3.8002538170834117 3.8002172498474227 22.7358489799999219 Ti
atom 5.7003767431597838 5.7003285415268135 17.8652830749999723 Ti
atom 5.7003769351239724 3.8002173456855624 20.3005863999999363 Ti
atom 3.8002529012003565 5.7003286873649266 15.4300208450000014 Ti
atom 3.8002532133722151 5.7003285543415574 17.4352717049999697 O
atom 5.7003769553353392 5.7003283385010075 19.8705658749999472 O
atom 5.7003768829484178 3.8002176187113683 18.2953036199999559 O
atom 3.8002535149115442 3.8002173628708005 20.7305980299999533 O
atom 5.7003772272958564 3.8002172526621734 22.3058374999999245 O
atom 3.8002528814117258 3.8002178101803841 15.0000000400000033 O
atom 5.7003763809879144 5.7003286545501926 15.8600321149999957 O
atom 1.9001310010072452 1.9001059681678978 27.6064166349998743 Ti
atom 1.9001312129715018 7.6004384323265759 30.0417211299998570 Ti
atom 0.0000071590476857 1.9001061040060985 25.1711532449998998 Ti
atom 0.0000074912195991 1.9001059609826905 27.1764045949998732 O
atom 1.9001312431828492 1.9001057551420582 29.6116998549998556 O
atom 1.9001311007958919 7.6004386653524199 28.0364378599998645 O
atom 0.0000077927590865 7.6004384195118062 30.4717328699998546 O
atom 1.9001315051433874 7.6004383193031879 32.0469722299998097 O
atom 0.0000071492589678 7.6004388568215884 24.7411322799999098 O
atom 0.0000069968720915 1.9001063270319303 23.1658701249999268 O
atom 1.9001306388353387 1.9001060711913003 25.6011653549999068 O
atom 0.0000081049309926 7.6004383064884049 32.4769841399998285 Ti
atom 0.0000083368952598 1.9001053606471108 34.9122878549998035 Ti
atom 0.0000082971065656 7.6004381034625865 34.4822670799998008 O
atom 0.0000081347196713 1.9001055636729396 32.9070047749998338 O
atom 1.9001318166828196 1.9001053478323746 35.3422991549998216 O
atom 1.9001309910072113 5.7003277981679084 27.6064166349998743 Ti
atom 1.9001312129715340 3.8002166223265657 30.0417211199998775 Ti
atom 0.0000071590476504 5.7003279340061104 25.1711532349999132 Ti
atom 0.0000074812195643 5.7003278309827028 27.1764045849998865 O
atom 1.9001312331828144 5.7003275651420688 29.6116998449998476 O
atom 1.9001311007959227 3.8002168553524101 28.0364378399998628 O
atom 0.0000077927591218 3.8002166195117946 30.4717328799998626 O
atom 1.9001315051434196 3.8002165293031767 32.0469722199998301 O
atom 0.0000071492590047 3.8002170468215755 24.7411322999999044 O
atom 0.0000069868720568 5.7003281370319412 23.1658701149999260 O
atom 1.9001306388353039 5.7003279511913121 25.6011653449999130 O
atom 0.0000081049310262 3.8002165064883928 32.4769841399998285 Ti
atom 0.0000083068952297 5.7003271706471184 34.9122878849997988 Ti
atom 0.0000082971065992 3.8002162934625754 34.4822670799998008 O
atom 0.0000081047196386 5.7003273836729491 32.9070047849998133 O
atom 1.9001318066827968 5.7003271378323781 35.3422992449998077 O
atom 5.7003778410072705 1.9001059581678976 27.6064166349998743 Ti
atom 5.7003780529715273 7.6004384423265767 30.0417211299998570 Ti
atom 3.8002540290477076 1.9001061040060998 25.1711532249999124 Ti
atom 3.8002543712196184 1.9001059609826951 27.1764045349998753 O
atom 5.7003779531828744 1.9001057551420582 29.6116998549998556 O
atom 5.7003777907959163 7.6004386653524199 28.0364378599998929 O
atom 3.8002546727591211 7.6004384095118001 30.4717329399998533 O
atom 5.7003783951434110 7.6004383393031887 32.0469722199998301 O
atom 3.8002539892589882 7.6004388568215902 24.7411322399999136 O
atom 3.8002538268721140 1.9001063270319327 23.1658700949999314 O
atom 5.7003775288353618 1.9001060611913017 25.6011653349999051 O
atom 3.8002549849310219 7.6004382864884024 32.4769841699998238 Ti
atom 3.8002551968952885 1.9001053506471088 34.9122878849997988 Ti
atom 3.8002551871065959 7.6004380934625821 34.4822671299998120 O
atom 3.8002550147197023 1.9001055536729359 32.9070048249998166 O
atom 5.7003786866828534 1.9001053478323695 35.3422992249997918 O
atom 5.7003778310072377 5.7003277881679084 27.6064166349998743 Ti
atom 5.7003780429715603 3.8002166223265652 30.0417211299998854 Ti
atom 3.8002540190476726 5.7003279340061104 25.1711532149999044 Ti
atom 3.8002543612195825 5.7003278309827063 27.1764045249998745 O
atom 5.7003779431828416 5.7003275651420680 29.6116998549998556 O
atom 5.7003777907959474 3.8002168553524101 28.0364378399998913 O
atom 3.8002546727591544 3.8002166195117906 30.4717329399998533 O
atom 5.7003783851434449 3.8002165093031772 32.0469722199998301 O
atom 3.8002539892590232 3.8002170468215790 24.7411322599999153 O
atom 3.8002538468720779 5.7003281370319439 23.1658700849999306 O
atom 5.7003775288353289 5.7003279411913130 25.6011653349999122 O
atom 3.8002549849310552 3.8002164964883911 32.4769841699998238 Ti
atom 3.8002552068952595 5.7003271606471166 34.9122879249998022 Ti
atom 3.8002551871066284 3.8002162834625719 34.4822671199998041 O
atom 3.8002550347196689 5.7003273736729465 32.9070048249998166 O
atom 5.7003786866828179 5.7003271278323826 35.3422991949997964 O
