#===============================================================================
# Created using the Atomic Simulation Environment (ASE)

# Mon Mar 23 14:01:33 2026

#=======================================================
lattice_vector 11.0253972427838800 0.0000000000000000 0.0000000000000000 
lattice_vector 3.2078926060844428 10.5484209638685815 0.0000000000000000 
lattice_vector 0.0000000000000000 0.0000000000000000 43.2224183596147569 
atom 1.1524029965362592 0.8540624129636980 15.0000146844921254 Ti
atom 11.0253971784464824 8.1710304692990725 16.1018803697662456 Ti
atom 5.5543397997878268 9.7912923618304113 15.0000000163259770 O
atom 10.9837561149108875 2.4652534466820395 15.0000294022161675 O
atom 13.8233877123377589 10.2446724622269283 15.2445537414029673 O
atom 12.2194414261365036 4.9704619399660857 15.2445537319081748 O
atom 2.7563493079989607 6.1282728043246602 15.0000146417654676 Ti
atom 9.4214508838247450 2.8968200024065309 16.1018803840084814 Ti
atom 3.9503935051660881 4.5170818597328450 15.0000000115785781 O
atom 12.5877024095326284 7.7394638959720661 15.0000293784791197 O
atom 8.3106890909458251 10.2446724710281831 15.2445537461503768 O
atom 6.6651015842462700 0.8540624320080061 15.0000146702498629 Ti
atom 5.5126985931040400 8.1710304696118765 16.1018803691863397 Ti
atom 11.0670383989447796 9.7912923629543904 15.0000000142422216 O
atom 5.4710574935189529 2.4652534642845527 15.0000294117109831 O
atom 8.2690478957089706 6.1282728233689658 15.0000146275232016 Ti
atom 3.9087522930882752 2.8968199987217891 16.1018803908396571 Ti
atom 9.4630920959025566 4.5170818546163307 15.0000000000000000 O
atom 7.0750038073492183 7.7394639102076548 15.0000293731517829 O
atom 6.7067428047445681 4.9704619575685998 15.2445537414029904 O
atom 12.1778002393201419 9.0250929211425159 19.4074776671267202 Ti
atom 7.8175045723620435 5.7936400136093091 20.5093433524008404 Ti
atom 2.3464471937033853 7.4139019061406488 19.4074629989605683 O
atom 7.7758635088264461 0.0878629909922771 19.4074923848507588 O
atom 12.2194414092955412 9.0559772343820448 17.4482852327202664 O
atom 13.7401054283038722 10.1829038595858670 19.1629386502789316 O
atom 13.7817465477563825 10.2137881529849430 17.2037461683983430 Ti
atom 9.4214508807982913 6.9823352366504796 18.3056118489250537 Ti
atom 3.9503934967456060 8.6025971339855296 17.2037315076432726 O
atom 9.3798098118686699 1.2765582276384149 17.2037608982808727 O
atom 10.6154951062533218 7.8672820065371649 19.6520167240375585 O
atom 1.1107618824777690 0.8231781235621668 16.9592071589616360 O
atom 12.1778002531346417 4.9395775892785805 17.2037461304190877 Ti
atom 7.8175045807825239 1.7081247657603935 18.3056118705783710 Ti
atom 2.3464472021238674 3.3283866318879629 17.2037315028958773 O
atom 10.9837561203049088 6.5507686695639675 17.2037608671327504 O
atom 9.0115488200520630 2.5930714842763232 19.6520167145427678 O
atom 2.7147082023609559 6.0973885563686494 16.9592071447194321 O
atom 10.5738539446983992 3.7508823486348972 19.4074776244000589 Ti
atom 6.2135582777403062 0.5194295467167691 20.5093433666430727 Ti
atom 0.7425008990816518 2.1396914040430821 19.4074629942131693 O
atom 9.3798098034481843 5.3620734402823027 19.4074923611137109 O
atom 10.6154951230942842 3.7817667209224601 17.4482852279728782 O
atom 12.1361591421026151 4.9086933285237677 19.1629386360367313 O
atom 8.2690478788680135 10.2137881705924691 17.2037461568197401 Ti
atom 3.9087522984823000 6.9823352480074874 18.3056118699984616 Ti
atom 9.4630920959025602 8.6025971351095087 17.2037315055595172 O
atom 3.8671111958707520 1.2765582404372164 17.2037608956172008 O
atom 5.1027964848613854 7.8672820153384198 19.6520167287849716 O
atom 6.6234604786082603 0.8231781312444548 16.9592071447193788 O
atom 6.6651015842462717 9.0250929401868252 19.4074776528844524 Ti
atom 2.3048059870195985 5.7936400139221131 20.5093433518209274 Ti
atom 7.8591457928603417 7.4139019072646288 19.4074629968768129 O
atom 2.2631648874345096 0.0878630085947901 19.4074923943455744 O
atom 6.7067427879036012 9.0559772431833014 17.4482852374676725 O
atom 8.2274067816504868 10.1829038760694122 19.1629386407840805 O
atom 5.0611552896245300 3.7508823676792042 19.4074776101577910 Ti
atom 0.7008596870038317 0.5194295430320269 20.5093433734742447 Ti
atom 6.2551994898181187 2.1396913989265678 19.4074629826345912 O
atom 3.8671112012647795 5.3620734545178923 19.4074923557863741 O
atom 5.1027965017023469 3.7817667297237176 17.4482852327202878 O
atom 6.6234604954492280 4.9086933450073138 19.1629386265418802 O
atom 6.6651015926667521 4.9395776043253434 17.2037461235879050 Ti
atom 2.3048059900460549 1.7081247708769083 18.3056118821569527 Ti
atom 7.8591457958868007 3.3283866202131400 17.2037315034757938 O
atom 5.4710574904924938 6.5507686809259900 17.2037608671327433 O
atom 3.4988501986601213 2.5930715018788364 19.6520167240375798 O
atom 8.2274067984914510 6.0973885728521955 16.9592071352245846 O
atom 8.9699076332356995 6.6477024654527535 23.8149406497613079 Ti
atom 4.6096119662776065 3.4162495579195462 24.9168063350354316 Ti
atom 10.1639518304028247 5.0365114504508854 23.8149259815951595 O
atom 7.7758635088264505 8.2588934991710961 23.8149553674853536 O
atom 9.0115488032111006 6.6785867786922823 21.8557482153548577 O
atom 10.5322128222194316 7.8055134038961036 23.5704016329135229 O
atom 10.5738539416719384 7.8363976972951805 21.6112091510329307 Ti
atom 6.2135582747138471 4.6049447809607154 22.7130748315596485 Ti
atom 11.7678981334450441 6.2252066782957662 21.6111944902778603 O
atom 9.3798098118686699 9.4475887358172326 21.6112238809154640 O
atom 7.4076025001688803 5.4898915508474024 24.0594797066721497 O
atom 12.1361591252616527 8.9942086317409853 21.3666701415962272 O
atom 8.9699076470501975 2.5621871335888176 21.6112091130536790 Ti
atom 7.8175045807825327 9.8791552739392117 22.7130748532129623 Ti
atom 10.1639518388233032 0.9509961761982004 21.6111944855304614 O
atom 7.7758635142204726 4.1733782138742050 21.6112238497673417 O
atom 5.8036562139676242 0.2156810285865595 24.0594796971773590 O
atom 10.5322128390603922 3.7199981006788865 21.3666701273540234 O
atom 7.3659613386139577 1.3734918929451347 23.8149406070346430 Ti
atom 6.2135582777403080 8.6904600548955866 24.9168063492776639 Ti
atom 11.7678981418655333 10.3107219122219007 23.8149259768477606 O
atom 6.1719171973637490 2.9846829845925402 23.8149553437483021 O
atom 7.4076025170098454 1.4043762652326974 21.8557482106074659 O
atom 8.9282665360181710 2.5313028728340052 23.5704016186713190 O
atom 5.0611552727835676 7.8363977149027058 21.6112091394543313 Ti
atom 11.7262569351817341 4.6049447923177249 22.7130748526330493 Ti
atom 6.2551994898181231 6.2252066794197463 21.6111944881941085 O
atom 3.8671111958707560 9.4475887486160364 21.6112238782517885 O
atom 1.8949038787769446 5.4898915596486582 24.0594797114195629 O
atom 6.6234604786082674 8.9942086394232721 21.3666701273539701 O
atom 3.4572089781618298 6.6477024844970600 23.8149406355190436 Ti
atom 10.1223106237190379 3.4162495582323520 24.9168063344555151 Ti
atom 4.6512531867758966 5.0365114515748646 23.8149259795114041 O
atom 13.2885621302183914 8.2588935167736075 23.8149553769801656 O
atom 3.4988501818191606 6.6785867874935390 21.8557482201022637 O
atom 5.0195141755660471 7.8055134203796488 23.5704016234186753 O
atom 1.8532626835400940 1.3734919119894409 23.8149405927923823 Ti
atom 11.7262569297877164 8.6904600512108452 24.9168063561088360 Ti
atom 6.2551994898181178 10.3107219071053855 23.8149259652691825 O
atom 11.6846158379642127 2.9846829988281294 23.8149553384209653 O
atom 1.8949038956179007 1.4043762740339552 21.8557482153548754 O
atom 3.4155678893647914 2.5313028893175504 23.5704016091764714 O
atom 3.4572089865823155 2.5621871486355805 21.6112091062224962 Ti
atom 13.3302032328299358 9.8791552790557269 22.7130748647915368 Ti
atom 4.6512531898023592 0.9509961645233768 21.6111944861103886 O
atom 2.2631648844080505 4.1733782252362275 21.6112238497673310 O
atom 0.2909575925756900 0.2156810461890742 24.0594797066721711 O
atom 5.0195141924070068 3.7199981171624317 21.3666701178591758 O
atom 5.7620150271512527 4.2703120097629919 28.2224036323958956 Ti
atom 6.9560592243183876 2.6591209947611230 28.2223889642297507 O
atom 4.5679709027420046 5.8815030434813336 28.2224183501199413 O
atom 5.8036561971266627 4.3011963230025199 26.2632111979894489 O
atom 7.3243202161349910 5.4281229482063402 27.9778646155481177 O
atom 7.3659613355875040 5.4590072416054189 26.0186721336675220 Ti
atom 3.0056656686294057 2.2275543252709542 27.1205378141942361 Ti
atom 8.5600055273606035 3.8478162226060042 26.0186574729124516 O
atom 6.1719172057842249 7.0701982801274701 26.0186868635500588 O
atom 8.9282665191772068 6.6168181760512228 25.7741331242308149 O
atom 5.7620150409657578 0.1847966778990548 26.0186720956882702 Ti
atom 4.6096119746980824 7.5017648182494518 27.1205378358475500 Ti
atom 10.1639518388233032 9.1220266843770190 26.0186574681650562 O
atom 4.5679709081360365 1.7959877581844412 26.0186868324019400 O
atom 7.3243202329759516 1.3426076449891244 25.7741331099886111 O
atom 7.3659613386139648 9.5445224011239524 28.2224035896692378 Ti
atom 8.5600055357810874 7.9333314565321400 28.2223889594823518 O
atom 2.9640245912793080 0.6072925289027785 28.2224183263828898 O
atom 7.4076025170098516 9.5754067734115171 26.2632111932420607 O
atom 5.7203739299337304 0.1539124171442419 27.9778646013059102 O
atom 1.8532626666991261 5.4590072592129424 26.0186721220889225 Ti
atom 8.5183643290972952 2.2275543366279607 27.1205378352676405 Ti
atom 3.0473068837336861 3.8478162237299829 26.0186574708286997 O
atom 11.6846158325701897 7.0701982929262730 26.0186868608863762 O
atom 3.4155678725238157 6.6168181837335105 25.7741331099885613 O
atom 11.2747136148612590 4.2703120288072984 28.2224036181536313 Ti
atom 1.4433605806914562 2.6591209958851039 28.2223889621459918 O
atom 10.0806695241339490 5.8815030610838450 28.2224183596147569 O
atom 11.3163548185185991 4.3011963318037782 26.2632112027368549 O
atom 1.8116215694816007 5.4281229646898872 27.9778646060532630 O
atom 12.8786599263239712 9.5445224201682599 28.2224035754269771 Ti
atom 3.0473068837336763 7.9333314514156239 28.2223889479037737 O
atom 8.4767232318797756 0.6072925431383657 28.2224183210555566 O
atom 12.9203011384017881 9.5754067822127755 26.2632111979894631 O
atom 0.2076752832803403 0.1539124336277889 27.9778645918110627 O
atom 0.2493163804978789 0.1847966929458179 26.0186720888570875 Ti
atom 10.1223106267454970 7.5017648233659626 27.1205378474261281 Ti
atom 4.6512531898023513 9.1220266727021979 26.0186574687449763 O
atom 10.0806695211074846 1.7959877695464654 26.0186868324019187 O
atom 1.8116215863225660 1.3426076614726701 25.7741331004937706 O
