#===============================================================================
# Created using the Atomic Simulation Environment (ASE)

# Mon Mar 23 14:01:31 2026

#=======================================================
lattice_vector 7.6004937600000506 0.0000000000000000 0.0000000000000000 
lattice_vector -0.0000000000000672 7.6004436200000214 0.0000000000000000 
lattice_vector 0.0000000000000000 0.0000000000000000 33.2953270249999775 
atom 1.9001315051433874 7.6004383193031879 15.0000000099999795 O
atom 0.0000081049309926 7.6004383064884049 15.4300119199999983 Ti
atom 0.0000083368952598 1.9001053606471108 17.8653156349999733 Ti
atom 0.0000082971065656 7.6004381034625865 17.4352948599999706 O
atom 0.0000081347196713 1.9001055636729396 15.8600325550000036 O
atom 1.9001318166828196 1.9001053478323746 18.2953269349999914 O
atom 1.9001315051434196 3.8002165293031767 15.0000000000000000 O
atom 0.0000081049310262 3.8002165064883928 15.4300119199999983 Ti
atom 0.0000083068952297 5.7003271706471184 17.8653156649999687 Ti
atom 0.0000082971065992 3.8002162934625754 17.4352948599999706 O
atom 0.0000081047196386 5.7003273836729491 15.8600325649999832 O
atom 1.9001318066827968 5.7003271378323781 18.2953270249999775 O
atom 5.7003783951434110 7.6004383393031887 15.0000000000000000 O
atom 3.8002549849310219 7.6004382864884024 15.4300119499999937 Ti
atom 3.8002551968952885 1.9001053506471088 17.8653156649999687 Ti
atom 3.8002551871065959 7.6004380934625821 17.4352949099999819 O
atom 3.8002550147197023 1.9001055536729359 15.8600326049999865 O
atom 5.7003786866828534 1.9001053478323695 18.2953270049999617 O
atom 5.7003783851434449 3.8002165093031772 15.0000000000000000 O
atom 3.8002549849310552 3.8002164964883911 15.4300119499999937 Ti
atom 3.8002552068952595 5.7003271606471166 17.8653157049999720 Ti
atom 3.8002551871066284 3.8002162834625719 17.4352948999999739 O
atom 3.8002550347196689 5.7003273736729465 15.8600326049999865 O
atom 5.7003786866828179 5.7003271278323826 18.2953269749999663 O
