#===============================================================================
# Created using the Atomic Simulation Environment (ASE)

# Mon Mar 23 14:01:33 2026

#=======================================================
lattice_vector 11.0253972427838800 0.0000000000000000 0.0000000000000000 
lattice_vector 3.2078926060844428 10.5484209638685815 0.0000000000000000 
lattice_vector 0.0000000000000000 0.0000000000000000 36.6112238740842955 
atom 8.9699076332356995 6.6477024654527535 17.2037461642308465 Ti
atom 4.6096119662776065 3.4162495579195462 18.3056118495049702 Ti
atom 10.1639518304028247 5.0365114504508854 17.2037314960646981 O
atom 7.7758635088264505 8.2588934991710961 17.2037608819548922 O
atom 9.0115488032111006 6.6785867786922823 15.2445537298243963 O
atom 10.5322128222194316 7.8055134038961036 16.9592071473830615 O
atom 10.5738539416719384 7.8363976972951805 15.0000146655024693 Ti
atom 6.2135582747138471 4.6049447809607154 16.1018803460291871 Ti
atom 11.7678981334450441 6.2252066782957662 15.0000000047473989 O
atom 9.3798098118686699 9.4475887358172326 15.0000293953850026 O
atom 7.4076025001688803 5.4898915508474024 17.4482852211416883 O
atom 8.9699076470501975 2.5621871335888176 15.0000146275232176 Ti
atom 7.8175045807825327 9.8791552739392117 16.1018803676825009 Ti
atom 10.1639518388233032 0.9509961761982004 15.0000000000000000 O
atom 7.7758635142204726 4.1733782138742050 15.0000293642368803 O
atom 5.8036562139676242 0.2156810285865595 17.4482852116468976 O
atom 7.3659613386139577 1.3734918929451347 17.2037461215041816 Ti
atom 6.2135582777403080 8.6904600548955866 18.3056118637472025 Ti
atom 11.7678981418655333 10.3107219122219007 17.2037314913172992 O
atom 6.1719171973637490 2.9846829845925402 17.2037608582178407 O
atom 7.4076025170098454 1.4043762652326974 15.2445537250770045 O
atom 8.9282665360181710 2.5313028728340052 16.9592071331408576 O
atom 5.0611552727835676 7.8363977149027058 15.0000146539238699 Ti
atom 11.7262569351817341 4.6049447923177249 16.1018803671025879 Ti
atom 6.2551994898181231 6.2252066794197463 15.0000000026636471 O
atom 3.8671111958707560 9.4475887486160364 15.0000293927213271 O
atom 1.8949038787769446 5.4898915596486582 17.4482852258891015 O
atom 3.4572089781618298 6.6477024844970600 17.2037461499885822 Ti
atom 10.1223106237190379 3.4162495582323520 18.3056118489250537 Ti
atom 4.6512531867758966 5.0365114515748646 17.2037314939809427 O
atom 13.2885621302183914 8.2588935167736075 17.2037608914497042 O
atom 3.4988501818191606 6.6785867874935390 15.2445537345718023 O
atom 5.0195141755660471 7.8055134203796488 16.9592071378882139 O
atom 1.8532626835400940 1.3734919119894409 17.2037461072619209 Ti
atom 11.7262569297877164 8.6904600512108452 18.3056118705783746 Ti
atom 6.2551994898181178 10.3107219071053855 17.2037314797387211 O
atom 11.6846158379642127 2.9846829988281294 17.2037608528905039 O
atom 1.8949038956179007 1.4043762740339552 15.2445537298244140 O
atom 3.4155678893647914 2.5313028893175504 16.9592071236460100 O
atom 3.4572089865823155 2.5621871486355805 15.0000146206920348 Ti
atom 13.3302032328299358 9.8791552790557269 16.1018803792610754 Ti
atom 4.6512531898023592 0.9509961645233768 15.0000000005799272 O
atom 2.2631648844080505 4.1733782252362275 15.0000293642368696 O
atom 0.2909575925756900 0.2156810461890742 17.4482852211417097 O
atom 5.7620150271512527 4.2703120097629919 21.6112091468654341 Ti
atom 6.9560592243183876 2.6591209947611230 21.6111944786992893 O
atom 4.5679709027420046 5.8815030434813336 21.6112238645894799 O
atom 5.8036561971266627 4.3011963230025199 19.6520167124589875 O
atom 7.3243202161349910 5.4281229482063402 21.3666701300176562 O
atom 7.3659613355875040 5.4590072416054189 19.4074776481370606 Ti
atom 3.0056656686294057 2.2275543252709542 20.5093433286637747 Ti
atom 8.5600055273606035 3.8478162226060042 19.4074629873819902 O
atom 6.1719172057842249 7.0701982801274701 19.4074923780195974 O
atom 8.9282665191772068 6.6168181760512228 19.1629386387003535 O
atom 5.7620150409657578 0.1847966778990548 19.4074776101578088 Ti
atom 4.6096119746980824 7.5017648182494518 20.5093433503170886 Ti
atom 10.1639518388233032 9.1220266843770190 19.4074629826345948 O
atom 4.5679709081360365 1.7959877581844412 19.4074923468714786 O
atom 7.3243202329759516 1.3426076449891244 19.1629386244581497 O
atom 7.3659613386139648 9.5445224011239524 21.6112091041387764 Ti
atom 8.5600055357810874 7.9333314565321400 21.6111944739518904 O
atom 2.9640245912793080 0.6072925289027785 21.6112238408524284 O
atom 7.4076025170098516 9.5754067734115171 19.6520167077115993 O
atom 5.7203739299337304 0.1539124171442419 21.3666701157754488 O
atom 1.8532626666991261 5.4590072592129424 19.4074776365584611 Ti
atom 8.5183643290972952 2.2275543366279607 20.5093433497371791 Ti
atom 3.0473068837336861 3.8478162237299829 19.4074629852982383 O
atom 11.6846158325701897 7.0701982929262730 19.4074923753559148 O
atom 3.4155678725238157 6.6168181837335105 19.1629386244580999 O
atom 11.2747136148612590 4.2703120288072984 21.6112091326231699 Ti
atom 1.4433605806914562 2.6591209958851039 21.6111944766155304 O
atom 10.0806695241339490 5.8815030610838450 21.6112238740842955 O
atom 11.3163548185185991 4.3011963318037782 19.6520167172063935 O
atom 1.8116215694816007 5.4281229646898872 21.3666701205228016 O
atom 12.8786599263239712 9.5445224201682599 21.6112090898965157 Ti
atom 3.0473068837336763 7.9333314514156239 21.6111944623733123 O
atom 8.4767232318797756 0.6072925431383657 21.6112238355250952 O
atom 12.9203011384017881 9.5754067822127755 19.6520167124590017 O
atom 0.2076752832803403 0.1539124336277889 21.3666701062806013 O
atom 0.2493163804978789 0.1847966929458179 19.4074776033266261 Ti
atom 10.1223106267454970 7.5017648233659626 20.5093433618956666 Ti
atom 4.6512531898023513 9.1220266727021979 19.4074629832145149 O
atom 10.0806695211074846 1.7959877695464654 19.4074923468714573 O
atom 1.8116215863225660 1.3426076614726701 19.1629386149633092 O
