#===============================================================================
# Created using the Atomic Simulation Environment (ASE)

# Mon Mar 23 14:01:36 2026

#=======================================================
lattice_vector 13.1294540471338479 0.0000000000000000 0.0000000000000000 
lattice_vector 0.0000000000000000 5.9471245399999999 0.0000000000000000 
lattice_vector 0.0000000000000000 0.0000000000000000 32.5539027033513975 
atom 6.5646841233986137 5.9471245299999991 16.2769512350030752 Ti
atom 6.5646841304696899 2.9735622699999995 16.2769512279320168 Ti
atom 9.8470476952861077 4.4603434099999992 16.2769512738940101 Ti
atom 11.8524598306896198 4.4603434099999992 16.2769294868257361 O
atom 9.8470285726914462 0.0000000000000000 15.0000000000000000 O
atom 9.8470477023571821 1.4867811300000000 16.2769512668229517 Ti
atom 11.8524598306896198 1.4867811400000002 16.2769294868257361 O
atom 9.8470285656203735 2.9735622699999995 15.0000000070710584 O
atom 3.2823205585820738 4.4603433999999993 16.2769513021781620 Ti
atom 5.2877327717673674 4.4603433999999993 16.2769294797546316 O
atom 3.2823014996270241 0.0000000000000000 15.0000000212131503 O
atom 3.2823205656531291 1.4867811300000000 16.2769513092492346 Ti
atom 5.2877327717673674 1.4867811300000000 16.2769294797546316 O
atom 3.2823014996270241 2.9735622699999995 15.0000000212131503 O
atom 13.1294111611076243 0.0000000000000000 16.2769512774294967 Ti
atom 13.1294111611076243 2.9735622699999995 16.2769512774294967 Ti
atom 7.8416354962428079 4.4603434099999992 16.2769732235967801 O
atom 9.8470667825252676 0.0000000000000000 17.5539026962804137 O
atom 7.8416354891717495 1.4867811300000000 16.2769732165257039 O
atom 9.8470667825252676 2.9735622699999995 17.5539026962804137 O
atom 1.2769084302494325 4.4603434099999992 16.2769732660231377 O
atom 3.2823396882476650 0.0000000000000000 17.5539026962803355 O
atom 1.2769084302494325 1.4867811300000000 16.2769732660231377 O
atom 3.2823396811765919 2.9735622699999995 17.5539027033513975 O
