#===============================================================================
# Created using the Atomic Simulation Environment (ASE)

# Mon Mar 23 14:01:31 2026

#=======================================================
lattice_vector 7.6004937600000506 0.0000000000000000 0.0000000000000000 
lattice_vector -0.0000000000000672 7.6004436200000214 0.0000000000000000 
lattice_vector 0.0000000000000000 0.0000000000000000 64.9540004599996479 
atom 0.0000046413884537 7.6004405965652442 17.8652831349999630 Ti
atom 1.9001276894290100 7.6004407324033840 15.4300205349999899 Ti
atom 1.9001276096404438 1.9001080452188095 15.0000000000000000 O
atom 0.0000043292165916 7.6004407195886170 15.8600322349999914 O
atom 1.9001280416008932 7.6004406293799978 17.4352716149999623 O
atom 0.0000046513884873 3.8002187765652327 17.8652831349999488 Ti
atom 1.9001276894290422 3.8002189024033743 15.4300205249999891 Ti
atom 1.9001276096404167 5.7003298652188157 15.0000000600000050 O
atom 0.0000043292166252 3.8002188795886069 15.8600322349999772 O
atom 1.9001280516009280 3.8002188093799862 17.4352716249999560 O
atom 3.8002515113884754 7.6004405965652468 17.8652831049999534 Ti
atom 5.7003746394290360 7.6004407624033847 15.4300205349999757 Ti
atom 5.7003746496404775 1.9001080452188042 15.0000000699999774 O
atom 3.8002512092166070 7.6004407195886232 15.8600321549999848 O
atom 5.7003749116009192 7.6004406593799967 17.4352716249999702 O
atom 3.8002515113885096 3.8002187765652349 17.8652831149999614 Ti
atom 5.7003746294290698 3.8002188724033732 15.4300205349999757 Ti
atom 5.7003746496404366 5.7003298652188192 15.0000000099999866 O
atom 3.8002512092166421 3.8002188895886122 15.8600321649999785 O
atom 5.7003749216009538 3.8002187793799851 17.4352716349999639 O
atom 1.9001286953123426 1.9001074948857091 22.7358507699999137 Ti
atom 1.9001289072765992 7.6004399590443876 25.1711552649998893 Ti
atom 0.0000069470833561 7.6004390698474333 37.3475502149997709 Ti
atom 0.0000048533527836 1.9001076307239100 20.3005873799999321 Ti
atom 0.0000051855246966 1.9001074877005020 22.3058387299999126 O
atom 1.9001289374879471 1.9001072818598694 24.7411339899998808 O
atom 1.9001287951009893 7.6004401920702316 23.1658719949999039 O
atom 0.0000054870641861 7.6004399462296170 25.6011670049998870 O
atom 1.9001291994484848 7.6004398460209996 27.1764063649998633 O
atom 0.0000048435640657 7.6004403835393992 19.8705664149999421 O
atom 0.0000046911771891 1.9001078537497420 18.2953042599999520 O
atom 1.9001283331404362 1.9001075979091115 20.7305994899999320 O
atom 1.9001298031597824 1.9001067415268111 32.4769842099998129 Ti
atom 1.9001299951239130 7.6004392056855732 34.9122876149997978 Ti
atom 0.0000057992360902 7.6004398332062166 27.6064182749998608 Ti
atom 0.0000060312003577 1.9001068873649223 30.0417219899998358 Ti
atom 0.0000063433722081 1.9001067643415566 32.0469727899998134 O
atom 1.9001299153353464 1.9001065185009982 34.4822670799998008 O
atom 1.9001297229483578 7.6004394387113807 32.9070048249998237 O
atom 0.0000066349114954 7.6004391928708044 35.3422993149997993 O
atom 1.9001303472957958 7.6004391026621860 36.9175386949997701 O
atom 0.0000059914116635 7.6004396301803974 29.6117012149998402 O
atom 0.0000058290247688 1.9001070903907513 28.0364389099998661 O
atom 1.9001295109879175 1.9001068745501861 30.4717332899998326 O
atom 1.9001286853123092 5.7003293248857192 22.7358507699999137 Ti
atom 1.9001289072766314 3.8002181490443769 25.1711552549998814 Ti
atom 0.0000069570833897 3.8002172498474218 37.3475502149997567 Ti
atom 0.0000048533527483 5.7003294607239203 20.3005873699999455 Ti
atom 0.0000051755246619 5.7003293577005127 22.3058387199999189 O
atom 1.9001289274879123 5.7003290918598797 24.7411339799998871 O
atom 1.9001287951010206 3.8002183820702218 23.1658719749998880 O
atom 0.0000054870642197 3.8002181462296067 25.6011670149998878 O
atom 1.9001291994485170 3.8002180560209888 27.1764063549998696 O
atom 0.0000048435641009 3.8002185735393876 19.8705664349999367 O
atom 0.0000046811771544 5.7003296637497529 18.2953042499999583 O
atom 1.9001283331404015 5.7003294779091229 20.7305994799999453 O
atom 1.9001298031597578 5.7003285515268152 32.4769842899998196 Ti
atom 1.9001299951239452 3.8002173756855631 34.9122876049997970 Ti
atom 0.0000057992361237 3.8002180332062045 27.6064182749998679 Ti
atom 0.0000060012003276 5.7003286973649301 30.0417220199998383 Ti
atom 0.0000063633721814 5.7003285543415618 32.0469728499998041 O
atom 1.9001299153353197 5.7003283385010040 34.4822671399998129 O
atom 1.9001297229483922 3.8002176087113679 32.9070048349998245 O
atom 0.0000066349115273 3.8002173528707952 35.3422993149997851 O
atom 1.9001303572958310 3.8002172826621741 36.9175387049997710 O
atom 0.0000059914116971 3.8002178201803871 29.6117012149998402 O
atom 0.0000057990247365 5.7003289103907600 28.0364389199998598 O
atom 1.9001295009878942 5.7003286645501889 30.4717333799998400 O
atom 5.7003755353123688 1.9001074848857091 22.7358507699999137 Ti
atom 5.7003757472766265 7.6004399690443867 25.1711552649998964 Ti
atom 3.8002538170833775 7.6004390698474342 37.3475501849997684 Ti
atom 3.8002517233528046 1.9001076307239118 20.3005873599999376 Ti
atom 3.8002520655247154 1.9001074877005066 22.3058386699999076 O
atom 5.7003756474879737 1.9001072818598694 24.7411339899999021 O
atom 5.7003754851010147 7.6004401920702316 23.1658719949999181 O
atom 3.8002523670642181 7.6004399362296127 25.6011670749998856 O
atom 5.7003760894485094 7.6004398660209995 27.1764063549998554 O
atom 3.8002516835640852 7.6004403835394019 19.8705663749999388 O
atom 3.8002515211772110 1.9001078537497444 18.2953042299999638 O
atom 5.7003752231404592 1.9001075879091132 20.7305994699999303 O
atom 5.7003767431598105 1.9001067315268105 32.4769842199998138 Ti
atom 5.7003769451239377 7.6004392356855730 34.9122876149997907 Ti
atom 3.8002526792361189 7.6004398132062141 27.6064183049998562 Ti
atom 3.8002528912003855 1.9001068773649201 30.0417220199998383 Ti
atom 3.8002532433722420 1.9001067643415506 32.0469728699998129 O
atom 5.7003769553353809 1.9001065185009927 34.4822671499997782 O
atom 5.7003768829483832 7.6004393987113801 32.9070048249997953 O
atom 3.8002535149115100 7.6004391928708115 35.3422992349997926 O
atom 5.7003772172958209 7.6004391326621850 36.9175387049997710 O
atom 3.8002528814116929 7.6004396201803930 29.6117012649998443 O
atom 3.8002527090248002 1.9001070803907476 28.0364389599998631 O
atom 5.7003763809879526 1.9001068745501808 30.4717333599998454 O
atom 5.7003755253123360 5.7003293148857193 22.7358507699999137 Ti
atom 5.7003757372766586 3.8002181490443765 25.1711552649998964 Ti
atom 3.8002538170834117 3.8002172498474227 37.3475501949997621 Ti
atom 3.8002517133527705 5.7003294607239221 20.3005873499999439 Ti
atom 3.8002520555246804 5.7003293577005181 22.3058386599999139 O
atom 5.7003756374879400 5.7003290918598797 24.7411339899999021 O
atom 5.7003754851010466 3.8002183820702222 23.1658719749999165 O
atom 3.8002523670642523 3.8002181462296023 25.6011670749998856 O
atom 5.7003760794485441 3.8002180360209894 27.1764063549998696 O
atom 3.8002516835641211 3.8002185735393907 19.8705663949999547 O
atom 3.8002515411771758 5.7003296637497556 18.2953042199999700 O
atom 5.7003752231404254 5.7003294679091239 20.7305994699999374 O
atom 5.7003767431597838 5.7003285415268135 32.4769842899998125 Ti
atom 5.7003769351239724 3.8002173456855624 34.9122876149997765 Ti
atom 3.8002526792361522 3.8002180232062037 27.6064183049998562 Ti
atom 3.8002529012003565 5.7003286873649266 30.0417220599998416 Ti
atom 3.8002532133722151 5.7003285543415574 32.0469729199998099 O
atom 5.7003769553353392 5.7003283385010075 34.4822670899997874 O
atom 5.7003768829484178 3.8002176187113683 32.9070048349997961 O
atom 3.8002535149115442 3.8002173628708005 35.3422992449997935 O
atom 5.7003772272958564 3.8002172526621734 36.9175387149997647 O
atom 3.8002528814117258 3.8002178101803841 29.6117012549998435 O
atom 3.8002527290247667 5.7003289003907582 28.0364389599998631 O
atom 5.7003763809879144 5.7003286545501926 30.4717333299998359 O
atom 1.9001310010072452 1.9001059681678978 42.2181178499997145 Ti
atom 1.9001312129715018 7.6004384323265759 44.6534223449996972 Ti
atom 0.0000071590476857 1.9001061040060985 39.7828544599997400 Ti
atom 0.0000074912195991 1.9001059609826905 41.7881058099997134 O
atom 1.9001312431828492 1.9001057551420582 44.2234010699996958 O
atom 1.9001311007958919 7.6004386653524199 42.6481390749997047 O
atom 0.0000077927590865 7.6004384195118062 45.0834340849996948 O
atom 1.9001315051433874 7.6004383193031879 46.6586734449996499 O
atom 0.0000071492589678 7.6004388568215884 39.3528334949997500 O
atom 0.0000069968720915 1.9001063270319303 37.7775713399997670 O
atom 1.9001306388353387 1.9001060711913003 40.2128665699997470 O
atom 0.0000081049309926 7.6004383064884049 47.0886853549996687 Ti
atom 0.0000083368952598 1.9001053606471108 49.5239890699996437 Ti
atom 0.0000082971065656 7.6004381034625865 49.0939682949996410 O
atom 0.0000081347196713 1.9001055636729396 47.5187059899996740 O
atom 1.9001318166828196 1.9001053478323746 49.9540003699996618 O
atom 1.9001309910072113 5.7003277981679084 42.2181178499997145 Ti
atom 1.9001312129715340 3.8002166223265657 44.6534223349997177 Ti
atom 0.0000071590476504 5.7003279340061104 39.7828544499997534 Ti
atom 0.0000074812195643 5.7003278309827028 41.7881057999997267 O
atom 1.9001312331828144 5.7003275651420688 44.2234010599996878 O
atom 1.9001311007959227 3.8002168553524101 42.6481390549997030 O
atom 0.0000077927591218 3.8002166195117946 45.0834340949997028 O
atom 1.9001315051434196 3.8002165293031767 46.6586734349996703 O
atom 0.0000071492590047 3.8002170468215755 39.3528335149997446 O
atom 0.0000069868720568 5.7003281370319412 37.7775713299997662 O
atom 1.9001306388353039 5.7003279511913121 40.2128665599997532 O
atom 0.0000081049310262 3.8002165064883928 47.0886853549996687 Ti
atom 0.0000083068952297 5.7003271706471184 49.5239890999996391 Ti
atom 0.0000082971065992 3.8002162934625754 49.0939682949996410 O
atom 0.0000081047196386 5.7003273836729491 47.5187059999996535 O
atom 1.9001318066827968 5.7003271378323781 49.9540004599996479 O
atom 5.7003778410072705 1.9001059581678976 42.2181178499997145 Ti
atom 5.7003780529715273 7.6004384423265767 44.6534223449996972 Ti
atom 3.8002540290477076 1.9001061040060998 39.7828544399997526 Ti
atom 3.8002543712196184 1.9001059609826951 41.7881057499997155 O
atom 5.7003779531828744 1.9001057551420582 44.2234010699996958 O
atom 5.7003777907959163 7.6004386653524199 42.6481390749997331 O
atom 3.8002546727591211 7.6004384095118001 45.0834341549996935 O
atom 5.7003783951434110 7.6004383393031887 46.6586734349996703 O
atom 3.8002539892589882 7.6004388568215902 39.3528334549997538 O
atom 3.8002538268721140 1.9001063270319327 37.7775713099997716 O
atom 5.7003775288353618 1.9001060611913017 40.2128665499997453 O
atom 3.8002549849310219 7.6004382864884024 47.0886853849996641 Ti
atom 3.8002551968952885 1.9001053506471088 49.5239890999996391 Ti
atom 3.8002551871065959 7.6004380934625821 49.0939683449996522 O
atom 3.8002550147197023 1.9001055536729359 47.5187060399996568 O
atom 5.7003786866828534 1.9001053478323695 49.9540004399996320 O
atom 5.7003778310072377 5.7003277881679084 42.2181178499997145 Ti
atom 5.7003780429715603 3.8002166223265652 44.6534223449997256 Ti
atom 3.8002540190476726 5.7003279340061104 39.7828544299997446 Ti
atom 3.8002543612195825 5.7003278309827063 41.7881057399997147 O
atom 5.7003779431828416 5.7003275651420680 44.2234010699996958 O
atom 5.7003777907959474 3.8002168553524101 42.6481390549997315 O
atom 3.8002546727591544 3.8002166195117906 45.0834341549996935 O
atom 5.7003783851434449 3.8002165093031772 46.6586734349996703 O
atom 3.8002539892590232 3.8002170468215790 39.3528334749997555 O
atom 3.8002538468720779 5.7003281370319439 37.7775712999997708 O
atom 5.7003775288353289 5.7003279411913130 40.2128665499997524 O
atom 3.8002549849310552 3.8002164964883911 47.0886853849996641 Ti
atom 3.8002552068952595 5.7003271606471166 49.5239891399996424 Ti
atom 3.8002551871066284 3.8002162834625719 49.0939683349996443 O
atom 3.8002550347196689 5.7003273736729465 47.5187060399996568 O
atom 5.7003786866828179 5.7003271278323826 49.9540004099996366 O
