#===============================================================================
# Created using the Atomic Simulation Environment (ASE)

# Mon Mar 23 14:01:34 2026

#=======================================================
lattice_vector 9.2839158800000003 0.0000000000000000 0.0000000000000000 
lattice_vector 0.0000000000000000 9.2839361000000000 0.0000000000000000 
lattice_vector 0.0000000000000000 0.0000000000000000 41.8942491000000032 
atom 2.3209789600000001 2.3209840399999999 15.0000000000000000 Ti
atom 3.7390025300000000 0.9029265000000000 15.0000000000000000 O
atom 0.9029554700000000 3.7390416300000000 15.0000000100000008 O
atom 2.3209789700000001 6.9629519900000014 15.0000000100000008 Ti
atom 3.7390025400000000 5.5448945299999997 15.0000000000000000 O
atom 0.9029554600000000 8.3810096299999994 15.0000000100000008 O
atom 4.6419579100000004 9.2839360499999994 16.4867811300000007 Ti
atom 6.9629368600000001 2.3209840499999999 15.0000000100000008 Ti
atom 8.3809604499999999 0.9029265000000000 15.0000000100000008 O
atom 5.5449134100000004 3.7390416399999999 15.0000000100000008 O
atom 6.9629368700000001 6.9629520100000022 15.0000000100000008 Ti
atom 8.3809604600000007 5.5448945200000015 15.0000000199999981 O
atom 5.5449134000000004 8.3810096400000020 15.0000000000000000 O
atom 2.3209789600000001 2.3209840399999999 17.9735622800000030 Ti
atom 9.2839158099999999 9.2839360400000004 16.4867811500000023 Ti
atom 3.7390025300000000 0.9029265000000000 17.9735622700000022 O
atom 0.9029554700000000 3.7390416200000001 17.9735622800000030 O
atom 1.4180235400000001 1.4180575900000001 16.4867811400000015 O
atom 3.2239344399999998 3.2239105299999999 16.4867811400000015 O
atom 2.3209789600000001 2.3209840399999999 20.9471245399999972 Ti
atom 9.2839158099999999 9.2839360299999996 19.4603434100000001 Ti
atom 3.7390025300000000 0.9029265000000000 20.9471245399999972 O
atom 0.9029554700000000 3.7390416300000000 20.9471245499999981 O
atom 1.4180235400000001 1.4180575900000001 19.4603434100000001 O
atom 3.2239344399999998 3.2239105299999999 19.4603434100000001 O
atom 2.3209789700000001 6.9629519999999996 17.9735622700000022 Ti
atom 9.2839158200000007 4.6419680000000003 16.4867811500000023 Ti
atom 3.7390025400000000 5.5448945299999997 17.9735622700000022 O
atom 0.9029554700000000 8.3810096299999994 17.9735622700000022 O
atom 1.4180235600000000 6.0600256000000012 16.4867811400000015 O
atom 3.2239344600000002 7.8658785299999998 16.4867811400000015 O
atom 2.3209789700000001 6.9629519900000014 20.9471245499999981 Ti
atom 9.2839158200000007 4.6419680100000003 19.4603434200000009 Ti
atom 3.7390025400000000 5.5448945299999997 20.9471245399999972 O
atom 0.9029554600000000 8.3810096299999994 20.9471245499999981 O
atom 1.4180235600000000 6.0600256100000003 19.4603434100000001 O
atom 3.2239344600000002 7.8658785299999998 19.4603434100000001 O
atom 6.9629368500000002 2.3209840499999999 17.9735622800000030 Ti
atom 4.6419579100000004 9.2839360499999994 22.4339056700000015 Ti
atom 8.3809604499999999 0.9029265000000000 17.9735622800000030 O
atom 5.5449134100000004 3.7390416399999999 17.9735622700000022 O
atom 6.0599814800000003 1.4180576000000003 16.4867811400000015 O
atom 7.8658923500000002 3.2239105299999999 16.4867811400000015 O
atom 6.9629368600000001 2.3209840499999999 20.9471245499999981 Ti
atom 4.6419579000000004 9.2839360400000004 19.4603433999999993 Ti
atom 8.3809604499999999 0.9029265000000000 20.9471245499999981 O
atom 5.5449134100000004 3.7390416399999999 20.9471245499999981 O
atom 6.0599814800000003 1.4180576000000003 19.4603434100000001 O
atom 7.8658923500000002 3.2239105399999999 19.4603434100000001 O
atom 6.9629368700000001 6.9629519999999996 17.9735622800000030 Ti
atom 4.6419579100000004 4.6419680100000003 16.4867811400000015 Ti
atom 8.3809604499999999 5.5448945200000015 17.9735622800000030 O
atom 5.5449134100000004 8.3810096400000020 17.9735622600000013 O
atom 6.0599815000000001 6.0600256200000020 16.4867811400000015 O
atom 7.8658923700000010 7.8658785400000006 16.4867811400000015 O
atom 6.9629368700000001 6.9629520100000022 20.9471245499999981 Ti
atom 4.6419579100000004 4.6419680100000003 19.4603434100000001 Ti
atom 8.3809604600000007 5.5448945200000015 20.9471245599999989 O
atom 5.5449134000000004 8.3810096400000020 20.9471245399999972 O
atom 6.0599815000000001 6.0600256200000020 19.4603434100000001 O
atom 7.8658923700000010 7.8658785400000006 19.4603434100000001 O
atom 2.3209789600000001 2.3209840399999999 23.9206868200000002 Ti
atom 9.2839158099999999 9.2839360400000004 22.4339056899999960 Ti
atom 3.7390025300000000 0.9029265000000000 23.9206868099999994 O
atom 0.9029554700000000 3.7390416200000001 23.9206868200000002 O
atom 1.4180235400000001 1.4180575900000001 22.4339056800000023 O
atom 3.2239344399999998 3.2239105299999999 22.4339056800000023 O
atom 2.3209789600000001 2.3209840399999999 26.8942490800000016 Ti
atom 9.2839158099999999 9.2839360299999996 25.4074679499999974 Ti
atom 3.7390025300000000 0.9029265000000000 26.8942490800000016 O
atom 0.9029554700000000 3.7390416300000000 26.8942490900000024 O
atom 1.4180235400000001 1.4180575900000001 25.4074679499999974 O
atom 3.2239344399999998 3.2239105299999999 25.4074679499999974 O
atom 2.3209789700000001 6.9629519999999996 23.9206868099999994 Ti
atom 9.2839158200000007 4.6419680000000003 22.4339056899999960 Ti
atom 3.7390025400000000 5.5448945299999997 23.9206868099999994 O
atom 0.9029554700000000 8.3810096299999994 23.9206868099999994 O
atom 1.4180235600000000 6.0600256000000012 22.4339056800000023 O
atom 3.2239344600000002 7.8658785299999998 22.4339056800000023 O
atom 2.3209789700000001 6.9629519900000014 26.8942490900000024 Ti
atom 9.2839158200000007 4.6419680100000003 25.4074679599999982 Ti
atom 3.7390025400000000 5.5448945299999997 26.8942490800000016 O
atom 0.9029554600000000 8.3810096299999994 26.8942490900000024 O
atom 1.4180235600000000 6.0600256100000003 25.4074679499999974 O
atom 3.2239344600000002 7.8658785299999998 25.4074679499999974 O
atom 6.9629368500000002 2.3209840499999999 23.9206868200000002 Ti
atom 8.3809604499999999 0.9029265000000000 23.9206868200000002 O
atom 5.5449134100000004 3.7390416399999999 23.9206868099999994 O
atom 6.0599814800000003 1.4180576000000003 22.4339056800000023 O
atom 7.8658923500000002 3.2239105299999999 22.4339056800000023 O
atom 6.9629368600000001 2.3209840499999999 26.8942490900000024 Ti
atom 4.6419579000000004 9.2839360400000004 25.4074679400000036 Ti
atom 8.3809604499999999 0.9029265000000000 26.8942490900000024 O
atom 5.5449134100000004 3.7390416399999999 26.8942490900000024 O
atom 6.0599814800000003 1.4180576000000003 25.4074679499999974 O
atom 7.8658923500000002 3.2239105399999999 25.4074679499999974 O
atom 6.9629368700000001 6.9629519999999996 23.9206868200000002 Ti
atom 4.6419579100000004 4.6419680100000003 22.4339056800000023 Ti
atom 8.3809604499999999 5.5448945200000015 23.9206868200000002 O
atom 5.5449134100000004 8.3810096400000020 23.9206867999999986 O
atom 6.0599815000000001 6.0600256200000020 22.4339056800000023 O
atom 7.8658923700000010 7.8658785400000006 22.4339056800000023 O
atom 6.9629368700000001 6.9629520100000022 26.8942490900000024 Ti
atom 4.6419579100000004 4.6419680100000003 25.4074679499999974 Ti
atom 8.3809604600000007 5.5448945200000015 26.8942491000000032 O
atom 5.5449134000000004 8.3810096400000020 26.8942490800000016 O
atom 6.0599815000000001 6.0600256200000020 25.4074679499999974 O
atom 7.8658923700000010 7.8658785400000006 25.4074679499999974 O
