#===============================================================================
# Created using the Atomic Simulation Environment (ASE)

# Mon Mar 23 14:01:32 2026

#=======================================================
lattice_vector 10.7486859018486420 0.0000000000000000 0.0000000000000000 
lattice_vector -0.0000027099268353 19.4822670799998114 0.0000000000000000 
lattice_vector 0.0000000000000000 0.0000000000000000 40.7486860685122707 
atom 0.0000692565800882 11.7463939961084023 15.0000000527207682 O
atom 0.0000684923315971 17.4769945861083471 15.0000000689427111 O
atom 0.0000706009367490 2.0052616861085024 15.0000000562563400 O
atom 0.0000698366885947 7.7358597861084482 15.0000000724782794 O
atom 2.6872400032952828 16.6169615211083475 15.0000000792374415 O
atom 2.6872419277602790 2.8652938611084862 15.0000000035355718 O
atom 2.6872414042206088 6.8758276211084546 15.0000000544885523 O
atom 8.0615835343278270 12.6064270111083907 15.0000000000000000 O
atom 8.0615830178590464 16.6169615311083518 15.0000000297397591 O
atom 8.0615843410028383 6.8758276411084491 15.0000000686307331 O
atom 5.3744122004333716 11.7463939261084054 15.0000000597918586 O
atom 5.3744114149715516 17.4769946061083417 15.0000000406585308 O
atom 5.3744135660031498 2.0052617561085024 15.0000000421141522 O
atom 5.3744128017550628 7.7358597461084502 15.0000000724782332 O
atom 0.0000866334408202 14.6117101551355102 17.6871716316947172 Ti
atom 1.3436638348413057 12.1764056981219699 16.3435857976496166 Ti
atom 0.0000709086666935 0.0000107861085235 15.0000001333101842 Ti
atom 9.4051775536938163 17.0469735831219147 16.3435857746687461 Ti
atom 9.4051778897080904 15.0417222331219449 16.3435858517225014 O
atom 0.0000869553169076 12.6064269351355396 17.6871715956114173 O
atom 1.3436635907472971 14.1816889681219553 16.3435859397986754 O
atom 5.3744476618384365 11.7463938441626663 20.3743430035280966 O
atom 1.3436641213580516 10.1711545981219942 16.3435858676324699 O
atom 5.3744468975899471 17.4769944341626129 20.3743430197500359 O
atom 9.4051772813154138 19.0522567031218983 16.3435858743914864 O
atom 0.0000863044974532 16.6169614351354831 17.6871715051434641 O
atom 0.0000879495132669 4.8705767151356039 17.6871716069461087 Ti
atom 1.3436651367714261 2.4352733481220601 16.3435857587589197 Ti
atom 0.0000695572390373 9.7411427261084285 15.0000001368457063 Ti
atom 9.4051789121930174 7.3058389731220164 16.3435858064885409 Ti
atom 9.4051792199229478 5.3005881731220406 16.3435858835423851 O
atom 0.0000881865361755 2.8652938451356227 17.6871714718681474 O
atom 1.3436647795400234 4.4405561381220293 16.3435857877712607 O
atom 5.3744490061950998 2.0052615341627642 20.3743430070636613 O
atom 1.3436654586436683 0.4300222681220879 16.3435858782391286 O
atom 5.3744482419469453 7.7358596341627095 20.3743430232856042 O
atom 9.4051786256723453 9.3111220531219949 16.3435858637849236 O
atom 0.0000876488544572 6.8758276351355825 17.6871715511054433 O
atom 2.6872403605227810 14.6117102311083791 15.0000001633621949 Ti
atom 9.4051959883947962 12.1764056321491001 19.0307572730532826 Ti
atom 8.0616030763623225 0.0000107101356565 17.6871716087138005 Ti
atom 6.7180237912565719 17.0469735171490484 19.0307572642145928 Ti
atom 6.7180240919155798 15.0417221671490715 19.0307573624816655 O
atom 2.6872406965409632 12.6064270211084057 15.0000001131367142 O
atom 9.4051957443007925 14.1816889121490881 19.0307574152023378 O
atom 8.0616014030625411 11.7463939101355344 17.6871715351955245 O
atom 9.4051962607694541 10.1711545321491226 19.0307573571783131 O
atom 8.0616006458850986 17.4769944901354819 17.6871715443463700 O
atom 6.7180235259491763 19.0522566371490250 19.0307573427241081 O
atom 8.0616184085536311 16.6169613691626097 20.3743430300447628 O
atom 2.6872416978084201 4.8705767111084768 15.0000001315424498 Ti
atom 9.4051973044670110 2.4352732821491916 19.0307572200204014 Ti
atom 8.0616017037214878 9.7411426501355596 17.6871716193204591 Ti
atom 6.7180251426845983 7.3058388671491414 19.0307572606790671 Ti
atom 6.7180254999120823 5.3005880371491765 19.0307573589459587 O
atom 8.0616203330186291 2.8652937091627475 20.3743429543428931 O
atom 9.4051969472356056 4.4405560521491649 19.0307572490327459 O
atom 8.0616027757033812 2.0052616101356340 17.6871715104467242 O
atom 9.4051976263393016 0.4300221821492186 19.0307573536427448 O
atom 8.0616019902420923 7.7358597101355802 17.6871715478819382 O
atom 6.7180248490928811 9.3111219671491199 19.0307573250465438 O
atom 8.0616198094789571 6.8758274691627150 20.3743430052958772 O
atom 8.0615833114469648 14.6117102311083826 15.0000001209357876 Ti
atom 4.0308530021150712 12.1764056221491010 19.0307572518401926 Ti
atom 2.6872601042247735 0.0000107401356533 17.6871716016428024 Ti
atom 1.3436808474032558 17.0469735271490457 19.0307572430013643 Ti
atom 1.3436811904886155 15.0417222171490774 19.0307573271261639 O
atom 2.6872760377375311 12.6064268591626512 20.3743429508073284 O
atom 4.0308526590257454 14.1816888921490705 19.0307572808524910 O
atom 2.6872584662803169 11.7463938501355365 17.6871715210533438 O
atom 4.0308533169162200 10.1711545321491226 19.0307573642493537 O
atom 2.6872576666764041 17.4769945501354762 17.6871715160621932 O
atom 1.3436805467404906 19.0522566571490302 19.0307573144399349 O
atom 2.6872755212687589 16.6169613791626176 20.3743429805470804 O
atom 8.0615846982303268 4.8705767811084790 15.0000001668976211 Ti
atom 4.0308543676851043 2.4352732721491996 19.0307573048731697 Ti
atom 2.6872587740103118 9.7411426201355624 17.6871715981071880 Ti
atom 1.3436822059024109 7.3058388671491468 19.0307572606790210 Ti
atom 1.3436825348456751 5.3005880171491748 19.0307573730881394 O
atom 8.0615849988931121 2.8652938511085080 15.0000001096011957 O
atom 4.0308542084439312 4.4405560621491915 19.0307574328798097 O
atom 2.6872598035659143 2.0052616901356335 17.6871715316599989 O
atom 4.0308546329886150 0.4300221821492159 19.0307573677850179 O
atom 2.6872590534599126 7.7358596601355805 17.6871715478818956 O
atom 1.3436819335239338 9.3111219271491255 19.0307573321174957 O
atom 2.6872768444125512 6.8758274891627114 20.3743430194380544 O
atom 5.3744295419386363 14.6117101551355084 17.6871716034105866 Ti
atom 6.7180067504101677 12.1764056981219646 16.3435857622943956 Ti
atom 5.3744138595909616 0.0000108061085245 15.0000001191680497 Ti
atom 4.0308345744852154 17.0469736131219136 16.3435857746688420 Ti
atom 4.0308348892863988 15.0417223031219400 16.3435858870780066 O
atom 5.3744297789615905 12.6064269351355218 17.6871714683326218 O
atom 6.7180064073208872 14.1816889881219375 16.3435858054488321 O
atom 0.0001047038430856 11.7463937741626676 20.3743430105991870 O
atom 6.7180070722823686 10.1711546081219915 16.3435858676324663 O
atom 0.0001039183812601 17.4769944541626074 20.3743429914658591 O
atom 4.0308343091778136 19.0522567431218945 16.3435858531783538 O
atom 5.3744292200665900 16.6169614551354812 17.6871715546410613 O
atom 5.3744309499351868 4.8705766351356132 17.6871716423012870 Ti
atom 6.7180081654775128 2.4352733481220730 16.3435857658297294 Ti
atom 5.3744125081633625 9.7411426961084242 15.0000001368457063 Ti
atom 4.0308359612686555 7.3058389031220159 16.3435857923464027 Ti
atom 4.0308362760696390 5.3005880431220387 16.3435858623291637 O
atom 5.3744312435269066 2.8652938351356365 17.6871715920759485 O
atom 6.7180079355259430 4.4405561281220578 16.3435859786894184 O
atom 0.0001060694128579 2.0052616041627642 20.3743429929214770 O
atom 6.7180084378521698 0.4300222481220924 16.3435858499547635 O
atom 0.0001053051647690 7.7358595941627106 20.3743430232855616 O
atom 4.0308356888902139 9.3111220031219943 16.3435858779270120 O
atom 5.3744306139208211 6.8758275951355827 17.6871715228211244 O
atom 5.3744650386991681 14.6117100031897742 23.0615145825020491 Ti
atom 6.7180422400996562 12.1764055461762304 21.7179287484569450 Ti
atom 5.3744493139250418 0.0000106341627852 20.3743430841175091 Ti
atom 4.0308700571035221 17.0469734311761734 21.7179287254760709 Ti
atom 4.0308703931177998 15.0417220811762054 21.7179288025298263 O
atom 5.3744653605752601 12.6064267831898018 23.0615145464187528 O
atom 6.7180419960056552 14.1816888161762158 21.7179288906060037 O
atom 0.0001401652481477 11.7463936922169268 25.7486859543354178 O
atom 6.7180425266163990 10.1711544461762546 21.7179288184397912 O
atom 0.0001394009996542 17.4769942822168716 25.7486859705573643 O
atom 4.0308697847251276 19.0522565511761570 21.7179288251988183 O
atom 5.3744647097558111 16.6169612831897417 23.0615144559507961 O
atom 5.3744663547716200 4.8705765631898652 23.0615145577534300 Ti
atom 6.7180435420297719 2.4352731961763219 21.7179287095662445 Ti
atom 5.3744479624973849 9.7411425741626907 20.3743430876530311 Ti
atom 4.0308714156027285 7.3058388211762777 21.7179287572958692 Ti
atom 4.0308717233326510 5.3005880211763028 21.7179288343497099 O
atom 5.3744665917945191 2.8652936931898845 23.0615144226754687 O
atom 6.7180431847983764 4.4405559861762915 21.7179287385785926 O
atom 0.0001415096048061 2.0052613822170260 25.7486859578709932 O
atom 6.7180438639020217 0.4300221161763496 21.7179288290464534 O
atom 0.0001407453566542 7.7358594822169708 25.7486859740929326 O
atom 4.0308711290820547 9.3111219011762572 21.7179288145922520 O
atom 5.3744660541128102 6.8758274831898447 23.0615145019127645 O
atom 8.0616187657811302 14.6117100791626395 20.3743431141695197 Ti
atom 4.0308884918045029 12.1764054802033641 24.4051002238606074 Ti
atom 2.6872955797720341 0.0000105581899182 23.0615145595211253 Ti
atom 1.3437162946662828 17.0469733652033071 24.4051002150219141 Ti
atom 1.3437165953252956 15.0417220152033337 24.4051003132889903 O
atom 8.0616191017993160 12.6064268691626680 20.3743430639440390 O
atom 4.0308882477105028 14.1816887602033503 24.4051003660096626 O
atom 2.6872939064722536 11.7463937581897966 23.0615144860028529 O
atom 4.0308887641791653 10.1711543802033830 24.4051003079856379 O
atom 2.6872931492948013 17.4769943381897441 23.0615144951537019 O
atom 1.3437160293588848 19.0522564852032836 24.4051002935314330 O
atom 2.6873109119633494 16.6169612172168719 25.7486859808520947 O
atom 8.0616201030667654 4.8705765591627381 20.3743430823497711 Ti
atom 4.0308898078767230 2.4352731302034534 24.4051001708277262 Ti
atom 2.6872942071312016 9.7411424981898218 23.0615145701277839 Ti
atom 1.3437176460943063 7.3058387152034037 24.4051002114863955 Ti
atom 1.3437180033217933 5.3005878852034387 24.4051003097532870 O
atom 2.6873128364283385 2.8652935572170093 25.7486859051502179 O
atom 4.0308894506453221 4.4405559002034263 24.4051001998400707 O
atom 2.6872952791130884 2.0052614581898958 23.0615144612540561 O
atom 4.0308901297490101 0.4300220302034803 24.4051003044500696 O
atom 2.6872944936518035 7.7358595581898424 23.0615144986892737 O
atom 1.3437173525025949 9.3111218152033821 24.4051002758538722 O
atom 2.6873123128886705 6.8758273172169773 25.7486859561032020 O
atom 2.6872758148566724 14.6117100791626431 20.3743430717431160 Ti
atom 9.4052314073734191 12.1764054702033615 24.4051002026475210 Ti
atom 8.0616385094831262 0.0000105881899150 23.0615145524501308 Ti
atom 6.7180592526616039 17.0469733752033044 24.4051001938086927 Ti
atom 6.7180595957469693 15.0417220652033379 24.4051002779334887 O
atom 8.0616544429958843 12.6064267072169134 25.7486859016146532 O
atom 9.4052310642840933 14.1816887402033327 24.4051002316598193 O
atom 8.0616368715386688 11.7463936981897987 23.0615144718606722 O
atom 9.4052317221745732 10.1711543802033830 24.4051003150566750 O
atom 8.0616360719347515 17.4769943981897384 23.0615144668695216 O
atom 6.7180589519988390 19.0522565052032888 24.4051002652472562 O
atom 8.0616539265271108 16.6169612272168763 25.7486859313544088 O
atom 2.6872772016400330 4.8705766291627413 20.3743431177049459 Ti
atom 9.4052327729434584 2.4352731202034614 24.4051002556804910 Ti
atom 8.0616371792686596 9.7411424681898229 23.0615145489145092 Ti
atom 6.7180606111607641 7.3058387152034099 24.4051002114863529 Ti
atom 6.7180609401040234 5.3005878652034362 24.4051003238954607 O
atom 2.6872775023028130 2.8652936991627698 20.3743430604085169 O
atom 9.4052326137022781 4.4405559102034537 24.4051003836871381 O
atom 8.0616382088242631 2.0052615381898953 23.0615144824673273 O
atom 9.4052330382469691 0.4300220302034776 24.4051003185923427 O
atom 8.0616374587182609 7.7358595081898427 23.0615144986892240 O
atom 6.7180603387822817 9.3111217752033877 24.4051002829248169 O
atom 8.0616552496708938 6.8758273372169727 25.7486859702453827 O
atom 0.0001220453483420 14.6117100031897706 23.0615145542179114 Ti
atom 1.3436992538198818 12.1764055461762268 21.7179287131017205 Ti
atom 0.0001063630006751 0.0000106541627862 20.3743430699753780 Ti
atom 9.4052129797435633 17.0469734611761723 21.7179287254761668 Ti
atom 9.4052132945447493 15.0417221511762005 21.7179288378853315 O
atom 0.0001222823712993 12.6064267831897840 23.0615144191399501 O
atom 1.3436989107305937 14.1816888361761979 21.7179287562561605 O
atom 5.3744831091014342 11.7463936222169281 25.7486859614065118 O
atom 1.3436995756920775 10.1711544561762519 21.7179288184397947 O
atom 5.3744823236396080 17.4769943022168661 25.7486859422731840 O
atom 9.4052127144361659 19.0522565911761532 21.7179288039856786 O
atom 0.0001217234762984 16.6169613031897399 23.0615145054483790 O
atom 0.0001234533448983 4.8705764831898746 23.0615145931086118 Ti
atom 1.3437006688872242 2.4352731961763348 21.7179287166370578 Ti
atom 0.0001050115730784 9.7411425441626864 20.3743430876530311 Ti
atom 9.4052143665270087 7.3058387511762772 21.7179287431537311 Ti
atom 9.4052146813279922 5.3005878911763009 21.7179288131364849 O
atom 0.0001237469366158 2.8652936831898987 23.0615145428832697 O
atom 1.3437004389356542 4.4405559761763200 21.7179289294967468 O
atom 5.3744844746712159 2.0052614522170260 25.7486859437288054 O
atom 1.3437009412618761 0.4300220961763542 21.7179288007620883 O
atom 5.3744837104231182 7.7358594422169720 25.7486859740928864 O
atom 9.4052140941485654 9.3111218511762566 21.7179288287343368 O
atom 0.0001231173305313 6.8758274431898450 23.0615144736284527 O
atom 0.0001418173347529 0.0000104822170469 25.7486860349248339 Ti
atom 0.0001404659070968 9.7411424222169529 25.7486860384603560 Ti
atom 2.6873112691908334 14.6117099272169035 25.7486860649768445 Ti
atom 2.6873116052090276 12.6064267172169302 25.7486860147513674 O
atom 2.6873126064764823 4.8705764072170012 25.7486860331570959 Ti
atom 8.0616542201150221 14.6117099272169035 25.7486860225504408 Ti
atom 8.0616556068983805 4.8705764772170026 25.7486860685122707 Ti
atom 8.0616559075611676 2.8652935472170316 25.7486860112158418 O
atom 5.3744847682590278 0.0000105022170479 25.7486860207827064 Ti
atom 5.3744834168314268 9.7411423922169504 25.7486860384603560 Ti
