#===============================================================================
# Created using the Atomic Simulation Environment (ASE)

# Mon Mar 23 14:01:31 2026

#=======================================================
lattice_vector 7.6004937600000506 0.0000000000000000 0.0000000000000000 
lattice_vector -0.0000000000000672 7.6004436200000214 0.0000000000000000 
lattice_vector 0.0000000000000000 0.0000000000000000 72.2598611849996075 
atom 0.0000046413884537 7.6004405965652442 25.1711438599999155 Ti
atom 1.9001268937535822 7.6004413727388105 15.0000000100000044 O
atom 1.9001274974648799 1.9001082682446226 20.3005778549999647 Ti
atom 1.9001276894290100 7.6004407324033840 22.7358812599999425 Ti
atom 0.0000034935411877 7.6004413599240284 15.4300119200000019 Ti
atom 0.0000037255054556 1.9001084140827340 17.8653156349999804 Ti
atom 0.0000040376773056 1.9001082910593681 19.8705664349999651 O
atom 1.9001276096404438 1.9001080452188095 22.3058607249999525 O
atom 1.9001274172534550 7.6004409654291916 20.7305984699999684 O
atom 0.0000043292165916 7.6004407195886170 23.1658929599999439 O
atom 1.9001280416008932 7.6004406293799978 24.7411323399999148 O
atom 0.0000036857167598 7.6004411568982091 17.4352948599999849 O
atom 0.0000035233298664 1.9001086171085633 15.8600325550000036 O
atom 1.9001272052930152 1.9001084012679978 18.2953269349999843 O
atom 0.0000046513884873 3.8002187765652327 25.1711438599999013 Ti
atom 1.9001268937536144 3.8002195827388001 15.0000000000000071 O
atom 1.9001274974648552 5.7003300782446269 20.3005779349999642 Ti
atom 1.9001276894290422 3.8002189024033743 22.7358812499999416 Ti
atom 0.0000034935412213 3.8002195599240163 15.4300119200000090 Ti
atom 0.0000036955054255 5.7003302240827427 17.8653156649999900 Ti
atom 0.0000040576772790 5.7003300810593736 19.8705664949999559 O
atom 1.9001276096404167 5.7003298652188157 22.3058607849999575 O
atom 1.9001274172534897 3.8002191354291797 20.7305984799999763 O
atom 0.0000043292166252 3.8002188795886069 23.1658929599999297 O
atom 1.9001280516009280 3.8002188093799862 24.7411323499999085 O
atom 0.0000036857167933 3.8002193468981984 17.4352948599999849 O
atom 0.0000034933298344 5.7003304371085726 15.8600325650000045 O
atom 1.9001271952929917 5.7003301912680016 18.2953270249999846 O
atom 3.8002515113884754 7.6004405965652468 25.1711438299999060 Ti
atom 5.7003737837536059 7.6004413927388121 15.0000000000000000 O
atom 5.7003744374649061 1.9001082582446223 20.3005778649999513 Ti
atom 5.7003746394290360 7.6004407624033847 22.7358812599999283 Ti
atom 3.8002503735412168 7.6004413399240258 15.4300119500000044 Ti
atom 3.8002505855054833 1.9001084040827321 17.8653156649999900 Ti
atom 3.8002509376773403 1.9001082910593625 19.8705665149999575 O
atom 5.7003746496404775 1.9001080452188042 22.3058607949999299 O
atom 5.7003745772534806 7.6004409254291918 20.7305984699999399 O
atom 3.8002512092166070 7.6004407195886232 23.1658928799999373 O
atom 5.7003749116009192 7.6004406593799967 24.7411323499999227 O
atom 3.8002505757167913 7.6004411468982056 17.4352949099999819 O
atom 3.8002504033298981 1.9001086071085591 15.8600326049999971 O
atom 5.7003740752930492 1.9001084012679927 18.2953270049999830 O
atom 3.8002515113885096 3.8002187765652349 25.1711438399999139 Ti
atom 5.7003737737536397 3.8002195627388007 15.0000000000000071 O
atom 5.7003744374648821 5.7003300682446261 20.3005779349999500 Ti
atom 5.7003746294290698 3.8002188724033732 22.7358812599999283 Ti
atom 3.8002503735412501 3.8002195499240150 15.4300119500000079 Ti
atom 3.8002505955054544 5.7003302140827392 17.8653157049999791 Ti
atom 3.8002509076773130 5.7003300810593691 19.8705665649999688 O
atom 5.7003746496404366 5.7003298652188192 22.3058607349999392 O
atom 5.7003745772535162 3.8002191454291792 20.7305984799999337 O
atom 3.8002512092166421 3.8002188895886122 23.1658928899999310 O
atom 5.7003749216009538 3.8002187793799851 24.7411323599999164 O
atom 3.8002505757168237 3.8002193368981958 17.4352948999999811 O
atom 3.8002504233298646 5.7003304271085709 15.8600326050000042 O
atom 5.7003740752930128 5.7003301812680052 18.2953269749999876 O
atom 1.9001286953123426 1.9001074948857091 30.0417114949998663 Ti
atom 1.9001289072765992 7.6004399590443876 32.4770159899998418 Ti
atom 0.0000069470833561 7.6004390698474333 44.6534109399997234 Ti
atom 0.0000048533527836 1.9001076307239100 27.6064481049998847 Ti
atom 0.0000051855246966 1.9001074877005020 29.6116994549998651 O
atom 1.9001289374879471 1.9001072818598694 32.0469947149998333 O
atom 1.9001287951009893 7.6004401920702316 30.4717327199998564 O
atom 0.0000054870641861 7.6004399462296170 32.9070277299998395 O
atom 1.9001291994484848 7.6004398460209996 34.4822670899998158 O
atom 0.0000048435640657 7.6004403835393992 27.1764271399998947 O
atom 0.0000046911771891 1.9001078537497420 25.6011649849999046 O
atom 1.9001283331404362 1.9001075979091115 28.0364602149998845 O
atom 1.9001298031597824 1.9001067415268111 39.7828449349997655 Ti
atom 1.9001299951239130 7.6004392056855732 42.2181483399997504 Ti
atom 0.0000057992360902 7.6004398332062166 34.9122789999998133 Ti
atom 0.0000060312003577 1.9001068873649223 37.3475827149997883 Ti
atom 0.0000063433722081 1.9001067643415566 39.3528335149997659 O
atom 1.9001299153353464 1.9001065185009982 41.7881278049997533 O
atom 1.9001297229483578 7.6004394387113807 40.2128655499997762 O
atom 0.0000066349114954 7.6004391928708044 42.6481600399997518 O
atom 1.9001303472957958 7.6004391026621860 44.2233994199997227 O
atom 0.0000059914116635 7.6004396301803974 36.9175619399997927 O
atom 0.0000058290247688 1.9001070903907513 35.3422996349998186 O
atom 1.9001295109879175 1.9001068745501861 37.7775940149997851 O
atom 1.9001286853123092 5.7003293248857192 30.0417114949998663 Ti
atom 1.9001289072766314 3.8002181490443769 32.4770159799998339 Ti
atom 0.0000069570833897 3.8002172498474218 44.6534109399997092 Ti
atom 0.0000048533527483 5.7003294607239203 27.6064480949998980 Ti
atom 0.0000051755246619 5.7003293577005127 29.6116994449998714 O
atom 1.9001289274879123 5.7003290918598797 32.0469947049998396 O
atom 1.9001287951010206 3.8002183820702218 30.4717326999998406 O
atom 0.0000054870642197 3.8002181462296067 32.9070277399998403 O
atom 1.9001291994485170 3.8002180560209888 34.4822670799998221 O
atom 0.0000048435641009 3.8002185735393876 27.1764271599998892 O
atom 0.0000046811771544 5.7003296637497529 25.6011649749999108 O
atom 1.9001283331404015 5.7003294779091229 28.0364602049998979 O
atom 1.9001298031597578 5.7003285515268152 39.7828450149997721 Ti
atom 1.9001299951239452 3.8002173756855631 42.2181483299997495 Ti
atom 0.0000057992361237 3.8002180332062045 34.9122789999998204 Ti
atom 0.0000060012003276 5.7003286973649301 37.3475827449997908 Ti
atom 0.0000063633721814 5.7003285543415618 39.3528335749997566 O
atom 1.9001299153353197 5.7003283385010040 41.7881278649997654 O
atom 1.9001297229483922 3.8002176087113679 40.2128655599997771 O
atom 0.0000066349115273 3.8002173528707952 42.6481600399997376 O
atom 1.9001303572958310 3.8002172826621741 44.2233994299997235 O
atom 0.0000059914116971 3.8002178201803871 36.9175619399997927 O
atom 0.0000057990247365 5.7003289103907600 35.3422996449998124 O
atom 1.9001295009878942 5.7003286645501889 37.7775941049997925 O
atom 5.7003755353123688 1.9001074848857091 30.0417114949998663 Ti
atom 5.7003757472766265 7.6004399690443867 32.4770159899998490 Ti
atom 3.8002538170833775 7.6004390698474342 44.6534109099997210 Ti
atom 3.8002517233528046 1.9001076307239118 27.6064480849998901 Ti
atom 3.8002520655247154 1.9001074877005066 29.6116993949998601 O
atom 5.7003756474879737 1.9001072818598694 32.0469947149998546 O
atom 5.7003754851010147 7.6004401920702316 30.4717327199998707 O
atom 3.8002523670642181 7.6004399362296127 32.9070277999998382 O
atom 5.7003760894485094 7.6004398660209995 34.4822670799998079 O
atom 3.8002516835640852 7.6004403835394019 27.1764270999998914 O
atom 3.8002515211772110 1.9001078537497444 25.6011649549999163 O
atom 5.7003752231404592 1.9001075879091132 28.0364601949998828 O
atom 5.7003767431598105 1.9001067315268105 39.7828449449997663 Ti
atom 5.7003769451239377 7.6004392356855730 42.2181483399997433 Ti
atom 3.8002526792361189 7.6004398132062141 34.9122790299998087 Ti
atom 3.8002528912003855 1.9001068773649201 37.3475827449997908 Ti
atom 3.8002532433722420 1.9001067643415506 39.3528335949997654 O
atom 5.7003769553353809 1.9001065185009927 41.7881278749997307 O
atom 5.7003768829483832 7.6004393987113801 40.2128655499997478 O
atom 3.8002535149115100 7.6004391928708115 42.6481599599997452 O
atom 5.7003772172958209 7.6004391326621850 44.2233994299997235 O
atom 3.8002528814116929 7.6004396201803930 36.9175619899997969 O
atom 3.8002527090248002 1.9001070803907476 35.3422996849998157 O
atom 5.7003763809879526 1.9001068745501808 37.7775940849997980 O
atom 5.7003755253123360 5.7003293148857193 30.0417114949998663 Ti
atom 5.7003757372766586 3.8002181490443765 32.4770159899998490 Ti
atom 3.8002538170834117 3.8002172498474227 44.6534109199997147 Ti
atom 3.8002517133527705 5.7003294607239221 27.6064480749998964 Ti
atom 3.8002520555246804 5.7003293577005181 29.6116993849998664 O
atom 5.7003756374879400 5.7003290918598797 32.0469947149998546 O
atom 5.7003754851010466 3.8002183820702222 30.4717326999998690 O
atom 3.8002523670642523 3.8002181462296023 32.9070277999998382 O
atom 5.7003760794485441 3.8002180360209894 34.4822670799998221 O
atom 3.8002516835641211 3.8002185735393907 27.1764271199999072 O
atom 3.8002515411771758 5.7003296637497556 25.6011649449999226 O
atom 5.7003752231404254 5.7003294679091239 28.0364601949998899 O
atom 5.7003767431597838 5.7003285415268135 39.7828450149997650 Ti
atom 5.7003769351239724 3.8002173456855624 42.2181483399997290 Ti
atom 3.8002526792361522 3.8002180232062037 34.9122790299998087 Ti
atom 3.8002529012003565 5.7003286873649266 37.3475827849997941 Ti
atom 3.8002532133722151 5.7003285543415574 39.3528336449997624 O
atom 5.7003769553353392 5.7003283385010075 41.7881278149997399 O
atom 5.7003768829484178 3.8002176187113683 40.2128655599997487 O
atom 3.8002535149115442 3.8002173628708005 42.6481599699997460 O
atom 5.7003772272958564 3.8002172526621734 44.2233994399997172 O
atom 3.8002528814117258 3.8002178101803841 36.9175619799997961 O
atom 3.8002527290247667 5.7003289003907582 35.3422996849998157 O
atom 5.7003763809879144 5.7003286545501926 37.7775940549997884 O
atom 1.9001310010072452 1.9001059681678978 49.5239785749996670 Ti
atom 1.9001312129715018 7.6004384323265759 51.9592830699996497 Ti
atom 0.0000071590476857 1.9001061040060985 47.0887151849996926 Ti
atom 0.0000074912195991 1.9001059609826905 49.0939665349996659 O
atom 1.9001312431828492 1.9001057551420582 51.5292617949996483 O
atom 1.9001311007958919 7.6004386653524199 49.9539997999996572 O
atom 0.0000077927590865 7.6004384195118062 52.3892948099996474 O
atom 1.9001315051433874 7.6004383193031879 53.9645341699996024 O
atom 0.0000071492589678 7.6004388568215884 46.6586942199997026 O
atom 0.0000069968720915 1.9001063270319303 45.0834320649997196 O
atom 1.9001306388353387 1.9001060711913003 47.5187272949996995 O
atom 0.0000081049309926 7.6004383064884049 54.3945460799996212 Ti
atom 0.0000083368952598 1.9001053606471108 56.8298497949995962 Ti
atom 0.0000082971065656 7.6004381034625865 56.3998290199995935 O
atom 0.0000081347196713 1.9001055636729396 54.8245667149996265 O
atom 1.9001318166828196 1.9001053478323746 57.2598610949996143 O
atom 1.9001309910072113 5.7003277981679084 49.5239785749996670 Ti
atom 1.9001312129715340 3.8002166223265657 51.9592830599996702 Ti
atom 0.0000071590476504 5.7003279340061104 47.0887151749997059 Ti
atom 0.0000074812195643 5.7003278309827028 49.0939665249996793 O
atom 1.9001312331828144 5.7003275651420688 51.5292617849996404 O
atom 1.9001311007959227 3.8002168553524101 49.9539997799996556 O
atom 0.0000077927591218 3.8002166195117946 52.3892948199996553 O
atom 1.9001315051434196 3.8002165293031767 53.9645341599996229 O
atom 0.0000071492590047 3.8002170468215755 46.6586942399996971 O
atom 0.0000069868720568 5.7003281370319412 45.0834320549997187 O
atom 1.9001306388353039 5.7003279511913121 47.5187272849997058 O
atom 0.0000081049310262 3.8002165064883928 54.3945460799996212 Ti
atom 0.0000083068952297 5.7003271706471184 56.8298498249995916 Ti
atom 0.0000082971065992 3.8002162934625754 56.3998290199995935 O
atom 0.0000081047196386 5.7003273836729491 54.8245667249996060 O
atom 1.9001318066827968 5.7003271378323781 57.2598611849996004 O
atom 5.7003778410072705 1.9001059581678976 49.5239785749996670 Ti
atom 5.7003780529715273 7.6004384423265767 51.9592830699996497 Ti
atom 3.8002540290477076 1.9001061040060998 47.0887151649997051 Ti
atom 3.8002543712196184 1.9001059609826951 49.0939664749996680 O
atom 5.7003779531828744 1.9001057551420582 51.5292617949996483 O
atom 5.7003777907959163 7.6004386653524199 49.9539997999996856 O
atom 3.8002546727591211 7.6004384095118001 52.3892948799996461 O
atom 5.7003783951434110 7.6004383393031887 53.9645341599996229 O
atom 3.8002539892589882 7.6004388568215902 46.6586941799997064 O
atom 3.8002538268721140 1.9001063270319327 45.0834320349997242 O
atom 5.7003775288353618 1.9001060611913017 47.5187272749996978 O
atom 3.8002549849310219 7.6004382864884024 54.3945461099996166 Ti
atom 3.8002551968952885 1.9001053506471088 56.8298498249995916 Ti
atom 3.8002551871065959 7.6004380934625821 56.3998290699996048 O
atom 3.8002550147197023 1.9001055536729359 54.8245667649996093 O
atom 5.7003786866828534 1.9001053478323695 57.2598611649995846 O
atom 5.7003778310072377 5.7003277881679084 49.5239785749996670 Ti
atom 5.7003780429715603 3.8002166223265652 51.9592830699996782 Ti
atom 3.8002540190476726 5.7003279340061104 47.0887151549996972 Ti
atom 3.8002543612195825 5.7003278309827063 49.0939664649996672 O
atom 5.7003779431828416 5.7003275651420680 51.5292617949996483 O
atom 5.7003777907959474 3.8002168553524101 49.9539997799996840 O
atom 3.8002546727591544 3.8002166195117906 52.3892948799996461 O
atom 5.7003783851434449 3.8002165093031772 53.9645341599996229 O
atom 3.8002539892590232 3.8002170468215790 46.6586941999997080 O
atom 3.8002538468720779 5.7003281370319439 45.0834320249997234 O
atom 5.7003775288353289 5.7003279411913130 47.5187272749997049 O
atom 3.8002549849310552 3.8002164964883911 54.3945461099996166 Ti
atom 3.8002552068952595 5.7003271606471166 56.8298498649995949 Ti
atom 3.8002551871066284 3.8002162834625719 56.3998290599995968 O
atom 3.8002550347196689 5.7003273736729465 54.8245667649996093 O
atom 5.7003786866828179 5.7003271278323826 57.2598611349995892 O
