#===============================================================================
# Created using the Atomic Simulation Environment (ASE)

# Mon Mar 23 14:01:31 2026

#=======================================================
lattice_vector 7.6004937600000506 0.0000000000000000 0.0000000000000000 
lattice_vector -0.0000000000000672 7.6004436200000214 0.0000000000000000 
lattice_vector 0.0000000000000000 0.0000000000000000 86.8715618299994503 
atom 0.0000023356935513 7.6004421232830559 20.3005774249999504 Ti
atom 1.9001251917699775 1.9001097949624346 15.4300114200000031 Ti
atom 1.9001253837341074 7.6004422591211958 17.8653148249999809 Ti
atom 0.0000017319824032 1.9001098177771798 15.0000000000000000 O
atom 1.9001253039455415 1.9001095719366214 17.4352942899999910 O
atom 1.9001251115585529 7.6004424921470033 15.8600320350000157 O
atom 0.0000020235216895 7.6004422463064287 18.2953265249999788 O
atom 1.9001257359059907 7.6004421560978095 19.8705659049999532 O
atom 0.0000023456935848 3.8002203032830444 20.3005774249999504 Ti
atom 1.9001251917699526 5.7003316049624377 15.4300114999999991 Ti
atom 1.9001253837341401 3.8002204291211861 17.8653148149999836 Ti
atom 0.0000017519823766 5.7003316077771862 15.0000000599999961 O
atom 1.9001253039455146 5.7003313919366274 17.4352943499999959 O
atom 1.9001251115585878 3.8002206621469914 15.8600320450000094 O
atom 0.0000020235217231 3.8002204063064191 18.2953265249999717 O
atom 1.9001257459060259 3.8002203360977975 19.8705659149999505 O
atom 3.8002492056935724 7.6004421232830586 20.3005773949999515 Ti
atom 5.7003721317700053 1.9001097849624338 15.4300114299999951 Ti
atom 5.7003723337341325 7.6004422891211956 17.8653148249999738 Ti
atom 3.8002486319824382 1.9001098177771740 15.0000000799999942 O
atom 5.7003723439455749 1.9001095719366159 17.4352943599999719 O
atom 5.7003722715585790 7.6004424521470026 15.8600320349999784 O
atom 3.8002489035217049 7.6004422463064349 18.2953264449999757 O
atom 5.7003726059060158 7.6004421860978084 19.8705659149999541 O
atom 3.8002492056936075 3.8002203032830462 20.3005774049999488 Ti
atom 5.7003721317699787 5.7003315949624378 15.4300114999999938 Ti
atom 5.7003723237341672 3.8002203991211854 17.8653148249999703 Ti
atom 3.8002486019824100 5.7003316077771800 15.0000001300000019 O
atom 5.7003723439455349 5.7003313919366319 17.4352942999999705 O
atom 5.7003722715586127 3.8002206721469909 15.8600320449999792 O
atom 3.8002489035217399 3.8002204163064235 18.2953264549999730 O
atom 5.7003726159060513 3.8002203060977964 19.8705659249999513 O
atom 1.9001263896174401 1.9001090216035210 25.1711450599999012 Ti
atom 1.9001266015816967 7.6004414857621994 27.6064495549998803 Ti
atom 0.0000046413884537 7.6004405965652442 39.7828445049997654 Ti
atom 0.0000025476578798 1.9001091574417217 22.7358816699999302 Ti
atom 0.0000028798297942 1.9001090144183137 24.7411330199999000 O
atom 1.9001266317930445 1.9001088085776814 27.1764282799998718 O
atom 1.9001264894060867 7.6004417187880433 25.6011662849998913 O
atom 0.0000031813692823 7.6004414729474306 28.0364612949998744 O
atom 1.9001268937535822 7.6004413727388105 29.6117006549998543 O
atom 0.0000025378691636 7.6004419102572127 22.3058607049999331 O
atom 0.0000023854822867 1.9001093804675535 20.7305985499999501 O
atom 1.9001260274455336 1.9001091246269235 23.1658937799999300 O
atom 1.9001274974648799 1.9001082682446226 34.9122784999998146 Ti
atom 1.9001276894290100 7.6004407324033840 37.3475819049997924 Ti
atom 0.0000034935411877 7.6004413599240284 30.0417125649998518 Ti
atom 0.0000037255054556 1.9001084140827340 32.4770162799998303 Ti
atom 0.0000040376773056 1.9001082910593681 34.4822670799998150 O
atom 1.9001276096404438 1.9001080452188095 36.9175613699998024 O
atom 1.9001274172534550 7.6004409654291916 35.3422991149998182 O
atom 0.0000043292165916 7.6004407195886170 37.7775936049997938 O
atom 1.9001280416008932 7.6004406293799978 39.3528329849997647 O
atom 0.0000036857167598 7.6004411568982091 32.0469955049998347 O
atom 0.0000035233298664 1.9001086171085633 30.4717331999998535 O
atom 1.9001272052930152 1.9001084012679978 32.9070275799998342 O
atom 1.9001263796174066 5.7003308516035318 25.1711450599999012 Ti
atom 1.9001266015817289 3.8002196757621887 27.6064495449998795 Ti
atom 0.0000046513884873 3.8002187765652327 39.7828445049997512 Ti
atom 0.0000025476578462 5.7003309874417329 22.7358816599999329 Ti
atom 0.0000028698297595 5.7003308844183254 24.7411330099999098 O
atom 1.9001266217930097 5.7003306185776923 27.1764282699998745 O
atom 1.9001264894061181 3.8002199087880340 25.6011662649998897 O
atom 0.0000031813693159 3.8002196729474185 28.0364613049998823 O
atom 1.9001268937536144 3.8002195827388001 29.6117006449998570 O
atom 0.0000025378691988 3.8002201002571989 22.3058607249999348 O
atom 0.0000023754822519 5.7003311904675664 20.7305985399999493 O
atom 1.9001260274454990 5.7003310046269347 23.1658937699999363 O
atom 1.9001274974648552 5.7003300782446269 34.9122785799998141 Ti
atom 1.9001276894290422 3.8002189024033743 37.3475818949997915 Ti
atom 0.0000034935412213 3.8002195599240163 30.0417125649998589 Ti
atom 0.0000036955054255 5.7003302240827427 32.4770163099998399 Ti
atom 0.0000040576772790 5.7003300810593736 34.4822671399998057 O
atom 1.9001276096404167 5.7003298652188157 36.9175614299998074 O
atom 1.9001274172534897 3.8002191354291797 35.3422991249998262 O
atom 0.0000043292166252 3.8002188795886069 37.7775936049997796 O
atom 1.9001280516009280 3.8002188093799862 39.3528329949997584 O
atom 0.0000036857167933 3.8002193468981984 32.0469955049998347 O
atom 0.0000034933298344 5.7003304371085726 30.4717332099998544 O
atom 1.9001271952929917 5.7003301912680016 32.9070276699998345 O
atom 5.7003732296174654 1.9001090116035209 25.1711450599999012 Ti
atom 5.7003734415817222 7.6004414957621993 27.6064495549998803 Ti
atom 3.8002515113884754 7.6004405965652468 39.7828444749997558 Ti
atom 3.8002494176579025 1.9001091574417230 22.7358816499999321 Ti
atom 3.8002497598298133 1.9001090144183184 24.7411329599999057 O
atom 5.7003733417930693 1.9001088085776814 27.1764282799998931 O
atom 5.7003731794061112 7.6004417187880433 25.6011662849999126 O
atom 3.8002500613693160 7.6004414629474244 28.0364613649998766 O
atom 5.7003737837536059 7.6004413927388121 29.6117006449998499 O
atom 3.8002493778691830 7.6004419102572154 22.3058606649999334 O
atom 3.8002492154823089 1.9001093804675560 20.7305985199999512 O
atom 5.7003729174455566 1.9001091146269251 23.1658937599999284 O
atom 5.7003744374649061 1.9001082582446223 34.9122785099998012 Ti
atom 5.7003746394290360 7.6004407624033847 37.3475819049997781 Ti
atom 3.8002503735412168 7.6004413399240258 30.0417125949998542 Ti
atom 3.8002505855054833 1.9001084040827321 32.4770163099998399 Ti
atom 3.8002509376773403 1.9001082910593625 34.4822671599998074 O
atom 5.7003746496404775 1.9001080452188042 36.9175614399997798 O
atom 5.7003745772534806 7.6004409254291918 35.3422991149997898 O
atom 3.8002512092166070 7.6004407195886232 37.7775935249997872 O
atom 5.7003749116009192 7.6004406593799967 39.3528329949997726 O
atom 3.8002505757167913 7.6004411468982056 32.0469955549998318 O
atom 3.8002504033298981 1.9001086071085591 30.4717332499998470 O
atom 5.7003740752930492 1.9001084012679927 32.9070276499998329 O
atom 5.7003732196174317 5.7003308416035319 25.1711450599999047 Ti
atom 5.7003734315817551 3.8002196757621878 27.6064495549998803 Ti
atom 3.8002515113885096 3.8002187765652349 39.7828444849997638 Ti
atom 3.8002494076578683 5.7003309874417347 22.7358816399999313 Ti
atom 3.8002497498297783 5.7003308844183307 24.7411329499999049 O
atom 5.7003733317930365 5.7003306185776914 27.1764282799998931 O
atom 5.7003731794061423 3.8002199087880340 25.6011662649999110 O
atom 3.8002500613693502 3.8002196729474131 28.0364613649998766 O
atom 5.7003737737536397 3.8002195627388007 29.6117006449998570 O
atom 3.8002493778692190 3.8002201002572020 22.3058606849999350 O
atom 3.8002492354822737 5.7003311904675682 20.7305985099999504 O
atom 5.7003729174455238 5.7003309946269356 23.1658937599999355 O
atom 5.7003744374648821 5.7003300682446261 34.9122785799997999 Ti
atom 5.7003746294290698 3.8002188724033732 37.3475819049997781 Ti
atom 3.8002503735412501 3.8002195499240150 30.0417125949998578 Ti
atom 3.8002505955054544 5.7003302140827392 32.4770163499998290 Ti
atom 3.8002509076773130 5.7003300810593691 34.4822672099998186 O
atom 5.7003746496404366 5.7003298652188192 36.9175613799997890 O
atom 5.7003745772535162 3.8002191454291792 35.3422991249997835 O
atom 3.8002512092166421 3.8002188895886122 37.7775935349997809 O
atom 5.7003749216009538 3.8002187793799851 39.3528330049997663 O
atom 3.8002505757168237 3.8002193368981958 32.0469955449998309 O
atom 3.8002504233298646 5.7003304271085709 30.4717332499998541 O
atom 5.7003740752930128 5.7003301812680052 32.9070276199998375 O
atom 1.9001286953123426 1.9001074948857091 44.6534121399997161 Ti
atom 1.9001289072765992 7.6004399590443876 47.0887166349996917 Ti
atom 0.0000069470833561 7.6004390698474333 59.2651115849995733 Ti
atom 0.0000048533527836 1.9001076307239100 42.2181487499997345 Ti
atom 0.0000051855246966 1.9001074877005020 44.2234000999997150 O
atom 1.9001289374879471 1.9001072818598694 46.6586953599996832 O
atom 1.9001287951009893 7.6004401920702316 45.0834333649997063 O
atom 0.0000054870641861 7.6004399462296170 47.5187283749996894 O
atom 1.9001291994484848 7.6004398460209996 49.0939677349996657 O
atom 0.0000048435640657 7.6004403835393992 41.7881277849997446 O
atom 0.0000046911771891 1.9001078537497420 40.2128656299997544 O
atom 1.9001283331404362 1.9001075979091115 42.6481608599997344 O
atom 1.9001298031597824 1.9001067415268111 54.3945455799996154 Ti
atom 1.9001299951239130 7.6004392056855732 56.8298489849996002 Ti
atom 0.0000057992360902 7.6004398332062166 49.5239796449996632 Ti
atom 0.0000060312003577 1.9001068873649223 51.9592833599996382 Ti
atom 0.0000063433722081 1.9001067643415566 53.9645341599996158 O
atom 1.9001299153353464 1.9001065185009982 56.3998284499996032 O
atom 1.9001297229483578 7.6004394387113807 54.8245661949996261 O
atom 0.0000066349114954 7.6004391928708044 57.2598606849996017 O
atom 1.9001303472957958 7.6004391026621860 58.8351000649995726 O
atom 0.0000059914116635 7.6004396301803974 51.5292625849996426 O
atom 0.0000058290247688 1.9001070903907513 49.9540002799996685 O
atom 1.9001295109879175 1.9001068745501861 52.3892946599996350 O
atom 1.9001286853123092 5.7003293248857192 44.6534121399997161 Ti
atom 1.9001289072766314 3.8002181490443769 47.0887166249996838 Ti
atom 0.0000069570833897 3.8002172498474218 59.2651115849995591 Ti
atom 0.0000048533527483 5.7003294607239203 42.2181487399997479 Ti
atom 0.0000051755246619 5.7003293577005127 44.2234000899997213 O
atom 1.9001289274879123 5.7003290918598797 46.6586953499996895 O
atom 1.9001287951010206 3.8002183820702218 45.0834333449996905 O
atom 0.0000054870642197 3.8002181462296067 47.5187283849996902 O
atom 1.9001291994485170 3.8002180560209888 49.0939677249996720 O
atom 0.0000048435641009 3.8002185735393876 41.7881278049997391 O
atom 0.0000046811771544 5.7003296637497529 40.2128656199997607 O
atom 1.9001283331404015 5.7003294779091229 42.6481608499997478 O
atom 1.9001298031597578 5.7003285515268152 54.3945456599996220 Ti
atom 1.9001299951239452 3.8002173756855631 56.8298489749995994 Ti
atom 0.0000057992361237 3.8002180332062045 49.5239796449996703 Ti
atom 0.0000060012003276 5.7003286973649301 51.9592833899996407 Ti
atom 0.0000063633721814 5.7003285543415618 53.9645342199996065 O
atom 1.9001299153353197 5.7003283385010040 56.3998285099996153 O
atom 1.9001297229483922 3.8002176087113679 54.8245662049996270 O
atom 0.0000066349115273 3.8002173528707952 57.2598606849995875 O
atom 1.9001303572958310 3.8002172826621741 58.8351000749995734 O
atom 0.0000059914116971 3.8002178201803871 51.5292625849996426 O
atom 0.0000057990247365 5.7003289103907600 49.9540002899996622 O
atom 1.9001295009878942 5.7003286645501889 52.3892947499996424 O
atom 5.7003755353123688 1.9001074848857091 44.6534121399997161 Ti
atom 5.7003757472766265 7.6004399690443867 47.0887166349996988 Ti
atom 3.8002538170833775 7.6004390698474342 59.2651115549995708 Ti
atom 3.8002517233528046 1.9001076307239118 42.2181487299997400 Ti
atom 3.8002520655247154 1.9001074877005066 44.2234000399997100 O
atom 5.7003756474879737 1.9001072818598694 46.6586953599997045 O
atom 5.7003754851010147 7.6004401920702316 45.0834333649997205 O
atom 3.8002523670642181 7.6004399362296127 47.5187284449996881 O
atom 5.7003760894485094 7.6004398660209995 49.0939677249996578 O
atom 3.8002516835640852 7.6004403835394019 41.7881277449997413 O
atom 3.8002515211772110 1.9001078537497444 40.2128655999997662 O
atom 5.7003752231404592 1.9001075879091132 42.6481608399997327 O
atom 5.7003767431598105 1.9001067315268105 54.3945455899996162 Ti
atom 5.7003769451239377 7.6004392356855730 56.8298489849995931 Ti
atom 3.8002526792361189 7.6004398132062141 49.5239796749996586 Ti
atom 3.8002528912003855 1.9001068773649201 51.9592833899996407 Ti
atom 3.8002532433722420 1.9001067643415506 53.9645342399996153 O
atom 5.7003769553353809 1.9001065185009927 56.3998285199995806 O
atom 5.7003768829483832 7.6004393987113801 54.8245661949995977 O
atom 3.8002535149115100 7.6004391928708115 57.2598606049995951 O
atom 5.7003772172958209 7.6004391326621850 58.8351000749995734 O
atom 3.8002528814116929 7.6004396201803930 51.5292626349996468 O
atom 3.8002527090248002 1.9001070803907476 49.9540003299996656 O
atom 5.7003763809879526 1.9001068745501808 52.3892947299996479 O
atom 5.7003755253123360 5.7003293148857193 44.6534121399997161 Ti
atom 5.7003757372766586 3.8002181490443765 47.0887166349996988 Ti
atom 3.8002538170834117 3.8002172498474227 59.2651115649995646 Ti
atom 3.8002517133527705 5.7003294607239221 42.2181487199997463 Ti
atom 3.8002520555246804 5.7003293577005181 44.2234000299997163 O
atom 5.7003756374879400 5.7003290918598797 46.6586953599997045 O
atom 5.7003754851010466 3.8002183820702222 45.0834333449997189 O
atom 3.8002523670642523 3.8002181462296023 47.5187284449996881 O
atom 5.7003760794485441 3.8002180360209894 49.0939677249996720 O
atom 3.8002516835641211 3.8002185735393907 41.7881277649997571 O
atom 3.8002515411771758 5.7003296637497556 40.2128655899997725 O
atom 5.7003752231404254 5.7003294679091239 42.6481608399997398 O
atom 5.7003767431597838 5.7003285415268135 54.3945456599996149 Ti
atom 5.7003769351239724 3.8002173456855624 56.8298489849995789 Ti
atom 3.8002526792361522 3.8002180232062037 49.5239796749996586 Ti
atom 3.8002529012003565 5.7003286873649266 51.9592834299996440 Ti
atom 3.8002532133722151 5.7003285543415574 53.9645342899996123 O
atom 5.7003769553353392 5.7003283385010075 56.3998284599995898 O
atom 5.7003768829484178 3.8002176187113683 54.8245662049995985 O
atom 3.8002535149115442 3.8002173628708005 57.2598606149995959 O
atom 5.7003772272958564 3.8002172526621734 58.8351000849995671 O
atom 3.8002528814117258 3.8002178101803841 51.5292626249996459 O
atom 3.8002527290247667 5.7003289003907582 49.9540003299996656 O
atom 5.7003763809879144 5.7003286545501926 52.3892946999996383 O
atom 1.9001310010072452 1.9001059681678978 64.1356792199995169 Ti
atom 1.9001312129715018 7.6004384323265759 66.5709837149994996 Ti
atom 0.0000071590476857 1.9001061040060985 61.7004158299995424 Ti
atom 0.0000074912195991 1.9001059609826905 63.7056671799995158 O
atom 1.9001312431828492 1.9001057551420582 66.1409624399994982 O
atom 1.9001311007958919 7.6004386653524199 64.5657004449995071 O
atom 0.0000077927590865 7.6004384195118062 67.0009954549994973 O
atom 1.9001315051433874 7.6004383193031879 68.5762348149994523 O
atom 0.0000071492589678 7.6004388568215884 61.2703948649995525 O
atom 0.0000069968720915 1.9001063270319303 59.6951327099995694 O
atom 1.9001306388353387 1.9001060711913003 62.1304279399995494 O
atom 0.0000081049309926 7.6004383064884049 69.0062467249994711 Ti
atom 0.0000083368952598 1.9001053606471108 71.4415504399994461 Ti
atom 0.0000082971065656 7.6004381034625865 71.0115296649994434 O
atom 0.0000081347196713 1.9001055636729396 69.4362673599994764 O
atom 1.9001318166828196 1.9001053478323746 71.8715617399994642 O
atom 1.9001309910072113 5.7003277981679084 64.1356792199995169 Ti
atom 1.9001312129715340 3.8002166223265657 66.5709837049995201 Ti
atom 0.0000071590476504 5.7003279340061104 61.7004158199995558 Ti
atom 0.0000074812195643 5.7003278309827028 63.7056671699995292 O
atom 1.9001312331828144 5.7003275651420688 66.1409624299994903 O
atom 1.9001311007959227 3.8002168553524101 64.5657004249995055 O
atom 0.0000077927591218 3.8002166195117946 67.0009954649995052 O
atom 1.9001315051434196 3.8002165293031767 68.5762348049994728 O
atom 0.0000071492590047 3.8002170468215755 61.2703948849995470 O
atom 0.0000069868720568 5.7003281370319412 59.6951326999995686 O
atom 1.9001306388353039 5.7003279511913121 62.1304279299995557 O
atom 0.0000081049310262 3.8002165064883928 69.0062467249994711 Ti
atom 0.0000083068952297 5.7003271706471184 71.4415504699994415 Ti
atom 0.0000082971065992 3.8002162934625754 71.0115296649994434 O
atom 0.0000081047196386 5.7003273836729491 69.4362673699994559 O
atom 1.9001318066827968 5.7003271378323781 71.8715618299994503 O
atom 5.7003778410072705 1.9001059581678976 64.1356792199995169 Ti
atom 5.7003780529715273 7.6004384423265767 66.5709837149994996 Ti
atom 3.8002540290477076 1.9001061040060998 61.7004158099995550 Ti
atom 3.8002543712196184 1.9001059609826951 63.7056671199995179 O
atom 5.7003779531828744 1.9001057551420582 66.1409624399994982 O
atom 5.7003777907959163 7.6004386653524199 64.5657004449995355 O
atom 3.8002546727591211 7.6004384095118001 67.0009955249994960 O
atom 5.7003783951434110 7.6004383393031887 68.5762348049994728 O
atom 3.8002539892589882 7.6004388568215902 61.2703948249995562 O
atom 3.8002538268721140 1.9001063270319327 59.6951326799995741 O
atom 5.7003775288353618 1.9001060611913017 62.1304279199995477 O
atom 3.8002549849310219 7.6004382864884024 69.0062467549994665 Ti
atom 3.8002551968952885 1.9001053506471088 71.4415504699994415 Ti
atom 3.8002551871065959 7.6004380934625821 71.0115297149994547 O
atom 3.8002550147197023 1.9001055536729359 69.4362674099994592 O
atom 5.7003786866828534 1.9001053478323695 71.8715618099994344 O
atom 5.7003778310072377 5.7003277881679084 64.1356792199995169 Ti
atom 5.7003780429715603 3.8002166223265652 66.5709837149995280 Ti
atom 3.8002540190476726 5.7003279340061104 61.7004157999995471 Ti
atom 3.8002543612195825 5.7003278309827063 63.7056671099995171 O
atom 5.7003779431828416 5.7003275651420680 66.1409624399994982 O
atom 5.7003777907959474 3.8002168553524101 64.5657004249995339 O
atom 3.8002546727591544 3.8002166195117906 67.0009955249994960 O
atom 5.7003783851434449 3.8002165093031772 68.5762348049994728 O
atom 3.8002539892590232 3.8002170468215790 61.2703948449995579 O
atom 3.8002538468720779 5.7003281370319439 59.6951326699995732 O
atom 5.7003775288353289 5.7003279411913130 62.1304279199995548 O
atom 3.8002549849310552 3.8002164964883911 69.0062467549994665 Ti
atom 3.8002552068952595 5.7003271606471166 71.4415505099994448 Ti
atom 3.8002551871066284 3.8002162834625719 71.0115297049994467 O
atom 3.8002550347196689 5.7003273736729465 69.4362674099994592 O
atom 5.7003786866828179 5.7003271278323826 71.8715617799994391 O
