#===============================================================================
# Created using the Atomic Simulation Environment (ASE)

# Mon Mar 23 14:01:34 2026

#=======================================================
lattice_vector 9.2839158800000003 0.0000000000000000 0.0000000000000000 
lattice_vector 0.0000000000000000 9.2839361000000000 0.0000000000000000 
lattice_vector 0.0000000000000000 0.0000000000000000 44.8678113800000062 
atom 2.3209789600000001 2.3209840399999999 15.0000000200000017 Ti
atom 3.7390025300000000 0.9029265000000000 15.0000000100000008 O
atom 0.9029554700000000 3.7390416200000001 15.0000000200000017 O
atom 2.3209789600000001 2.3209840399999999 17.9735622799999994 Ti
atom 9.2839158099999999 9.2839360299999996 16.4867811500000023 Ti
atom 3.7390025300000000 0.9029265000000000 17.9735622799999994 O
atom 0.9029554700000000 3.7390416300000000 17.9735622900000003 O
atom 1.4180235400000001 1.4180575900000001 16.4867811500000023 O
atom 3.2239344399999998 3.2239105299999999 16.4867811500000023 O
atom 2.3209789700000001 6.9629519999999996 15.0000000100000008 Ti
atom 3.7390025400000000 5.5448945299999997 15.0000000100000008 O
atom 0.9029554700000000 8.3810096299999994 15.0000000100000008 O
atom 2.3209789700000001 6.9629519900000014 17.9735622900000003 Ti
atom 9.2839158200000007 4.6419680100000003 16.4867811599999996 Ti
atom 3.7390025400000000 5.5448945299999997 17.9735622799999994 O
atom 0.9029554600000000 8.3810096299999994 17.9735622900000003 O
atom 1.4180235600000000 6.0600256100000003 16.4867811500000023 O
atom 3.2239344600000002 7.8658785299999998 16.4867811500000023 O
atom 6.9629368500000002 2.3209840499999999 15.0000000200000017 Ti
atom 4.6419579100000004 9.2839360499999994 19.4603434100000001 Ti
atom 8.3809604499999999 0.9029265000000000 15.0000000200000017 O
atom 5.5449134100000004 3.7390416399999999 15.0000000100000008 O
atom 6.9629368600000001 2.3209840499999999 17.9735622900000003 Ti
atom 4.6419579000000004 9.2839360400000004 16.4867811400000015 Ti
atom 8.3809604499999999 0.9029265000000000 17.9735622900000003 O
atom 5.5449134100000004 3.7390416399999999 17.9735622900000003 O
atom 6.0599814800000003 1.4180576000000003 16.4867811500000023 O
atom 7.8658923500000002 3.2239105399999999 16.4867811500000023 O
atom 6.9629368700000001 6.9629519999999996 15.0000000200000017 Ti
atom 8.3809604499999999 5.5448945200000015 15.0000000200000017 O
atom 5.5449134100000004 8.3810096400000020 15.0000000000000000 O
atom 6.9629368700000001 6.9629520100000022 17.9735622900000003 Ti
atom 4.6419579100000004 4.6419680100000003 16.4867811500000023 Ti
atom 8.3809604600000007 5.5448945200000015 17.9735622999999975 O
atom 5.5449134000000004 8.3810096400000020 17.9735622799999994 O
atom 6.0599815000000001 6.0600256200000020 16.4867811500000023 O
atom 7.8658923700000010 7.8658785400000006 16.4867811500000023 O
atom 2.3209789600000001 2.3209840399999999 20.9471245600000024 Ti
atom 9.2839158099999999 9.2839360400000004 19.4603434300000018 Ti
atom 3.7390025300000000 0.9029265000000000 20.9471245500000016 O
atom 0.9029554700000000 3.7390416200000001 20.9471245600000024 O
atom 1.4180235400000001 1.4180575900000001 19.4603434200000009 O
atom 3.2239344399999998 3.2239105299999999 19.4603434200000009 O
atom 2.3209789600000001 2.3209840399999999 23.9206868199999967 Ti
atom 9.2839158099999999 9.2839360299999996 22.4339056899999996 Ti
atom 3.7390025300000000 0.9029265000000000 23.9206868199999967 O
atom 0.9029554700000000 3.7390416300000000 23.9206868299999975 O
atom 1.4180235400000001 1.4180575900000001 22.4339056899999996 O
atom 3.2239344399999998 3.2239105299999999 22.4339056899999996 O
atom 2.3209789700000001 6.9629519999999996 20.9471245500000016 Ti
atom 9.2839158200000007 4.6419680000000003 19.4603434300000018 Ti
atom 3.7390025400000000 5.5448945299999997 20.9471245500000016 O
atom 0.9029554700000000 8.3810096299999994 20.9471245500000016 O
atom 1.4180235600000000 6.0600256000000012 19.4603434200000009 O
atom 3.2239344600000002 7.8658785299999998 19.4603434200000009 O
atom 2.3209789700000001 6.9629519900000014 23.9206868299999975 Ti
atom 9.2839158200000007 4.6419680100000003 22.4339057000000004 Ti
atom 3.7390025400000000 5.5448945299999997 23.9206868199999967 O
atom 0.9029554600000000 8.3810096299999994 23.9206868299999975 O
atom 1.4180235600000000 6.0600256100000003 22.4339056899999996 O
atom 3.2239344600000002 7.8658785299999998 22.4339056899999996 O
atom 6.9629368500000002 2.3209840499999999 20.9471245600000024 Ti
atom 4.6419579100000004 9.2839360499999994 25.4074679500000009 Ti
atom 8.3809604499999999 0.9029265000000000 20.9471245600000024 O
atom 5.5449134100000004 3.7390416399999999 20.9471245500000016 O
atom 6.0599814800000003 1.4180576000000003 19.4603434200000009 O
atom 7.8658923500000002 3.2239105299999999 19.4603434200000009 O
atom 6.9629368600000001 2.3209840499999999 23.9206868299999975 Ti
atom 4.6419579000000004 9.2839360400000004 22.4339056799999987 Ti
atom 8.3809604499999999 0.9029265000000000 23.9206868299999975 O
atom 5.5449134100000004 3.7390416399999999 23.9206868299999975 O
atom 6.0599814800000003 1.4180576000000003 22.4339056899999996 O
atom 7.8658923500000002 3.2239105399999999 22.4339056899999996 O
atom 6.9629368700000001 6.9629519999999996 20.9471245600000024 Ti
atom 4.6419579100000004 4.6419680100000003 19.4603434200000009 Ti
atom 8.3809604499999999 5.5448945200000015 20.9471245600000024 O
atom 5.5449134100000004 8.3810096400000020 20.9471245400000008 O
atom 6.0599815000000001 6.0600256200000020 19.4603434200000009 O
atom 7.8658923700000010 7.8658785400000006 19.4603434200000009 O
atom 6.9629368700000001 6.9629520100000022 23.9206868299999975 Ti
atom 4.6419579100000004 4.6419680100000003 22.4339056899999996 Ti
atom 8.3809604600000007 5.5448945200000015 23.9206868399999983 O
atom 5.5449134000000004 8.3810096400000020 23.9206868199999967 O
atom 6.0599815000000001 6.0600256200000020 22.4339056899999996 O
atom 7.8658923700000010 7.8658785400000006 22.4339056899999996 O
atom 2.3209789600000001 2.3209840399999999 26.8942490999999997 Ti
atom 9.2839158099999999 9.2839360400000004 25.4074679699999955 Ti
atom 3.7390025300000000 0.9029265000000000 26.8942490899999989 O
atom 0.9029554700000000 3.7390416200000001 26.8942490999999997 O
atom 1.4180235400000001 1.4180575900000001 25.4074679600000017 O
atom 3.2239344399999998 3.2239105299999999 25.4074679600000017 O
atom 2.3209789600000001 2.3209840399999999 29.8678113600000010 Ti
atom 9.2839158099999999 9.2839360299999996 28.3810302299999968 Ti
atom 3.7390025300000000 0.9029265000000000 29.8678113600000010 O
atom 0.9029554700000000 3.7390416300000000 29.8678113700000019 O
atom 1.4180235400000001 1.4180575900000001 28.3810302299999968 O
atom 3.2239344399999998 3.2239105299999999 28.3810302299999968 O
atom 2.3209789700000001 6.9629519999999996 26.8942490899999989 Ti
atom 9.2839158200000007 4.6419680000000003 25.4074679699999955 Ti
atom 3.7390025400000000 5.5448945299999997 26.8942490899999989 O
atom 0.9029554700000000 8.3810096299999994 26.8942490899999989 O
atom 1.4180235600000000 6.0600256000000012 25.4074679600000017 O
atom 3.2239344600000002 7.8658785299999998 25.4074679600000017 O
atom 2.3209789700000001 6.9629519900000014 29.8678113700000019 Ti
atom 9.2839158200000007 4.6419680100000003 28.3810302399999976 Ti
atom 3.7390025400000000 5.5448945299999997 29.8678113600000010 O
atom 0.9029554600000000 8.3810096299999994 29.8678113700000019 O
atom 1.4180235600000000 6.0600256100000003 28.3810302299999968 O
atom 3.2239344600000002 7.8658785299999998 28.3810302299999968 O
atom 6.9629368500000002 2.3209840499999999 26.8942490999999997 Ti
atom 8.3809604499999999 0.9029265000000000 26.8942490999999997 O
atom 5.5449134100000004 3.7390416399999999 26.8942490899999989 O
atom 6.0599814800000003 1.4180576000000003 25.4074679600000017 O
atom 7.8658923500000002 3.2239105299999999 25.4074679600000017 O
atom 6.9629368600000001 2.3209840499999999 29.8678113700000019 Ti
atom 4.6419579000000004 9.2839360400000004 28.3810302200000031 Ti
atom 8.3809604499999999 0.9029265000000000 29.8678113700000019 O
atom 5.5449134100000004 3.7390416399999999 29.8678113700000019 O
atom 6.0599814800000003 1.4180576000000003 28.3810302299999968 O
atom 7.8658923500000002 3.2239105399999999 28.3810302299999968 O
atom 6.9629368700000001 6.9629519999999996 26.8942490999999997 Ti
atom 4.6419579100000004 4.6419680100000003 25.4074679600000017 Ti
atom 8.3809604499999999 5.5448945200000015 26.8942490999999997 O
atom 5.5449134100000004 8.3810096400000020 26.8942490799999980 O
atom 6.0599815000000001 6.0600256200000020 25.4074679600000017 O
atom 7.8658923700000010 7.8658785400000006 25.4074679600000017 O
atom 6.9629368700000001 6.9629520100000022 29.8678113700000019 Ti
atom 4.6419579100000004 4.6419680100000003 28.3810302299999968 Ti
atom 8.3809604600000007 5.5448945200000015 29.8678113800000027 O
atom 5.5449134000000004 8.3810096400000020 29.8678113600000010 O
atom 6.0599815000000001 6.0600256200000020 28.3810302299999968 O
atom 7.8658923700000010 7.8658785400000006 28.3810302299999968 O
