#===============================================================================
# Created using the Atomic Simulation Environment (ASE)

# Mon Mar 23 14:01:32 2026

#=======================================================
lattice_vector 10.7486859018486420 0.0000000000000000 0.0000000000000000 
lattice_vector -0.0000027099268353 19.4822670799998114 0.0000000000000000 
lattice_vector 0.0000000000000000 0.0000000000000000 32.6871716493723170 
atom 5.3744650386991681 14.6117100031897742 15.0000001633620990 Ti
atom 5.3744653605752601 12.6064267831898018 15.0000001272788026 O
atom 0.0001401652481477 11.7463936922169268 17.6871715351954677 O
atom 0.0001394009996542 17.4769942822168716 17.6871715514174142 O
atom 5.3744647097558111 16.6169612831897417 15.0000000368108459 O
atom 5.3744663547716200 4.8705765631898652 15.0000001386134798 Ti
atom 5.3744665917945191 2.8652936931898845 15.0000000035355185 O
atom 0.0001415096048061 2.0052613822170260 17.6871715387310431 O
atom 0.0001407453566542 7.7358594822169708 17.6871715549529824 O
atom 5.3744660541128102 6.8758274831898447 15.0000000827728144 O
atom 4.0308884918045029 12.1764054802033641 16.3435858047206573 Ti
atom 2.6872955797720341 0.0000105581899182 15.0000001403811751 Ti
atom 1.3437162946662828 17.0469733652033071 16.3435857958819639 Ti
atom 1.3437165953252956 15.0417220152033337 16.3435858941490402 O
atom 4.0308882477105028 14.1816887602033503 16.3435859468697124 O
atom 2.6872939064722536 11.7463937581897966 15.0000000668629028 O
atom 4.0308887641791653 10.1711543802033830 16.3435858888456877 O
atom 2.6872931492948013 17.4769943381897441 15.0000000760137517 O
atom 1.3437160293588848 19.0522564852032836 16.3435858743914828 O
atom 2.6873109119633494 16.6169612172168719 17.6871715617121446 O
atom 4.0308898078767230 2.4352731302034534 16.3435857516877761 Ti
atom 2.6872942071312016 9.7411424981898218 15.0000001509878338 Ti
atom 1.3437176460943063 7.3058387152034037 16.3435857923464454 Ti
atom 1.3437180033217933 5.3005878852034387 16.3435858906133369 O
atom 2.6873128364283385 2.8652935572170093 17.6871714860102678 O
atom 4.0308894506453221 4.4405559002034263 16.3435857807001206 O
atom 2.6872952791130884 2.0052614581898958 15.0000000421141060 O
atom 4.0308901297490101 0.4300220302034803 16.3435858853101195 O
atom 2.6872944936518035 7.7358595581898424 15.0000000795493236 O
atom 1.3437173525025949 9.3111218152033821 16.3435858567139221 O
atom 2.6873123128886705 6.8758273172169773 17.6871715369632518 O
atom 9.4052314073734191 12.1764054702033615 16.3435857835075709 Ti
atom 8.0616385094831262 0.0000105881899150 15.0000001333101807 Ti
atom 6.7180592526616039 17.0469733752033044 16.3435857746687425 Ti
atom 6.7180595957469693 15.0417220652033379 16.3435858587935385 O
atom 8.0616544429958843 12.6064267072169134 17.6871714824747031 O
atom 9.4052310642840933 14.1816887402033327 16.3435858125198692 O
atom 8.0616368715386688 11.7463936981897987 15.0000000527207220 O
atom 9.4052317221745732 10.1711543802033830 16.3435858959167248 O
atom 8.0616360719347515 17.4769943981897384 15.0000000477295714 O
atom 6.7180589519988390 19.0522565052032888 16.3435858461073060 O
atom 8.0616539265271108 16.6169612272168763 17.6871715122144586 O
atom 9.4052327729434584 2.4352731202034614 16.3435858365405409 Ti
atom 8.0616371792686596 9.7411424681898229 15.0000001297745591 Ti
atom 6.7180606111607641 7.3058387152034099 16.3435857923464027 Ti
atom 6.7180609401040234 5.3005878652034362 16.3435859047555105 O
atom 9.4052326137022781 4.4405559102034537 16.3435859645471879 O
atom 8.0616382088242631 2.0052615381898953 15.0000000633273771 O
atom 9.4052330382469691 0.4300220302034776 16.3435858994523926 O
atom 8.0616374587182609 7.7358595081898427 15.0000000795492738 O
atom 6.7180603387822817 9.3111217752033877 16.3435858637848668 O
atom 8.0616552496708938 6.8758273372169727 17.6871715511054326 O
atom 0.0001220453483420 14.6117100031897706 15.0000001350779613 Ti
atom 0.0001222823712993 12.6064267831897840 15.0000000000000000 O
atom 5.3744831091014342 11.7463936222169281 17.6871715422665616 O
atom 5.3744823236396080 17.4769943022168661 17.6871715231332338 O
atom 0.0001217234762984 16.6169613031897399 15.0000000863084288 O
atom 0.0001234533448983 4.8705764831898746 15.0000001739686617 Ti
atom 0.0001237469366158 2.8652936831898987 15.0000001237433196 O
atom 5.3744844746712159 2.0052614522170260 17.6871715245888552 O
atom 5.3744837104231182 7.7358594422169720 17.6871715549529362 O
atom 0.0001231173305313 6.8758274431898450 15.0000000544885026 O
atom 0.0001418173347529 0.0000104822170469 17.6871716157848837 Ti
atom 0.0001404659070968 9.7411424222169529 17.6871716193204058 Ti
atom 2.6873112691908334 14.6117099272169035 17.6871716458368944 Ti
atom 2.6873116052090276 12.6064267172169302 17.6871715956114173 O
atom 2.6873126064764823 4.8705764072170012 17.6871716140171458 Ti
atom 8.0616542201150221 14.6117099272169035 17.6871716034104907 Ti
atom 8.0616556068983805 4.8705764772170026 17.6871716493723206 Ti
atom 8.0616559075611676 2.8652935472170316 17.6871715920758916 O
atom 5.3744847682590278 0.0000105022170479 17.6871716016427563 Ti
atom 5.3744834168314268 9.7411423922169504 17.6871716193204058 Ti
