#===============================================================================
# Created using the Atomic Simulation Environment (ASE)

# Mon Mar 23 14:01:32 2026

#=======================================================
lattice_vector 10.7486859018486420 0.0000000000000000 0.0000000000000000 
lattice_vector -0.0000027099268353 19.4822670799998114 0.0000000000000000 
lattice_vector 0.0000000000000000 0.0000000000000000 43.4358575509869738 
atom 5.3743941300311064 14.6117103070812515 15.0000001633620954 Ti
atom 5.3743944519071993 12.6064270870812791 15.0000001272787991 O
atom 0.0000692565800882 11.7463939961084023 17.6871715351954713 O
atom 0.0000684923315971 17.4769945861083471 17.6871715514174142 O
atom 5.3743938010877397 16.6169615870812208 15.0000000368108424 O
atom 5.3743954461035583 4.8705768670813416 15.0000001386134869 Ti
atom 5.3743956831264645 2.8652939970813609 15.0000000035355221 O
atom 0.0000706009367490 2.0052616861085024 17.6871715387310431 O
atom 0.0000698366885947 7.7358597861084482 17.6871715549529824 O
atom 5.3743951454447432 6.8758277870813211 15.0000000827728179 O
atom 4.0308175831364537 12.1764057840948396 16.3435858047206608 Ti
atom 2.6872246711039747 0.0000108620813948 15.0000001403811751 Ti
atom 1.3436453859982234 17.0469736690947826 16.3435857958819710 Ti
atom 1.3436456866572315 15.0417223190948093 16.3435858941490437 O
atom 4.0308173390424384 14.1816890640948259 16.3435859468697160 O
atom 2.6872229978041897 11.7463940620812739 15.0000000668629028 O
atom 4.0308178555111027 10.1711546840948586 16.3435858888456877 O
atom 2.6872222406267467 17.4769946420812197 15.0000000760137482 O
atom 1.3436451206908253 19.0522567890947592 16.3435858743914864 O
atom 2.6872400032952828 16.6169615211083475 17.6871715617121446 O
atom 4.0308188992086578 2.4352734340949298 16.3435857516877796 Ti
atom 2.6872232984631421 9.7411428020812973 15.0000001509878373 Ti
atom 1.3436467374262493 7.3058390190948801 16.3435857923464489 Ti
atom 1.3436470946537269 5.3005881890949142 16.3435858906133333 O
atom 2.6872419277602790 2.8652938611084862 17.6871714860102749 O
atom 4.0308185419772604 4.4405562040949036 16.3435857807001206 O
atom 2.6872243704450289 2.0052617620813722 15.0000000421141024 O
atom 4.0308192210809510 0.4300223340949569 16.3435858853101195 O
atom 2.6872235849837418 7.7358598620813188 15.0000000795493165 O
atom 1.3436464438345306 9.3111221190948594 16.3435858567139221 O
atom 2.6872414042206088 6.8758276211084546 17.6871715369632554 O
atom 9.4051604987053619 12.1764057740948370 16.3435857835075709 Ti
atom 8.0615676008150619 0.0000108920813916 15.0000001333101807 Ti
atom 6.7179883439935475 17.0469736790947834 16.3435857746687425 Ti
atom 6.7179886870789067 15.0417223690948152 16.3435858587935385 O
atom 8.0615835343278270 12.6064270111083907 17.6871714824747031 O
atom 9.4051601556160342 14.1816890440948100 16.3435858125198692 O
atom 8.0615659628706098 11.7463940020812760 15.0000000527207185 O
atom 9.4051608135065194 10.1711546840948621 16.3435858959167319 O
atom 8.0615651632666925 17.4769947020812140 15.0000000477295714 O
atom 6.7179880433307773 19.0522568090947644 16.3435858461073096 O
atom 8.0615830178590464 16.6169615311083518 17.6871715122144622 O
atom 9.4051618642753976 2.4352734240949383 16.3435858365405444 Ti
atom 8.0615662706005971 9.7411427720813002 15.0000001297745627 Ti
atom 6.7179897024927051 7.3058390190948854 16.3435857923464027 Ti
atom 6.7179900314359635 5.3005881690949144 16.3435859047555176 O
atom 9.4051617050342209 4.4405562140949302 16.3435859645471879 O
atom 8.0615673001562040 2.0052618420813717 15.0000000633273771 O
atom 9.4051621295789118 0.4300223340949542 16.3435858994523926 O
atom 8.0615665500502036 7.7358598120813191 15.0000000795492738 O
atom 6.7179894301142253 9.3111220790948632 16.3435858637848739 O
atom 8.0615843410028383 6.8758276411084491 17.6871715511054362 O
atom 0.0000511366802826 14.6117103070812480 15.0000001350779613 Ti
atom 0.0000513737032398 12.6064270870812614 15.0000000000000000 O
atom 5.3744122004333716 11.7463939261084054 17.6871715422665616 O
atom 5.3744114149715516 17.4769946061083417 17.6871715231332338 O
atom 0.0000508148082437 16.6169616070812154 15.0000000863084324 O
atom 0.0000525446768364 4.8705767870813519 15.0000001739686653 Ti
atom 0.0000528382685564 2.8652939870813747 15.0000001237433231 O
atom 5.3744135660031498 2.0052617561085024 17.6871715245888552 O
atom 5.3744128017550628 7.7358597461084502 17.6871715549529362 O
atom 0.0000522086624719 6.8758277470813214 15.0000000544884990 O
atom 0.0000866334408202 14.6117101551355102 20.3743431141694202 Ti
atom 1.3436638348413057 12.1764056981219699 19.0307572801243197 Ti
atom 0.0000709086666935 0.0000107861085235 17.6871716157848873 Ti
atom 9.4051775536938163 17.0469735831219147 19.0307572571434491 Ti
atom 9.4051778897080904 15.0417222331219449 19.0307573341972045 O
atom 0.0000869553169076 12.6064269351355396 20.3743430780861203 O
atom 1.3436635907472971 14.1816889681219553 19.0307574222733784 O
atom 5.3744476618384365 11.7463938441626663 23.0615144860027996 O
atom 1.3436641213580516 10.1711545981219942 19.0307573501071730 O
atom 5.3744468975899471 17.4769944341626129 23.0615145022247390 O
atom 9.4051772813154138 19.0522567031218983 19.0307573568661894 O
atom 0.0000863044974532 16.6169614351354831 20.3743429876181672 O
atom 0.0000879495132669 4.8705767151356039 20.3743430894208117 Ti
atom 1.3436651367714261 2.4352733481220601 19.0307572412336228 Ti
atom 0.0000695572390373 9.7411427261084285 17.6871716193204094 Ti
atom 9.4051789121930174 7.3058389731220164 19.0307572889632439 Ti
atom 9.4051792199229478 5.3005881731220406 19.0307573660170881 O
atom 0.0000881865361755 2.8652938451356227 20.3743429543428505 O
atom 1.3436647795400234 4.4405561381220293 19.0307572702459638 O
atom 5.3744490061950998 2.0052615341627642 23.0615144895383644 O
atom 1.3436654586436683 0.4300222681220879 19.0307573607138316 O
atom 5.3744482419469453 7.7358596341627095 23.0615145057603073 O
atom 9.4051786256723453 9.3111220531219949 19.0307573462596267 O
atom 0.0000876488544572 6.8758276351355825 20.3743430335801463 O
atom 2.6872403605227810 14.6117102311083791 17.6871716458368979 Ti
atom 9.4051959883947962 12.1764056321491001 21.7179287555279856 Ti
atom 8.0616030763623225 0.0000107101356565 20.3743430911885035 Ti
atom 6.7180237912565719 17.0469735171490484 21.7179287466892958 Ti
atom 6.7180240919155798 15.0417221671490715 21.7179288449563686 O
atom 2.6872406965409632 12.6064270211084057 17.6871715956114173 O
atom 9.4051957443007925 14.1816889121490881 21.7179288976770408 O
atom 8.0616014030625411 11.7463939101355344 20.3743430176702276 O
atom 9.4051962607694541 10.1711545321491226 21.7179288396530161 O
atom 8.0616006458850986 17.4769944901354819 20.3743430268210730 O
atom 6.7180235259491763 19.0522566371490250 21.7179288251988112 O
atom 8.0616184085536311 16.6169613691626097 23.0615145125194658 O
atom 2.6872416978084201 4.8705767111084768 17.6871716140171529 Ti
atom 9.4051973044670110 2.4352732821491916 21.7179287024951044 Ti
atom 8.0616017037214878 9.7411426501355596 20.3743431017951622 Ti
atom 6.7180251426845983 7.3058388671491414 21.7179287431537702 Ti
atom 6.7180254999120823 5.3005880371491765 21.7179288414206617 O
atom 8.0616203330186291 2.8652937091627475 23.0615144368175962 O
atom 9.4051969472356056 4.4405560521491649 21.7179287315074490 O
atom 8.0616027757033812 2.0052616101356340 20.3743429929214273 O
atom 9.4051976263393016 0.4300221821492186 21.7179288361174478 O
atom 8.0616019902420923 7.7358597101355802 20.3743430303566413 O
atom 6.7180248490928811 9.3111219671491199 21.7179288075212469 O
atom 8.0616198094789571 6.8758274691627150 23.0615144877705802 O
atom 8.0615833114469648 14.6117102311083826 17.6871716034104907 Ti
atom 4.0308530021150712 12.1764056221491010 21.7179287343148957 Ti
atom 2.6872601042247735 0.0000107401356533 20.3743430841175055 Ti
atom 1.3436808474032558 17.0469735271490457 21.7179287254760673 Ti
atom 1.3436811904886155 15.0417222171490774 21.7179288096008669 O
atom 2.6872760377375311 12.6064268591626512 23.0615144332820314 O
atom 4.0308526590257454 14.1816888921490705 21.7179287633271940 O
atom 2.6872584662803169 11.7463938501355365 20.3743430035280468 O
atom 4.0308533169162200 10.1711545321491226 21.7179288467240568 O
atom 2.6872576666764041 17.4769945501354762 20.3743429985368962 O
atom 1.3436805467404906 19.0522566571490302 21.7179287969146380 O
atom 2.6872755212687589 16.6169613791626176 23.0615144630217834 O
atom 8.0615846982303268 4.8705767811084790 17.6871716493723241 Ti
atom 4.0308543676851043 2.4352732721491996 21.7179287873478728 Ti
atom 2.6872587740103118 9.7411426201355624 20.3743430805818910 Ti
atom 1.3436822059024109 7.3058388671491468 21.7179287431537240 Ti
atom 1.3436825348456751 5.3005880171491748 21.7179288555628425 O
atom 8.0615849988931121 2.8652938511085080 17.6871715920758987 O
atom 4.0308542084439312 4.4405560621491915 21.7179289153545128 O
atom 2.6872598035659143 2.0052616901356335 20.3743430141347019 O
atom 4.0308546329886150 0.4300221821492159 21.7179288502597210 O
atom 2.6872590534599126 7.7358596601355805 20.3743430303565987 O
atom 1.3436819335239338 9.3111219271491255 21.7179288145921987 O
atom 2.6872768444125512 6.8758274891627114 23.0615145019127574 O
atom 5.3744295419386363 14.6117101551355084 20.3743430858852896 Ti
atom 6.7180067504101677 12.1764056981219646 19.0307572447690987 Ti
atom 5.3744138595909616 0.0000108061085245 17.6871716016427527 Ti
atom 4.0308345744852154 17.0469736131219136 19.0307572571435450 Ti
atom 4.0308348892863988 15.0417223031219400 19.0307573695527097 O
atom 5.3744297789615905 12.6064269351355218 20.3743429508073248 O
atom 6.7180064073208872 14.1816889881219375 19.0307572879235352 O
atom 0.0001047038430856 11.7463937741626676 23.0615144930738900 O
atom 6.7180070722823686 10.1711546081219915 19.0307573501071694 O
atom 0.0001039183812601 17.4769944541626074 23.0615144739405622 O
atom 4.0308343091778136 19.0522567431218945 19.0307573356530568 O
atom 5.3744292200665900 16.6169614551354812 20.3743430371157643 O
atom 5.3744309499351868 4.8705766351356132 20.3743431247759901 Ti
atom 6.7180081654775128 2.4352733481220730 19.0307572483044325 Ti
atom 5.3744125081633625 9.7411426961084242 17.6871716193204094 Ti
atom 4.0308359612686555 7.3058389031220159 19.0307572748211058 Ti
atom 4.0308362760696390 5.3005880431220387 19.0307573448038667 O
atom 5.3744312435269066 2.8652938351356365 20.3743430745506515 O
atom 6.7180079355259430 4.4405561281220578 19.0307574611641215 O
atom 0.0001060694128579 2.0052616041627642 23.0615144753961800 O
atom 6.7180084378521698 0.4300222481220924 19.0307573324294665 O
atom 0.0001053051647690 7.7358595941627106 23.0615145057602646 O
atom 4.0308356888902139 9.3111220031219943 19.0307573604017151 O
atom 5.3744306139208211 6.8758275951355827 20.3743430052958274 O
atom 5.3744650386991681 14.6117100031897742 25.7486860649767522 Ti
atom 6.7180422400996562 12.1764055461762304 24.4051002309316480 Ti
atom 5.3744493139250418 0.0000106341627852 23.0615145665922121 Ti
atom 4.0308700571035221 17.0469734311761734 24.4051002079507739 Ti
atom 4.0308703931177998 15.0417220811762054 24.4051002850045293 O
atom 5.3744653605752601 12.6064267831898018 25.7486860288934558 O
atom 6.7180419960056552 14.1816888161762158 24.4051003730807068 O
atom 0.0001401652481477 11.7463936922169268 28.4358574368101209 O
atom 6.7180425266163990 10.1711544461762546 24.4051003009144942 O
atom 0.0001394009996542 17.4769942822168716 28.4358574530320674 O
atom 4.0308697847251276 19.0522565511761570 24.4051003076735213 O
atom 5.3744647097558111 16.6169612831897417 25.7486859384254991 O
atom 5.3744663547716200 4.8705765631898652 25.7486860402281330 Ti
atom 6.7180435420297719 2.4352731961763219 24.4051001920409476 Ti
atom 5.3744479624973849 9.7411425741626907 23.0615145701277342 Ti
atom 4.0308714156027285 7.3058388211762777 24.4051002397705723 Ti
atom 4.0308717233326510 5.3005880211763028 24.4051003168244129 O
atom 5.3744665917945191 2.8652936931898845 25.7486859051501717 O
atom 6.7180431847983764 4.4405559861762915 24.4051002210532957 O
atom 0.0001415096048061 2.0052613822170260 28.4358574403456963 O
atom 6.7180438639020217 0.4300221161763496 24.4051003115211564 O
atom 0.0001407453566542 7.7358594822169708 28.4358574565676356 O
atom 4.0308711290820547 9.3111219011762572 24.4051002970669551 O
atom 5.3744660541128102 6.8758274831898447 25.7486859843874676 O
atom 8.0616187657811302 14.6117100791626395 23.0615145966442228 Ti
atom 4.0308884918045029 12.1764054802033641 27.0922717063353105 Ti
atom 2.6872955797720341 0.0000105581899182 25.7486860419958283 Ti
atom 1.3437162946662828 17.0469733652033071 27.0922716974966171 Ti
atom 1.3437165953252956 15.0417220152033337 27.0922717957636934 O
atom 8.0616191017993160 12.6064268691626680 23.0615145464187421 O
atom 4.0308882477105028 14.1816887602033503 27.0922718484843656 O
atom 2.6872939064722536 11.7463937581897966 25.7486859684775560 O
atom 4.0308887641791653 10.1711543802033830 27.0922717904603410 O
atom 2.6872931492948013 17.4769943381897441 25.7486859776284049 O
atom 1.3437160293588848 19.0522564852032836 27.0922717760061360 O
atom 2.6873109119633494 16.6169612172168719 28.4358574633267978 O
atom 8.0616201030667654 4.8705765591627381 23.0615145648244741 Ti
atom 4.0308898078767230 2.4352731302034534 27.0922716533024293 Ti
atom 2.6872942071312016 9.7411424981898218 25.7486860526024870 Ti
atom 1.3437176460943063 7.3058387152034037 27.0922716939610986 Ti
atom 1.3437180033217933 5.3005878852034387 27.0922717922279901 O
atom 2.6873128364283385 2.8652935572170093 28.4358573876249210 O
atom 4.0308894506453221 4.4405559002034263 27.0922716823147738 O
atom 2.6872952791130884 2.0052614581898958 25.7486859437287592 O
atom 4.0308901297490101 0.4300220302034803 27.0922717869247727 O
atom 2.6872944936518035 7.7358595581898424 25.7486859811639768 O
atom 1.3437173525025949 9.3111218152033821 27.0922717583285753 O
atom 2.6873123128886705 6.8758273172169773 28.4358574385779050 O
atom 2.6872758148566724 14.6117100791626431 23.0615145542178190 Ti
atom 9.4052314073734191 12.1764054702033615 27.0922716851222241 Ti
atom 8.0616385094831262 0.0000105881899150 25.7486860349248339 Ti
atom 6.7180592526616039 17.0469733752033044 27.0922716762833957 Ti
atom 6.7180595957469693 15.0417220652033379 27.0922717604081917 O
atom 8.0616544429958843 12.6064267072169134 28.4358573840893563 O
atom 9.4052310642840933 14.1816887402033327 27.0922717141345224 O
atom 8.0616368715386688 11.7463936981897987 25.7486859543353752 O
atom 9.4052317221745732 10.1711543802033830 27.0922717975313780 O
atom 8.0616360719347515 17.4769943981897384 25.7486859493442246 O
atom 6.7180589519988390 19.0522565052032888 27.0922717477219592 O
atom 8.0616539265271108 16.6169612272168763 28.4358574138291118 O
atom 2.6872772016400330 4.8705766291627413 23.0615146001796489 Ti
atom 9.4052327729434584 2.4352731202034614 27.0922717381551941 Ti
atom 8.0616371792686596 9.7411424681898229 25.7486860313892123 Ti
atom 6.7180606111607641 7.3058387152034099 27.0922716939610559 Ti
atom 6.7180609401040234 5.3005878652034362 27.0922718063701637 O
atom 2.6872775023028130 2.8652936991627698 23.0615145428832200 O
atom 9.4052326137022781 4.4405559102034537 27.0922718661618411 O
atom 8.0616382088242631 2.0052615381898953 25.7486859649420303 O
atom 9.4052330382469691 0.4300220302034776 27.0922718010670458 O
atom 8.0616374587182609 7.7358595081898427 25.7486859811639270 O
atom 6.7180603387822817 9.3111217752033877 27.0922717653995200 O
atom 8.0616552496708938 6.8758273372169727 28.4358574527200858 O
atom 0.0001220453483420 14.6117100031897706 25.7486860366926145 Ti
atom 1.3436992538198818 12.1764055461762268 24.4051001955764235 Ti
atom 0.0001063630006751 0.0000106541627862 23.0615145524500811 Ti
atom 9.4052129797435633 17.0469734611761723 24.4051002079508699 Ti
atom 9.4052132945447493 15.0417221511762005 24.4051003203600345 O
atom 0.0001222823712993 12.6064267831897840 25.7486859016146532 O
atom 1.3436989107305937 14.1816888361761979 24.4051002387308635 O
atom 5.3744831091014342 11.7463936222169281 28.4358574438812148 O
atom 1.3436995756920775 10.1711544561762519 24.4051003009144978 O
atom 5.3744823236396080 17.4769943022168661 28.4358574247478870 O
atom 9.4052127144361659 19.0522565911761532 24.4051002864603817 O
atom 0.0001217234762984 16.6169613031897399 25.7486859879230821 O
atom 0.0001234533448983 4.8705764831898746 25.7486860755833149 Ti
atom 1.3437006688872242 2.4352731961763348 24.4051001991117609 Ti
atom 0.0001050115730784 9.7411425441626864 23.0615145701277342 Ti
atom 9.4052143665270087 7.3058387511762772 24.4051002256284342 Ti
atom 9.4052146813279922 5.3005878911763009 24.4051002956111880 O
atom 0.0001237469366158 2.8652936831898987 25.7486860253579728 O
atom 1.3437004389356542 4.4405559761763200 24.4051004119714499 O
atom 5.3744844746712159 2.0052614522170260 28.4358574262035084 O
atom 1.3437009412618761 0.4300220961763542 24.4051002832367914 O
atom 5.3744837104231182 7.7358594422169720 28.4358574565675895 O
atom 9.4052140941485654 9.3111218511762566 24.4051003112090399 O
atom 0.0001231173305313 6.8758274431898450 25.7486859561031558 O
atom 0.0001418173347529 0.0000104822170469 28.4358575173995369 Ti
atom 0.0001404659070968 9.7411424222169529 28.4358575209350590 Ti
atom 2.6873112691908334 14.6117099272169035 28.4358575474515476 Ti
atom 2.6873116052090276 12.6064267172169302 28.4358574972260705 O
atom 2.6873126064764823 4.8705764072170012 28.4358575156317990 Ti
atom 8.0616542201150221 14.6117099272169035 28.4358575050251439 Ti
atom 8.0616556068983805 4.8705764772170026 28.4358575509869738 Ti
atom 8.0616559075611676 2.8652935472170316 28.4358574936905448 O
atom 5.3744847682590278 0.0000105022170479 28.4358575032574095 Ti
atom 5.3744834168314268 9.7411423922169504 28.4358575209350590 Ti
