#===============================================================================
# Created using the Atomic Simulation Environment (ASE)

# Mon Mar 23 14:01:35 2026

#=======================================================
lattice_vector 9.2839361000000000 0.0000000000000000 0.0000000000000000 
lattice_vector 0.0000000000000000 5.9471245399999999 0.0000000000000000 
lattice_vector 0.0000000000000000 0.0000000000000000 31.8059109200000023 
atom 2.3209840400000008 1.4867811399999995 15.9029554199999978 Ti
atom 1.4180575900000001 0.0000000000000000 15.0000000000000000 O
atom 3.2239105299999999 0.0000000000000000 16.8059109000000007 O
atom 2.3209840400000008 4.4603433999999993 15.9029554199999978 Ti
atom 1.4180575900000001 2.9735622699999991 15.0000000000000000 O
atom 3.2239105299999999 2.9735622699999991 16.8059109000000007 O
atom 6.9629519999999996 1.4867811300000000 15.9029554299999987 Ti
atom 6.0600256000000012 0.0000000000000000 15.0000000200000017 O
atom 7.8658785300000016 0.0000000000000000 16.8059109200000023 O
atom 6.9629519900000014 4.4603434099999992 15.9029554299999987 Ti
atom 6.0600256100000003 2.9735622699999991 15.0000000200000017 O
atom 7.8658785300000016 2.9735622699999991 16.8059109200000023 O
