#===============================================================================
# Created using the Atomic Simulation Environment (ASE)

# Mon Mar 23 14:01:32 2026

#=======================================================
lattice_vector 10.7486859018486420 0.0000000000000000 0.0000000000000000 
lattice_vector -0.0000027099268353 19.4822670799998114 0.0000000000000000 
lattice_vector 0.0000000000000000 0.0000000000000000 35.3743431177049388 
atom 5.3744476618384365 11.7463938441626663 15.0000000527207682 O
atom 5.3744468975899471 17.4769944341626129 15.0000000689427075 O
atom 5.3744490061950998 2.0052615341627642 15.0000000562563329 O
atom 5.3744482419469453 7.7358596341627095 15.0000000724782758 O
atom 8.0616184085536311 16.6169613691626097 15.0000000792374344 O
atom 8.0616203330186291 2.8652937091627475 15.0000000035355647 O
atom 8.0616198094789571 6.8758274691627150 15.0000000544885488 O
atom 2.6872760377375311 12.6064268591626512 15.0000000000000000 O
atom 2.6872755212687589 16.6169613791626176 15.0000000297397520 O
atom 2.6872768444125512 6.8758274891627114 15.0000000686307260 O
atom 0.0001047038430856 11.7463937741626676 15.0000000597918586 O
atom 0.0001039183812601 17.4769944541626074 15.0000000406585308 O
atom 0.0001060694128579 2.0052616041627642 15.0000000421141486 O
atom 0.0001053051647690 7.7358595941627106 15.0000000724782332 O
atom 5.3744650386991681 14.6117100031897742 17.6871716316947207 Ti
atom 6.7180422400996562 12.1764055461762304 16.3435857976496166 Ti
atom 5.3744493139250418 0.0000106341627852 15.0000001333101807 Ti
atom 4.0308700571035221 17.0469734311761734 16.3435857746687425 Ti
atom 4.0308703931177998 15.0417220811762054 16.3435858517224979 O
atom 5.3744653605752601 12.6064267831898018 17.6871715956114244 O
atom 6.7180419960056552 14.1816888161762158 16.3435859397986754 O
atom 0.0001401652481477 11.7463936922169268 20.3743430035280895 O
atom 6.7180425266163990 10.1711544461762546 16.3435858676324628 O
atom 0.0001394009996542 17.4769942822168716 20.3743430197500359 O
atom 4.0308697847251276 19.0522565511761570 16.3435858743914899 O
atom 5.3744647097558111 16.6169612831897417 17.6871715051434677 O
atom 5.3744663547716200 4.8705765631898652 17.6871716069461016 Ti
atom 6.7180435420297719 2.4352731961763219 16.3435857587589162 Ti
atom 5.3744479624973849 9.7411425741626907 15.0000001368457028 Ti
atom 4.0308714156027285 7.3058388211762777 16.3435858064885409 Ti
atom 4.0308717233326510 5.3005880211763028 16.3435858835423815 O
atom 5.3744665917945191 2.8652936931898845 17.6871714718681403 O
atom 6.7180431847983764 4.4405559861762915 16.3435857877712643 O
atom 0.0001415096048061 2.0052613822170260 20.3743430070636649 O
atom 6.7180438639020217 0.4300221161763496 16.3435858782391250 O
atom 0.0001407453566542 7.7358594822169708 20.3743430232856042 O
atom 4.0308711290820547 9.3111219011762572 16.3435858637849236 O
atom 5.3744660541128102 6.8758274831898447 17.6871715511054362 O
atom 8.0616187657811302 14.6117100791626395 15.0000001633621913 Ti
atom 4.0308884918045029 12.1764054802033641 19.0307572730532790 Ti
atom 2.6872955797720341 0.0000105581899182 17.6871716087137969 Ti
atom 1.3437162946662828 17.0469733652033071 19.0307572642145857 Ti
atom 1.3437165953252956 15.0417220152033337 19.0307573624816619 O
atom 8.0616191017993160 12.6064268691626680 15.0000001131367107 O
atom 4.0308882477105028 14.1816887602033503 19.0307574152023342 O
atom 2.6872939064722536 11.7463937581897966 17.6871715351955245 O
atom 4.0308887641791653 10.1711543802033830 19.0307573571783095 O
atom 2.6872931492948013 17.4769943381897441 17.6871715443463735 O
atom 1.3437160293588848 19.0522564852032836 19.0307573427241046 O
atom 2.6873109119633494 16.6169612172168719 20.3743430300447663 O
atom 8.0616201030667654 4.8705765591627381 15.0000001315424427 Ti
atom 4.0308898078767230 2.4352731302034534 19.0307572200203978 Ti
atom 2.6872942071312016 9.7411424981898218 17.6871716193204556 Ti
atom 1.3437176460943063 7.3058387152034037 19.0307572606790671 Ti
atom 1.3437180033217933 5.3005878852034387 19.0307573589459587 O
atom 2.6873128364283385 2.8652935572170093 20.3743429543428896 O
atom 4.0308894506453221 4.4405559002034263 19.0307572490327424 O
atom 2.6872952791130884 2.0052614581898958 17.6871715104467278 O
atom 4.0308901297490101 0.4300220302034803 19.0307573536427412 O
atom 2.6872944936518035 7.7358595581898424 17.6871715478819453 O
atom 1.3437173525025949 9.3111218152033821 19.0307573250465438 O
atom 2.6873123128886705 6.8758273172169773 20.3743430052958736 O
atom 2.6872758148566724 14.6117100791626431 15.0000001209357876 Ti
atom 9.4052314073734191 12.1764054702033615 19.0307572518401926 Ti
atom 8.0616385094831262 0.0000105881899150 17.6871716016428024 Ti
atom 6.7180592526616039 17.0469733752033044 19.0307572430013643 Ti
atom 6.7180595957469693 15.0417220652033379 19.0307573271261603 O
atom 8.0616544429958843 12.6064267072169134 20.3743429508073248 O
atom 9.4052310642840933 14.1816887402033327 19.0307572808524910 O
atom 8.0616368715386688 11.7463936981897987 17.6871715210533438 O
atom 9.4052317221745732 10.1711543802033830 19.0307573642493466 O
atom 8.0616360719347515 17.4769943981897384 17.6871715160621932 O
atom 6.7180589519988390 19.0522565052032888 19.0307573144399278 O
atom 8.0616539265271108 16.6169612272168763 20.3743429805470804 O
atom 2.6872772016400330 4.8705766291627413 15.0000001668976175 Ti
atom 9.4052327729434584 2.4352731202034614 19.0307573048731626 Ti
atom 8.0616371792686596 9.7411424681898229 17.6871715981071809 Ti
atom 6.7180606111607641 7.3058387152034099 19.0307572606790245 Ti
atom 6.7180609401040234 5.3005878652034362 19.0307573730881323 O
atom 2.6872775023028130 2.8652936991627698 15.0000001096011886 O
atom 9.4052326137022781 4.4405559102034537 19.0307574328798097 O
atom 8.0616382088242631 2.0052615381898953 17.6871715316599989 O
atom 9.4052330382469691 0.4300220302034776 19.0307573677850144 O
atom 8.0616374587182609 7.7358595081898427 17.6871715478818956 O
atom 6.7180603387822817 9.3111217752033877 19.0307573321174885 O
atom 8.0616552496708938 6.8758273372169727 20.3743430194380544 O
atom 0.0001220453483420 14.6117100031897706 17.6871716034105830 Ti
atom 1.3436992538198818 12.1764055461762268 16.3435857622943921 Ti
atom 0.0001063630006751 0.0000106541627862 15.0000001191680497 Ti
atom 9.4052129797435633 17.0469734611761723 16.3435857746688384 Ti
atom 9.4052132945447493 15.0417221511762005 16.3435858870780031 O
atom 0.0001222823712993 12.6064267831897840 17.6871714683326218 O
atom 1.3436989107305937 14.1816888361761979 16.3435858054488321 O
atom 5.3744831091014342 11.7463936222169281 20.3743430105991834 O
atom 1.3436995756920775 10.1711544561762519 16.3435858676324663 O
atom 5.3744823236396080 17.4769943022168661 20.3743429914658556 O
atom 9.4052127144361659 19.0522565911761532 16.3435858531783502 O
atom 0.0001217234762984 16.6169613031897399 17.6871715546410506 O
atom 0.0001234533448983 4.8705764831898746 17.6871716423012835 Ti
atom 1.3437006688872242 2.4352731961763348 16.3435857658297294 Ti
atom 0.0001050115730784 9.7411425441626864 15.0000001368457028 Ti
atom 9.4052143665270087 7.3058387511762772 16.3435857923464027 Ti
atom 9.4052146813279922 5.3005878911763009 16.3435858623291566 O
atom 0.0001237469366158 2.8652936831898987 17.6871715920759414 O
atom 1.3437004389356542 4.4405559761763200 16.3435859786894184 O
atom 5.3744844746712159 2.0052614522170260 20.3743429929214770 O
atom 1.3437009412618761 0.4300220961763542 16.3435858499547599 O
atom 5.3744837104231182 7.7358594422169720 20.3743430232855580 O
atom 9.4052140941485654 9.3111218511762566 16.3435858779270085 O
atom 0.0001231173305313 6.8758274431898450 17.6871715228211244 O
atom 0.0001418173347529 0.0000104822170469 20.3743430841175055 Ti
atom 0.0001404659070968 9.7411424222169529 20.3743430876530276 Ti
atom 2.6873112691908334 14.6117099272169035 20.3743431141695162 Ti
atom 2.6873116052090276 12.6064267172169302 20.3743430639440390 O
atom 2.6873126064764823 4.8705764072170012 20.3743430823497675 Ti
atom 8.0616542201150221 14.6117099272169035 20.3743430717431124 Ti
atom 8.0616556068983805 4.8705764772170026 20.3743431177049423 Ti
atom 8.0616559075611676 2.8652935472170316 20.3743430604085134 O
atom 5.3744847682590278 0.0000105022170479 20.3743430699753780 Ti
atom 5.3744834168314268 9.7411423922169504 20.3743430876530276 Ti
