#===============================================================================
# Created using the Atomic Simulation Environment (ASE)

# Mon Mar 23 14:01:33 2026

#=======================================================
lattice_vector 11.0253972427838800 0.0000000000000000 0.0000000000000000 
lattice_vector 3.2078926060844428 10.5484209638685815 0.0000000000000000 
lattice_vector 0.0000000000000000 0.0000000000000000 38.5704016450719891 
atom 7.8175045723620435 5.7936400136093091 15.8573266378580726 Ti
atom 10.6154951062533218 7.8672820065371649 15.0000000094947907 O
atom 9.0115488200520630 2.5930714842763232 15.0000000000000000 O
atom 6.2135582777403062 0.5194295467167691 15.8573266521003049 Ti
atom 5.1027964848613854 7.8672820153384198 15.0000000142422039 O
atom 2.3048059870195985 5.7936400139221131 15.8573266372781596 Ti
atom 0.7008596870038317 0.5194295430320269 15.8573266589314770 Ti
atom 3.4988501986601213 2.5930715018788364 15.0000000094948120 O
atom 8.9699076332356995 6.6477024654527535 19.1629239352185401 Ti
atom 4.6096119662776065 3.4162495579195462 20.2647896204926639 Ti
atom 10.1639518304028247 5.0365114504508854 19.1629092670523917 O
atom 7.7758635088264505 8.2588934991710961 19.1629386529425858 O
atom 9.0115488032111006 6.6785867786922823 17.2037315008120899 O
atom 10.5322128222194316 7.8055134038961036 18.9183849183707551 O
atom 10.5738539416719384 7.8363976972951805 16.9591924364901629 Ti
atom 6.2135582747138471 4.6049447809607154 18.0610581170168807 Ti
atom 11.7678981334450441 6.2252066782957662 16.9591777757350926 O
atom 9.3798098118686699 9.4475887358172326 16.9592071663726962 O
atom 7.4076025001688803 5.4898915508474024 19.4074629921293820 O
atom 12.1361591252616527 8.9942086317409853 16.7146534270534595 O
atom 8.9699076470501975 2.5621871335888176 16.9591923985109112 Ti
atom 7.8175045807825327 9.8791552739392117 18.0610581386701945 Ti
atom 10.1639518388233032 0.9509961761982004 16.9591777709876936 O
atom 7.7758635142204726 4.1733782138742050 16.9592071352245739 O
atom 5.8036562139676242 0.2156810285865595 19.4074629826345912 O
atom 10.5322128390603922 3.7199981006788865 16.7146534128112556 O
atom 7.3659613386139577 1.3734918929451347 19.1629238924918752 Ti
atom 6.2135582777403080 8.6904600548955866 20.2647896347348961 Ti
atom 11.7678981418655333 10.3107219122219007 19.1629092623049928 O
atom 6.1719171973637490 2.9846829845925402 19.1629386292055344 O
atom 7.4076025170098454 1.4043762652326974 17.2037314960646981 O
atom 8.9282665360181710 2.5313028728340052 18.9183849041285512 O
atom 5.0611552727835676 7.8363977149027058 16.9591924249115635 Ti
atom 11.7262569351817341 4.6049447923177249 18.0610581380902815 Ti
atom 6.2551994898181231 6.2252066794197463 16.9591777736513407 O
atom 3.8671111958707560 9.4475887486160364 16.9592071637090207 O
atom 1.8949038787769446 5.4898915596486582 19.4074629968767951 O
atom 6.6234604786082674 8.9942086394232721 16.7146534128112023 O
atom 3.4572089781618298 6.6477024844970600 19.1629239209762758 Ti
atom 10.1223106237190379 3.4162495582323520 20.2647896199127473 Ti
atom 4.6512531867758966 5.0365114515748646 19.1629092649686363 O
atom 13.2885621302183914 8.2588935167736075 19.1629386624373979 O
atom 3.4988501818191606 6.6785867874935390 17.2037315055594959 O
atom 5.0195141755660471 7.8055134203796488 18.9183849088759075 O
atom 1.8532626835400940 1.3734919119894409 19.1629238782496145 Ti
atom 11.7262569297877164 8.6904600512108452 20.2647896415660682 Ti
atom 6.2551994898181178 10.3107219071053855 19.1629092507264147 O
atom 11.6846158379642127 2.9846829988281294 19.1629386238781976 O
atom 1.8949038956179007 1.4043762740339552 17.2037315008121077 O
atom 3.4155678893647914 2.5313028893175504 18.9183848946337037 O
atom 3.4572089865823155 2.5621871486355805 16.9591923916797285 Ti
atom 13.3302032328299358 9.8791552790557269 18.0610581502487690 Ti
atom 4.6512531898023592 0.9509961645233768 16.9591777715676209 O
atom 2.2631648844080505 4.1733782252362275 16.9592071352245632 O
atom 0.2909575925756900 0.2156810461890742 19.4074629921294033 O
atom 5.0195141924070068 3.7199981171624317 16.7146534033164080 O
atom 5.7620150271512527 4.2703120097629919 23.5703869178531278 Ti
atom 6.9560592243183876 2.6591209947611230 23.5703722496869830 O
atom 4.5679709027420046 5.8815030434813336 23.5704016355771735 O
atom 5.8036561971266627 4.3011963230025199 21.6111944834466811 O
atom 7.3243202161349910 5.4281229482063402 23.3258479010053499 O
atom 7.3659613355875040 5.4590072416054189 21.3666554191247542 Ti
atom 3.0056656686294057 2.2275543252709542 22.4685210996514684 Ti
atom 8.5600055273606035 3.8478162226060042 21.3666407583696838 O
atom 6.1719172057842249 7.0701982801274701 21.3666701490072910 O
atom 8.9282665191772068 6.6168181760512228 21.1221164096880472 O
atom 5.7620150409657578 0.1847966778990548 21.3666553811455024 Ti
atom 4.6096119746980824 7.5017648182494518 22.4685211213047822 Ti
atom 10.1639518388233032 9.1220266843770190 21.3666407536222884 O
atom 4.5679709081360365 1.7959877581844412 21.3666701178591723 O
atom 7.3243202329759516 1.3426076449891244 21.1221163954458433 O
atom 7.3659613386139648 9.5445224011239524 23.5703868751264700 Ti
atom 8.5600055357810874 7.9333314565321400 23.5703722449395840 O
atom 2.9640245912793080 0.6072925289027785 23.5704016118401221 O
atom 7.4076025170098516 9.5754067734115171 21.6111944786992929 O
atom 5.7203739299337304 0.1539124171442419 23.3258478867631425 O
atom 1.8532626666991261 5.4590072592129424 21.3666554075461548 Ti
atom 8.5183643290972952 2.2275543366279607 22.4685211207248727 Ti
atom 3.0473068837336861 3.8478162237299829 21.3666407562859320 O
atom 11.6846158325701897 7.0701982929262730 21.3666701463436084 O
atom 3.4155678725238157 6.6168181837335105 21.1221163954457936 O
atom 11.2747136148612590 4.2703120288072984 23.5703869036108635 Ti
atom 1.4433605806914562 2.6591209958851039 23.5703722476032240 O
atom 10.0806695241339490 5.8815030610838450 23.5704016450719891 O
atom 11.3163548185185991 4.3011963318037782 21.6111944881940872 O
atom 1.8116215694816007 5.4281229646898872 23.3258478915104952 O
atom 12.8786599263239712 9.5445224201682599 23.5703868608842093 Ti
atom 3.0473068837336763 7.9333314514156239 23.5703722333610060 O
atom 8.4767232318797756 0.6072925431383657 23.5704016065127888 O
atom 12.9203011384017881 9.5754067822127755 21.6111944834466954 O
atom 0.2076752832803403 0.1539124336277889 23.3258478772682949 O
atom 0.2493163804978789 0.1847966929458179 21.3666553743143197 Ti
atom 10.1223106267454970 7.5017648233659626 22.4685211328833603 Ti
atom 4.6512531898023513 9.1220266727021979 21.3666407542022085 O
atom 10.0806695211074846 1.7959877695464654 21.3666701178591509 O
atom 1.8116215863225660 1.3426076614726701 21.1221163859510028 O
