#===============================================================================
# Created using the Atomic Simulation Environment (ASE)

# Mon Mar 23 14:01:30 2026

#=======================================================
lattice_vector 20.9123456580894320 0.0000000000000000 0.0000000000000000 
lattice_vector 0.0000005548747295 7.6004436200000010 0.0000000000000000 
lattice_vector 0.0000000000000000 0.0000000000000000 47.1293249340970419 
atom 14.7966832620619204 7.6004434589574430 15.1562895526997732 Ti
atom 2.7623738009089882 7.6004434483321432 17.8115585099236817 Ti
atom 15.1972973774475406 1.9001107525258467 15.0000004165761034 O
atom 12.9285601968283892 7.6004434823174458 15.8850886931998723 O
atom 7.9904590838635716 1.9001107383321361 17.8115587809722200 Ti
atom 9.5685964687631486 1.9001107689574424 15.1562895246995417 Ti
atom 7.7004736902831858 1.9001107823174477 15.8850885747983632 O
atom 4.6304966725505095 7.6004434349721377 17.0827594234803328 O
atom 9.9692109252119216 7.6004434825258462 15.0000005050854313 O
atom 9.8585819814063100 1.9001107349721313 17.0827597058922720 O
atom 14.7966829939407063 3.8002216489574412 15.1562895490653204 Ti
atom 2.7623735271060772 3.8002216283321415 17.8115585192398385 Ti
atom 15.1972976605666066 5.7003325625258476 15.0000004036254939 O
atom 12.9285599287071769 3.8002216923174448 15.8850886895654195 O
atom 7.9904592867716966 5.7003325483321357 17.8115588100478419 Ti
atom 9.5685967073486875 5.7003325789574442 15.1562895076544351 Ti
atom 7.7004739190925227 5.7003325723174472 15.8850886152373896 O
atom 4.6304963951131430 3.8002215949721379 17.0827594234803293 O
atom 9.9692106477745561 3.8002216725258453 15.0000005050854313 O
atom 9.8585821713638193 5.7003325249721302 17.0827597292861952 O
atom 18.4466318215639618 1.9001107183321351 17.8115588219748275 Ti
atom 20.0247703005482158 1.9001107489574525 15.1562890959376233 Ti
atom 18.1566470578476853 1.9001107423174526 15.8850883593420100 O
atom 15.0866682923122486 7.6004434149721272 17.0827599006172974 O
atom 20.4253849526362536 7.6004434725258569 15.0000000000000000 O
atom 20.3147550658516920 1.9001106849721339 17.0827595901533549 O
atom 4.3405115434569268 7.6004434989574525 15.1562891248579454 Ti
atom 13.2185451132376013 7.6004434283321292 17.8115591069975920 Ti
atom 4.7411248969650543 1.9001107525258503 15.0000002644926536 O
atom 2.4723884802706433 7.6004435323174562 15.8850882430912819 O
atom 18.4466320953668728 5.7003325483321357 17.8115588126586708 Ti
atom 20.0247705836672871 5.7003325789574522 15.1562890829870121 Ti
atom 18.1566473409667566 5.7003326123174540 15.8850883463914023 O
atom 15.0866680148748848 3.8002216249721275 17.0827599006172939 O
atom 20.4253846565665818 3.8002216625258569 15.0000000072689019 O
atom 20.3147553432890540 5.7003325649721344 17.0827595901533584 O
atom 4.3405112623851076 3.8002216089574521 15.1562891155417887 Ti
atom 13.2185448358002375 3.8002216383321286 17.8115591069975956 Ti
atom 4.7411252302993496 5.7003325725258511 15.0000002426859353 O
atom 2.4723881971515760 3.8002216523174548 15.8850882560418896 O
atom 19.8278132878590512 1.9001106274981592 21.3519280696850977 Ti
atom 17.5590461655764791 7.6004432572894940 22.2370279735910792 Ti
atom 5.5247367044235478 7.6004432466641934 24.8922969308149860 Ti
atom 0.4936060792182058 1.9001106481234773 18.6966583229683359 Ti
atom 19.5378284537080340 1.9001106414834772 19.4254575915943803 O
atom 17.9596602809620975 1.9001105508578973 22.0807388374674076 O
atom 19.4271992663020967 7.6004433539297516 21.5082173087465236 O
atom 16.4678498092826153 7.6004433241381539 20.6231290856217768 O
atom 15.6909231003429461 7.6004432806494959 22.9658271140911765 O
atom 0.8942207235772878 7.6004433716918820 18.5403692622480847 O
atom 2.3617590220292284 1.9001107347637365 17.9678476660598037 O
atom 0.7835908372527742 1.9001105941381593 20.6231287985517575 O
atom 10.7528219873781303 1.9001105366641866 24.8922972018635207 Ti
atom 5.7216929697730325 7.6004433681234795 18.6966582700905093 Ti
atom 14.5997265929433446 7.6004433474981550 21.3519283065398895 Ti
atom 12.3309593722777073 1.9001105672894929 22.2370279455908459 Ti
atom 10.4628365937977446 1.9001105806494982 22.9658269956896675 O
atom 6.1223063557841693 1.9001106516918800 18.5403693004386518 O
atom 7.5898455651719425 7.6004434647637389 17.9678476306412165 O
atom 7.3928595760650682 7.6004432333041896 24.1634978443716335 O
atom 3.8535699449785326 7.6004434014834814 19.4254574592186344 O
atom 12.7315738287264804 7.6004432808578972 22.0807389259767355 O
atom 14.1991122632862954 1.9001106339297527 21.5082172659554978 O
atom 12.6209448849208670 1.9001105333041817 24.1634981267835762 O
atom 19.8278135616619657 5.7003324574981598 21.3519280603689481 Ti
atom 17.5590458974552668 3.8002214472894917 22.2370279699566282 Ti
atom 5.5247364306206359 3.8002214266641925 24.8922969401311391 Ti
atom 0.4936063659717265 5.7003324781234772 18.6966583193338849 Ti
atom 19.5378287368271017 5.7003325114834800 19.4254575786437726 O
atom 17.9596605640811653 5.7003323608578986 22.0807388245167964 O
atom 19.4271990074970446 3.8002215439297515 21.5082173014776181 O
atom 16.4678495225290931 3.8002215241381538 20.6231290892562313 O
atom 15.6909228322217373 3.8002214906494962 22.9658271104567220 O
atom 0.8942204275076093 3.8002215616918802 18.5403692695169937 O
atom 2.3617593051482917 5.7003325447637376 17.9678476531091960 O
atom 0.7835911240062940 5.7003324741381602 20.6231287949173065 O
atom 10.7528221902862544 5.7003323466641858 24.8922972309391497 Ti
atom 5.7216927016518193 3.8002215381234792 18.6966582664560548 Ti
atom 14.5997263155059844 3.8002215474981536 21.3519283065398895 Ti
atom 12.3309596108632462 5.7003323772894952 22.2370279285457393 Ti
atom 10.4628368226070823 5.7003323706494973 22.9658270361286938 O
atom 6.1223065773246024 5.7003324716918806 18.5403693222453718 O
atom 7.5898452784184265 3.8002216347637381 17.9678476342756674 O
atom 7.3928592986277009 3.8002213933041875 24.1634978443716335 O
atom 3.8535696618594613 3.8002215814834801 19.4254574721692421 O
atom 12.7315735512891166 3.8002214708578954 22.0807389259767355 O
atom 14.1991125205041460 5.7003324539297529 21.5082172416414892 O
atom 12.6209450748783780 5.7003323233041812 24.1634981501774959 O
atom 0.2966490669890852 1.9001105166641854 24.8922972428661282 Ti
atom 16.1778646992813862 7.6004433681234689 18.6966587258808055 Ti
atom 4.1435552769802815 7.6004433474981683 21.3519277001498153 Ti
atom 1.8747875459733396 1.9001105472895030 22.2370275168289240 Ti
atom 0.0066643032728114 1.9001105406495031 22.9658267802333143 O
atom 16.5784787674191172 1.9001106516918762 18.5403694686471141 O
atom 18.0460177454902109 7.6004434547637318 17.9678479212939202 O
atom 17.8490311958268073 7.6004432133041782 24.1634983215085981 O
atom 14.3097416615362754 7.6004434014834708 19.4254579093272284 O
atom 2.2754021980613808 7.6004432708579079 22.0807384208913078 O
atom 3.7429404835627116 1.9001106339297633 21.5082168190213139 O
atom 2.1647723112768196 1.9001104833041846 24.1634980110446591 O
atom 9.3716405481114151 1.9001106274981594 21.3519280509492546 Ti
atom 7.1028744469714864 7.6004432972895035 22.2370275457492497 Ti
atom 15.9809080167521582 7.6004432266641802 24.8922975278888998 Ti
atom 10.9497778853030550 1.9001106581234679 18.6966587274162421 Ti
atom 9.0816550747801301 1.9001106814834721 19.4254578329519454 O
atom 7.5034878004796122 1.9001105508579008 22.0807386853839560 O
atom 8.9710271186939039 7.6004433239297562 21.5082171019392163 O
atom 6.0116781988370303 7.6004433341381654 20.6231286048503613 O
atom 5.2347513837852011 7.6004433306495063 22.9658266639825861 O
atom 11.3503923340228781 7.6004433716918713 18.5403697430195038 O
atom 12.8179307649482404 1.9001107247637272 17.9678480736821129 O
atom 11.2397633643160457 1.9001106341381566 20.6231289324629401 O
atom 0.2966493407920001 5.7003323466641858 24.8922972335499750 Ti
atom 16.1778644182095661 3.8002215481234685 18.6966587165646523 Ti
atom 4.1435549902267628 3.8002215274981679 21.3519277037842699 Ti
atom 1.8747878290924089 5.7003323772895023 22.2370275038783127 Ti
atom 0.0066645863918837 5.7003324106495050 22.9658267672827066 O
atom 16.5784790412220318 5.7003324616918780 18.5403694593309538 O
atom 18.0460174866851588 3.8002216447637314 17.9678479140250147 O
atom 17.8490309183894453 3.8002214233041776 24.1634983215085981 O
atom 14.3097413804644589 3.8002215714834713 19.4254579000110681 O
atom 2.2754019019917027 3.8002214608579075 22.0807384281602097 O
atom 3.7429407775851380 5.7003324439297636 21.5082168340191728 O
atom 2.1647725887141802 5.7003323633041845 24.1634980110446662 O
atom 9.3716407603356924 5.7003324374981572 21.3519280763904291 Ti
atom 7.1028741658996664 3.8002214072895022 22.2370275364330894 Ti
atom 15.9809077393147945 3.8002214366641800 24.8922975278888998 Ti
atom 10.9497781291102534 5.7003324681234675 18.6966587512702063 Ti
atom 9.0816552947333520 5.7003324714834713 19.4254578231757478 O
atom 7.5034881338139074 5.7003323708579012 22.0807386635772360 O
atom 8.9710268319403905 3.8002215439297551 21.5082171055736708 O
atom 6.0116779120835089 3.8002215041381646 20.6231286084848122 O
atom 5.2347511006661351 3.8002214506495058 22.9658266769331902 O
atom 11.3503920659016693 3.8002215616918695 18.5403697393850528 O
atom 12.8179310496545131 5.7003325447637279 17.9678480923144228 O
atom 11.2397636697018761 5.7003324141381571 20.6231289215595837 O
atom 1.6778305332841816 1.9001104258302099 28.4326664905764019 Ti
atom 20.3214090690910361 7.6004430556215441 29.3177663944823834 Ti
atom 8.2870996079381083 7.6004430449962435 31.9730353517062937 Ti
atom 3.2559689827327674 1.9001104464555278 25.7773967438596401 Ti
atom 1.3878456991331602 1.9001104398155280 26.5061960124856810 O
atom 20.7220231844766580 1.9001103491899480 29.1614772583587154 O
atom 1.2772165117272265 7.6004431522618026 28.5889557296378314 O
atom 19.2302127127971758 7.6004431224702049 27.7038675065130775 O
atom 18.4532860038575066 7.6004430789815469 30.0465655349824843 O
atom 3.6565836270918495 7.6004431700239321 25.6211076831393925 O
atom 5.1241219255437898 1.9001105330957870 25.0485860869511008 O
atom 3.5459537407673403 1.9001103924702101 27.7038672194430617 O
atom 13.5151848908926890 1.9001103349962372 31.9730356227548285 Ti
atom 8.4840558732875913 7.6004431664555288 25.7773966909818171 Ti
atom 17.3620894964579051 7.6004431458302051 28.4326667274311902 Ti
atom 15.0933222757922643 1.9001103656215435 29.3177663664821537 Ti
atom 13.2251994973123015 1.9001103789815488 30.0465654165809752 O
atom 8.8846692592987271 1.9001104500239308 25.6211077213299561 O
atom 10.3522084686865004 7.6004432630957899 25.0485860515325207 O
atom 10.1552224795796278 7.6004430316362406 31.2442362652629413 O
atom 6.6159328484930908 7.6004431998155324 26.5061958801099387 O
atom 15.4939367322410391 7.6004430791899473 29.1614773468680397 O
atom 16.9614751668008559 1.9001104322618034 28.5889556868468091 O
atom 15.3833077884354275 1.9001103316362324 31.2442365476748805 O
atom 1.6778308070870964 5.7003322558302107 28.4326664812602559 Ti
atom 20.3214088009698237 3.8002212456215418 29.3177663908479289 Ti
atom 8.2870993341351937 3.8002212249962430 31.9730353610224469 Ti
atom 3.2559692694862878 5.7003322764555282 25.7773967402251856 Ti
atom 1.3878459822522329 5.7003323098155310 26.5061959995350769 O
atom 20.7220234675957258 5.7003321591899487 29.1614772454081077 O
atom 1.2772162529221709 3.8002213422618025 28.5889557223689224 O
atom 19.2302124260436500 3.8002213224702035 27.7038675101475391 O
atom 18.4532857357362943 3.8002212889815463 30.0465655313480298 O
atom 3.6565833310221705 3.8002213600239312 25.6211076904082979 O
atom 5.1241222086628486 5.7003323430957877 25.0485860740005002 O
atom 3.5459540275208554 5.7003322724702095 27.7038672158086143 O
atom 13.5151850938008131 5.7003321449962376 31.9730356518304504 Ti
atom 8.4840556051663789 3.8002213364555293 25.7773966873473626 Ti
atom 17.3620892190205431 3.8002213458302037 28.4326667274311902 Ti
atom 15.0933225143778031 5.7003321756215453 29.3177663494370435 Ti
atom 13.2251997261216392 5.7003321689815474 30.0465654570199945 O
atom 8.8846694808391611 5.7003322700239307 25.6211077431366760 O
atom 10.3522081819329852 3.8002214330957891 25.0485860551669717 O
atom 10.1552222021422605 3.8002211916362389 31.2442362652629413 O
atom 6.6159325653740204 3.8002213798155311 26.5061958930605499 O
atom 15.4939364548036735 3.8002212691899464 29.1614773468680468 O
atom 16.9614754240187047 5.7003322522618047 28.5889556625327970 O
atom 15.3833079783929385 5.7003321216362322 31.2442365710688108 O
atom 3.0590119705036467 1.9001103149962362 31.9730356637574360 Ti
atom 18.9402276027959466 7.6004431664555199 25.7773971467721097 Ti
atom 6.9059181804948393 7.6004431458302193 28.4326661210411231 Ti
atom 4.6371504494879012 1.9001103456215536 29.3177659377202318 Ti
atom 2.7690272067873729 1.9001103389815537 30.0465652011246220 O
atom 19.3408416709336741 1.9001104500239270 25.6211078895384148 O
atom 20.8083806490047714 7.6004432530957819 25.0485863421852279 O
atom 20.6113940993413678 7.6004430116362292 31.2442367423999059 O
atom 17.0721045650508358 7.6004431998155209 26.5061963302185291 O
atom 5.0377651015759426 7.6004430691899589 29.1614768417826085 O
atom 6.5053033870772730 1.9001104322618141 28.5889552399126217 O
atom 4.9271352147913801 1.9001102816362352 31.2442364319359669 O
atom 12.1340034516259738 1.9001104258302102 28.4326664718405624 Ti
atom 9.8652373504860442 7.6004430956215527 29.3177659666405575 Ti
atom 18.7432709202667169 7.6004430249962311 31.9730359487802076 Ti
atom 13.7121407888176154 1.9001104564555185 25.7773971483075499 Ti
atom 11.8440179782946888 1.9001104798155224 26.5061962538432496 O
atom 10.2658507039941700 1.9001103491899514 29.1614771062752638 O
atom 11.7333900222084626 7.6004431222618072 28.5889555228305241 O
atom 8.7740411023515907 7.6004431324702155 27.7038670257416655 O
atom 7.9971142872997598 7.6004431289815573 30.0465650848738903 O
atom 14.1127552375374368 7.6004431700239214 25.6211081639108045 O
atom 15.5802936684628008 1.9001105230957778 25.0485864945734207 O
atom 14.0021262678306044 1.9001104324702072 27.7038673533542479 O
atom 3.0590122443065568 5.7003321449962376 31.9730356544412828 Ti
atom 18.9402273217241230 3.8002213464555186 25.7773971374559530 Ti
atom 6.9059178937413215 3.8002213258302184 28.4326661246755847 Ti
atom 4.6371507326069699 5.7003321756215541 29.3177659247696241 Ti
atom 2.7690274899064402 5.7003322089815551 30.0465651881740143 O
atom 19.3408419447365887 5.7003322600239290 25.6211078802222580 O
atom 20.8083803901997193 3.8002214430957815 25.0485863349163225 O
atom 20.6113938219040058 3.8002212216362286 31.2442367423999130 O
atom 17.0721042839790158 3.8002213698155209 26.5061963209023759 O
atom 5.0377648055062689 3.8002212591899580 29.1614768490515175 O
atom 6.5053036810996945 5.7003322422618128 28.5889552549104806 O
atom 4.9271354922287411 5.7003321616362355 31.2442364319359669 O
atom 12.1340036638502529 5.7003322358302091 28.4326664972817369 Ti
atom 9.8652370694142242 3.8002212056215532 29.3177659573243972 Ti
atom 18.7432706428293550 3.8002212349962301 31.9730359487802076 Ti
atom 13.7121410326248139 5.7003322664555176 25.7773971721615105 Ti
atom 11.8440181982479107 5.7003322698155232 26.5061962440670484 O
atom 10.2658510373284670 5.7003321691899513 29.1614770844685509 O
atom 11.7333897354549492 3.8002213422618056 28.5889555264649715 O
atom 8.7740408155980667 3.8002213024702147 27.7038670293761129 O
atom 7.9971140041806938 3.8002212489815563 30.0465650978244980 O
atom 14.1127549694162262 3.8002213600239205 25.6211081602763535 O
atom 15.5802939531690683 5.7003323430957780 25.0485865132057270 O
atom 14.0021265732164366 5.7003322124702072 27.7038673424508843 O
atom 7.8864848290583467 1.9001103314278376 32.1293245078424121 O
atom 13.1145713722010591 7.6004430614278391 32.1293244724238249 O
atom 7.8864851121774056 5.7003321414278396 32.1293244948918044 O
atom 13.1145710854475439 3.8002212314278392 32.1293244760582795 O
atom 2.6583978944298985 7.6004430514278329 32.1293247630765393 O
atom 18.3426565719773578 1.9001103214278283 32.1293249154647214 O
atom 2.6583976356248429 3.8002212414278329 32.1293247558076231 O
atom 18.3426568566836323 5.7003321414278290 32.1293249340970419 O
