#===============================================================================
# Created using the Atomic Simulation Environment (ASE)

# Mon Mar 23 14:01:33 2026

#=======================================================
lattice_vector 11.0253972427838800 0.0000000000000000 0.0000000000000000 
lattice_vector 3.2078926060844428 10.5484209638685815 0.0000000000000000 
lattice_vector 0.0000000000000000 0.0000000000000000 30.0000294117109831 
atom 5.7620150271512527 4.2703120097629919 15.0000146844921218 Ti
atom 6.9560592243183876 2.6591209947611230 15.0000000163259770 O
atom 4.5679709027420046 5.8815030434813336 15.0000294022161675 O
atom 7.3659613386139648 9.5445224011239524 15.0000146417654641 Ti
atom 8.5600055357810874 7.9333314565321400 15.0000000115785781 O
atom 2.9640245912793080 0.6072925289027785 15.0000293784791161 O
atom 11.2747136148612590 4.2703120288072984 15.0000146702498576 Ti
atom 1.4433605806914562 2.6591209958851039 15.0000000142422181 O
atom 10.0806695241339490 5.8815030610838450 15.0000294117109831 O
atom 12.8786599263239712 9.5445224201682599 15.0000146275232034 Ti
atom 3.0473068837336763 7.9333314514156239 15.0000000000000000 O
atom 8.4767232318797756 0.6072925431383657 15.0000293731517829 O
