#===============================================================================
# Created using the Atomic Simulation Environment (ASE)

# Mon Mar 23 14:01:32 2026

#=======================================================
lattice_vector 7.6004436200000214 0.0000000000000000 0.0000000000000000 
lattice_vector -0.0000015267178117 19.4822670799999393 0.0000000000000000 
lattice_vector 0.0000000000000000 0.0000000000000000 50.9013580222072122 
atom 1.9001105483212484 4.8705576693827162 15.0000001761036224 Ti
atom 7.6004430124799276 7.3058621643827042 15.0000000998535654 Ti
atom 1.9001106841593989 2.4352949540123570 20.7003703823535652 Ti
atom 1.9001103352954085 6.8758408893827045 15.0000001809571870 O
atom -0.0000003744942504 5.3005788943827152 15.0000002249999991 O
atom 7.6004429996651064 7.7358745790123411 20.7003703887499668 O
atom -0.0000007205434826 9.3111132643826995 15.0000001547072159 O
atom 7.6004434369748894 2.0052739890123594 20.7003704234571870 O
atom 1.9001106513446508 2.8653063893827175 15.0000000512499696 O
atom 1.9001097949623504 14.6116911093826882 15.0000001311036204 Ti
atom 7.6004422591211114 17.0469945143826749 15.0000000348535689 Ti
atom 1.9001099408004110 12.1764295640123255 20.7003704073535673 Ti
atom 1.9001095719365373 16.6169739793826743 15.0000000059571885 O
atom -0.0000011278531020 15.0417117243826866 15.0000000000000000 O
atom 7.6004422463062946 17.4770068890123120 20.7003703837499700 O
atom -0.0000014639022961 19.0522455943826721 15.0000001497072191 O
atom 7.6004426836158858 11.7464087890123299 20.7003704184571831 O
atom 1.9001099279857256 12.6064401893826883 15.0000000762499699 O
atom 5.7003323783212583 4.8705576693827162 15.0000001661036180 Ti
atom 3.8002212024799169 7.3058621543827025 15.0000000998535654 Ti
atom 5.7003325141594097 2.4352949440123588 20.7003703823535652 Ti
atom 5.7003321452954197 6.8758408793827064 15.0000001709571880 O
atom 3.8002214355057622 5.3005788743827154 15.0000002249999991 O
atom 3.8002211996650952 7.7358745890123428 20.7003703887499668 O
atom 3.8002211094565279 9.3111132543827022 15.0000001547072159 O
atom 3.8002216269748765 2.0052740090123597 20.7003704234571870 O
atom 5.7003325313446620 2.8653063793827234 15.0000000512499696 O
atom 5.7003316049623542 14.6116911893826842 15.0000001311036204 Ti
atom 3.8002204291211026 17.0469945043826741 15.0000000348535689 Ti
atom 5.7003317508004185 12.1764295940123262 20.7003703773535648 Ti
atom 5.7003313919365421 16.6169740393826828 15.0000000059571885 O
atom 3.8002206621469079 15.0417117343826838 15.0000000000000000 O
atom 3.8002204063062837 17.4770068890123120 20.7003703837499700 O
atom 3.8002203360977136 19.0522456043826764 15.0000001597072217 O
atom 3.8002208736158760 11.7464087890123299 20.7003704184571902 O
atom 5.7003319638262493 10.1711464940123388 20.7003704124999928 O
atom 5.7003317179857289 12.6064402793826869 15.0000000662499691 O
atom 1.9001105383212153 4.8705581191358069 18.8002470161036186 Ti
atom 7.6004430224798929 7.3058626141357967 18.8002469398535652 Ti
atom -0.0000014967170638 19.4822573092592215 16.9001235686036217 Ti
atom 1.9001106841594340 2.4352944842592659 16.9001234923535719 Ti
atom 1.9001105411360293 4.4405457942592603 16.9001235972072195 O
atom 1.9001103352953752 6.8758413391357971 18.8002468909571903 O
atom -0.0000003744942840 5.3005793441358060 18.8002469149999953 O
atom 7.6004429896651340 7.7358741992592490 16.9001235087499708 O
atom -0.0000007005435154 9.3111137041357939 18.8002470447072128 O
atom 7.6004434369749250 2.0052734992592676 16.9001235034571877 O
atom 1.9001109071852671 0.4300113542592774 16.9001235274999999 O
atom 1.9001106413446192 2.8653068191358093 18.8002469412499700 O
atom 1.9001097849623159 14.6116915691357754 18.8002470711036196 Ti
atom -0.0000013308789426 17.0469949641357630 18.8002469848535654 Ti
atom -0.0000007533582847 9.7411254292592435 16.9001235836036159 Ti
atom 1.9001099308004425 12.1764291442592327 16.9001235073535661 Ti
atom 1.9001098177770734 14.1816799942592286 16.9001236222072180 O
atom 1.9001095719364987 16.6169744991357646 18.8002470459571853 O
atom -0.0000011678531356 15.0417121741357729 18.8002471599999978 O
atom 7.6004422463063337 17.4770063592592173 16.9001235037499704 O
atom -0.0000014339023305 19.0522460541357681 18.8002470197072178 O
atom 7.6004426736159170 11.7464083892592335 16.9001235484571879 O
atom 1.9001101338262698 10.1711460842592452 16.9001235624999957 O
atom 1.9001099279856866 12.6064407091357840 18.8002469462499668 O
atom 5.7003323683212255 4.8705581191358087 18.8002470061036178 Ti
atom 3.8002212024798832 7.3058626141357950 18.8002469298535644 Ti
atom 3.8002203032829454 19.4822573192592152 16.9001235686036217 Ti
atom 5.7003325141594452 2.4352944742592668 16.9001234823535640 Ti
atom 5.7003324111360403 4.4405457842592648 16.9001235872072186 O
atom 5.7003321452953841 6.8758413391357971 18.8002468809571894 O
atom 3.8002214355057276 5.3005793241358079 18.8002469149999953 O
atom 3.8002211996651236 7.7358741992592499 16.9001235087499708 O
atom 3.8002210894564947 9.3111137041357921 18.8002470347072155 O
atom 3.8002216269749125 2.0052735192592674 16.9001235034571877 O
atom 5.7003327171852778 0.4300113442592775 16.9001235475000016 O
atom 5.7003325213446292 2.8653068191358151 18.8002469412499664 O
atom 5.7003315949623206 14.6116916391357758 18.8002470711036196 Ti
atom 3.8002203991210672 17.0469949641357630 18.8002469748535717 Ti
atom 3.8002210766417264 9.7411254292592471 16.9001235836036159 Ti
atom 5.7003317408004497 12.1764291842592325 16.9001235173535633 Ti
atom 5.7003316077770796 14.1816800442592328 16.9001235922072155 O
atom 5.7003313919365119 16.6169744391357668 18.8002470459571853 O
atom 3.8002206721468741 15.0417121841357790 18.8002471599999978 O
atom 3.8002204163063227 17.4770063692592217 16.9001235037499704 O
atom 3.8002203060976787 19.0522460641357618 18.8002470297072186 O
atom 3.8002208636159067 11.7464083792592362 16.9001235484571879 O
atom 5.7003319538262804 10.1711460842592452 16.9001235824999974 O
atom 5.7003317079856979 12.6064406791357815 18.8002469462499668 O
atom 1.9001105483211815 4.8705585688889013 22.6004939361036179 Ti
atom 7.6004430124798601 7.3058630638888866 22.6004938598535645 Ti
atom -0.0000014967170997 19.4822577890123085 20.7003704586036221 Ti
atom 1.9001106841593318 2.4352958535185412 28.3008641423535643 Ti
atom 1.9001105411359911 4.4405463040123534 20.7003704772072155 O
atom 1.9001103352953415 6.8758417888888896 22.6004939409571861 O
atom -0.0000003744943175 5.3005797938888985 22.6004939849999964 O
atom 7.6004429996650380 7.7358754785185262 28.3008641487499659 O
atom -0.0000007205435498 9.3111141638888846 22.6004939147072115 O
atom 7.6004434369748219 2.0052748885185436 28.3008641834571897 O
atom 1.9001109071852311 0.4300118340123696 20.7003704575000000 O
atom 1.9001106513445838 2.8653072888889017 22.6004938112499687 O
atom 1.9001097949622834 14.6116920088888715 22.6004938911036213 Ti
atom 7.6004422591210439 17.0469954138888546 22.6004937948535698 Ti
atom -0.0000007333583159 9.7411258490123398 20.7003704636036154 Ti
atom 1.9001099408003439 12.1764304635185105 28.3008641673535593 Ti
atom 1.9001098177770457 14.1816803640123243 20.7003704822072159 O
atom 1.9001095719364700 16.6169748788888576 22.6004937659571858 O
atom -0.0000011278531692 15.0417126238888716 22.6004937599999991 O
atom 7.6004422463062262 17.4770077885184953 28.3008641437499691 O
atom -0.0000014639023633 19.0522464938888518 22.6004939097072182 O
atom 7.6004426836158183 11.7464096885185132 28.3008641784571822 O
atom 1.9001101438262404 10.1711464840123380 20.7003704424999952 O
atom 1.9001099279856581 12.6064410888888734 22.6004938362499672 O
atom 5.7003323783211917 4.8705585688889013 22.6004939261036171 Ti
atom 3.8002212024798503 7.3058630538888867 22.6004938598535645 Ti
atom 3.8002203032829098 19.4822577890123050 20.7003704686036230 Ti
atom 5.7003325141593413 2.4352958435185426 28.3008641423535678 Ti
atom 5.7003324111360012 4.4405462940123570 20.7003704672072182 O
atom 5.7003321452953513 6.8758417788888906 22.6004939309571853 O
atom 3.8002214355056947 5.3005797738888996 22.6004939849999964 O
atom 3.8002211996650281 7.7358754885185261 28.3008641487499659 O
atom 3.8002211094564609 9.3111141538888855 22.6004939147072150 O
atom 3.8002216269748090 2.0052749085185440 28.3008641834571861 O
atom 5.7003327171852423 0.4300118240123694 20.7003704474999992 O
atom 5.7003325313445945 2.8653072788889076 22.6004938112499687 O
atom 5.7003316049622867 14.6116920888888675 22.6004938911036213 Ti
atom 3.8002204291210346 17.0469954038888574 22.6004937948535698 Ti
atom 3.8002210866416930 9.7411258490123398 20.7003704636036190 Ti
atom 5.7003317508003510 12.1764304935185130 28.3008641373535639 Ti
atom 5.7003316077770529 14.1816804240123204 20.7003705022072140 O
atom 5.7003313919364746 16.6169749388888626 22.6004937659571858 O
atom 3.8002206621468408 15.0417126338888654 22.6004937599999991 O
atom 3.8002204063062170 17.4770077885184953 28.3008641437499691 O
atom 3.8002203360976465 19.0522465038888598 22.6004939197072190 O
atom 3.8002208736158094 11.7464096885185132 28.3008641784571822 O
atom 5.7003319638261827 10.1711473935185239 28.3008641724999919 O
atom 5.7003317179856614 12.6064411788888702 22.6004938262499664 O
atom 1.9001105383211483 4.8705590186419920 26.4007407761036212 Ti
atom 7.6004430224798263 7.3058635136419801 26.4007406998535643 Ti
atom -0.0000014967171310 19.4822582087654048 24.5006173286036208 Ti
atom 1.9001106841593667 2.4352953837654501 24.5006172523535675 Ti
atom 1.9001105411359622 4.4405466937654445 24.5006173572072186 O
atom 1.9001103352953084 6.8758422386419804 26.4007406509571858 O
atom -0.0000003744943511 5.3005802436419911 26.4007406749999909 O
atom 7.6004429896650674 7.7358750987654323 24.5006172687499664 O
atom -0.0000007005435826 9.3111146036419772 26.4007408047072119 O
atom 7.6004434369748584 2.0052743987654518 24.5006172634571868 O
atom 1.9001109071851996 0.4300122537654615 24.5006172874999990 O
atom 1.9001106413445521 2.8653077186419940 26.4007407012499655 O
atom 1.9001097849622486 14.6116924686419605 26.4007408311036151 Ti
atom -0.0000013308790097 17.0469958636419463 26.4007407448535645 Ti
atom -0.0000007533583518 9.7411263287654268 24.5006173436036150 Ti
atom 1.9001099308003753 12.1764300437654178 24.5006172673535652 Ti
atom 1.9001098177770062 14.1816808937654137 24.5006173822072135 O
atom 1.9001095719364314 16.6169753986419444 26.4007408059571844 O
atom -0.0000011678532028 15.0417130736419562 26.4007409199999969 O
atom 7.6004422463062671 17.4770072587654006 24.5006172637499731 O
atom -0.0000014339023976 19.0522469536419479 26.4007407797072133 O
atom 7.6004426736158495 11.7464092887654186 24.5006173084571870 O
atom 1.9001101338262028 10.1711469837654302 24.5006173224999948 O
atom 1.9001099279856193 12.6064416086419673 26.4007407062499695 O
atom 5.7003323683211597 4.8705590186419929 26.4007407661036169 Ti
atom 3.8002212024798152 7.3058635136419801 26.4007406898535635 Ti
atom 3.8002203032828787 19.4822582187653985 24.5006173286036208 Ti
atom 5.7003325141593777 2.4352953737654506 24.5006172423535666 Ti
atom 5.7003324111359737 4.4405466837654490 24.5006173472072142 O
atom 5.7003321452953175 6.8758422386419804 26.4007406409571850 O
atom 3.8002214355056605 5.3005802236419921 26.4007406749999944 O
atom 3.8002211996650570 7.7358750987654332 24.5006172687499664 O
atom 3.8002210894564277 9.3111146036419754 26.4007407947072146 O
atom 3.8002216269748459 2.0052744187654516 24.5006172634571868 O
atom 5.7003327171852112 0.4300122437654616 24.5006173074999971 O
atom 5.7003325213445617 2.8653077186419993 26.4007407012499655 O
atom 5.7003315949622531 14.6116925386419609 26.4007408311036151 Ti
atom 3.8002203991210002 17.0469958636419463 26.4007407348535637 Ti
atom 3.8002210766416584 9.7411263287654322 24.5006173436036150 Ti
atom 5.7003317408003822 12.1764300837654176 24.5006172773535660 Ti
atom 5.7003316077770130 14.1816809437654143 24.5006173522072181 O
atom 5.7003313919364453 16.6169753386419501 26.4007408059571844 O
atom 3.8002206721468070 15.0417130836419641 26.4007409199999969 O
atom 3.8002204163062561 17.4770072687654050 24.5006172637499660 O
atom 3.8002203060976121 19.0522469636419416 26.4007407897072177 O
atom 3.8002208636158392 11.7464092787654213 24.5006173084571834 O
atom 5.7003319538262138 10.1711469837654302 24.5006173424999965 O
atom 5.7003317079856304 12.6064415786419630 26.4007407062499695 O
atom 1.9001105483211140 4.8705594683950837 30.2009876961036170 Ti
atom 7.6004430124797935 7.3058639633950717 30.2009876198535672 Ti
atom -0.0000014967171668 19.4822586885184954 28.3008642186036177 Ti
atom 1.9001106841592645 2.4352967530247258 35.9013579023535669 Ti
atom 1.9001105411359240 4.4405472035185376 28.3008642372072181 O
atom 1.9001103352952742 6.8758426883950730 30.2009877009571852 O
atom -0.0000003744943847 5.3005806933950836 30.2009877449999955 O
atom 7.6004429996649714 7.7358763780247095 35.9013579087499650 O
atom -0.0000007205436169 9.3111150633950679 30.2009876747072141 O
atom 7.6004434369747536 2.0052757880247274 35.9013579434571852 O
atom 1.9001109071851641 0.4300127335185536 28.3008642174999991 O
atom 1.9001106513445167 2.8653081883950864 30.2009875712499678 O
atom 1.9001097949622157 14.6116929083950531 30.2009876511036168 Ti
atom 7.6004422591209764 17.0469963133950415 30.2009875548535689 Ti
atom -0.0000007333583831 9.7411267485185231 28.3008642236036216 Ti
atom 1.9001099408002768 12.1764313630246956 35.9013579273535584 Ti
atom 1.9001098177769786 14.1816812635185059 28.3008642422072150 O
atom 1.9001095719364032 16.6169757783950409 30.2009875259571849 O
atom -0.0000011278532363 15.0417135233950567 30.2009875199999946 O
atom 7.6004422463061587 17.4770086880246787 35.9013579037499682 O
atom -0.0000014639024304 19.0522473933950387 30.2009876697072137 O
atom 7.6004426836157508 11.7464105880246983 35.9013579384571813 O
atom 1.9001101438261734 10.1711473835185231 28.3008642024999943 O
atom 1.9001099279855913 12.6064419883950585 30.2009875962499699 O
atom 5.7003323783211242 4.8705594683950855 30.2009876861036197 Ti
atom 3.8002212024797823 7.3058639533950700 30.2009876198535636 Ti
atom 3.8002203032828437 19.4822586885184919 28.3008642286036221 Ti
atom 5.7003325141592747 2.4352967430247272 35.9013579023535669 Ti
atom 5.7003324111359346 4.4405471935185412 28.3008642272072173 O
atom 5.7003321452952846 6.8758426783950739 30.2009876909571915 O
atom 3.8002214355056276 5.3005806733950829 30.2009877449999955 O
atom 3.8002211996649611 7.7358763880247103 35.9013579087499650 O
atom 3.8002211094563938 9.3111150533950688 30.2009876747072141 O
atom 3.8002216269747415 2.0052758080247282 35.9013579434571852 O
atom 5.7003327171851748 0.4300127235185535 28.3008642075000019 O
atom 5.7003325313445270 2.8653081783950918 30.2009875712499678 O
atom 5.7003316049622210 14.6116929883950508 30.2009876511036168 Ti
atom 3.8002204291209680 17.0469963033950407 30.2009875548535689 Ti
atom 3.8002210866416264 9.7411267485185249 28.3008642236036216 Ti
atom 5.7003317508002835 12.1764313930246963 35.9013578973535630 Ti
atom 5.7003316077769846 14.1816813235185037 28.3008642622072166 O
atom 5.7003313919364080 16.6169758383950494 30.2009875259571849 O
atom 3.8002206621467725 15.0417135333950505 30.2009875199999946 O
atom 3.8002204063061495 17.4770086880246787 35.9013579037499682 O
atom 3.8002203360975790 19.0522474033950431 30.2009876797072145 O
atom 3.8002208736157419 11.7464105880246947 35.9013579384571813 O
atom 5.7003319638261161 10.1711482930247055 35.9013579324999910 O
atom 5.7003317179855939 12.6064420783950517 30.2009875862499690 O
atom 1.9001105383210810 4.8705599181481762 34.0012345361036168 Ti
atom 7.6004430224797597 7.3058644131481643 34.0012344598535634 Ti
atom -0.0000014967171981 19.4822591082715881 32.1011110886036164 Ti
atom 1.9001106841592996 2.4352962832716343 32.1011110123535701 Ti
atom 1.9001105411358947 4.4405475932716287 32.1011111172072106 O
atom 1.9001103352952409 6.8758431381481655 34.0012344109571885 O
atom -0.0000003744944183 5.3005811431481753 34.0012344349999935 O
atom 7.6004429896649999 7.7358759982716165 32.1011110287499619 O
atom -0.0000007005436497 9.3111155031481623 34.0012345647072181 O
atom 7.6004434369747917 2.0052752982716355 32.1011110234571930 O
atom 1.9001109071851328 0.4300131532716456 32.1011110474999981 O
atom 1.9001106413444850 2.8653086181481782 34.0012344612499646 O
atom 1.9001097849621817 14.6116933681481456 34.0012345911036249 Ti
atom -0.0000013308790769 17.0469967631481332 34.0012345048535565 Ti
atom -0.0000007533584190 9.7411272282716119 32.1011111036036141 Ti
atom 1.9001099308003080 12.1764309432716011 32.1011110273535607 Ti
atom 1.9001098177769391 14.1816817932715953 32.1011111422072162 O
atom 1.9001095719363641 16.6169762981481313 34.0012345659571835 O
atom -0.0000011678532699 15.0417139731481395 34.0012346799999960 O
atom 7.6004422463061987 17.4770081582715875 32.1011110237499651 O
atom -0.0000014339024648 19.0522478531481347 34.0012345397072195 O
atom 7.6004426736157820 11.7464101882716037 32.1011110684571861 O
atom 1.9001101338261355 10.1711478832716153 32.1011110824999975 O
atom 1.9001099279855524 12.6064425081481488 34.0012344662499686 O
atom 5.7003323683210914 4.8705599181481771 34.0012345261036160 Ti
atom 3.8002212024797482 7.3058644131481625 34.0012344498535555 Ti
atom 3.8002203032828108 19.4822591182715854 32.1011110886036164 Ti
atom 5.7003325141593102 2.4352962732716352 32.1011110023535622 Ti
atom 5.7003324111359062 4.4405475832716332 32.1011111072072168 O
atom 5.7003321452952500 6.8758431381481655 34.0012344009571876 O
atom 3.8002214355055934 5.3005811231481763 34.0012344349999935 O
atom 3.8002211996649895 7.7358759982716183 32.1011110287499690 O
atom 3.8002210894563602 9.3111155031481569 34.0012345547072172 O
atom 3.8002216269747784 2.0052753182716354 32.1011110234571930 O
atom 5.7003327171851437 0.4300131432716456 32.1011110674999998 O
atom 5.7003325213444942 2.8653086181481835 34.0012344612499646 O
atom 5.7003315949621873 14.6116934381481425 34.0012345911036249 Ti
atom 3.8002203991209331 17.0469967631481296 34.0012344948535628 Ti
atom 3.8002210766415923 9.7411272282716155 32.1011111036036141 Ti
atom 5.7003317408003147 12.1764309832715991 32.1011110373535615 Ti
atom 5.7003316077769446 14.1816818432715994 32.1011111122072137 O
atom 5.7003313919363778 16.6169762381481334 34.0012345659571835 O
atom 3.8002206721467400 15.0417139831481457 34.0012346799999960 O
atom 3.8002204163061886 17.4770081682715883 32.1011110237499651 O
atom 3.8002203060975446 19.0522478631481285 34.0012345497072204 O
atom 3.8002208636157722 11.7464101782716028 32.1011110684571861 O
atom 5.7003319538261463 10.1711478832716153 32.1011111024999920 O
atom 5.7003317079855638 12.6064424781481481 34.0012344662499686 O
atom -0.0000014967172340 19.4822595880246787 35.9013579786036203 Ti
atom 1.9001105411358572 4.4405481030247209 35.9013579972072137 O
atom 1.9001109071850970 0.4300136330247377 35.9013579774999982 O
atom -0.0000007333584503 9.7411276480247064 35.9013579836036172 Ti
atom 1.9001098177769113 14.1816821630246910 35.9013580022072105 O
atom 1.9001101438261057 10.1711482830247046 35.9013579624999863 O
atom 3.8002203032827757 19.4822595880246752 35.9013579886036212 Ti
atom 5.7003324111358671 4.4405480930247254 35.9013579872072128 O
atom 5.7003327171851081 0.4300136230247376 35.9013579674999974 O
atom 3.8002210866415593 9.7411276480247082 35.9013579836036172 Ti
atom 5.7003316077769179 14.1816822230246888 35.9013580222072122 O
