#===============================================================================
# Created using the Atomic Simulation Environment (ASE)

# Mon Mar 23 14:01:30 2026

#=======================================================
lattice_vector 20.9123456580894320 0.0000000000000000 0.0000000000000000 
lattice_vector 0.0000005548747295 7.6004436200000010 0.0000000000000000 
lattice_vector 0.0000000000000000 0.0000000000000000 43.5889556718489573 
atom 19.8278132878590512 1.9001106274981592 17.8115588074370130 Ti
atom 17.5590461655764791 7.6004432572894940 18.6966587113429945 Ti
atom 5.5247367044235478 7.6004432466641934 21.3519276685669013 Ti
atom 0.4936060792182058 1.9001106481234773 15.1562890607202512 Ti
atom 19.5378284537080340 1.9001106414834772 15.8850883293462957 O
atom 17.9596602809620975 1.9001105508578973 18.5403695752193229 O
atom 19.4271992663020967 7.6004433539297516 17.9678480464984389 O
atom 16.4678498092826153 7.6004433241381539 17.0827598233736921 O
atom 15.6909231003429461 7.6004432806494959 19.4254578518430918 O
atom 0.8942207235772878 7.6004433716918820 15.0000000000000000 O
atom 0.7835908372527742 1.9001105941381593 17.0827595363036728 O
atom 10.7528219873781303 1.9001105366641866 21.3519279396154360 Ti
atom 5.7216929697730325 7.6004433681234795 15.1562890078424246 Ti
atom 14.5997265929433446 7.6004433474981550 17.8115590442918048 Ti
atom 12.3309593722777073 1.9001105672894929 18.6966586833427613 Ti
atom 10.4628365937977446 1.9001105806494982 19.4254577334415828 O
atom 6.1223063557841693 1.9001106516918800 15.0000000381905672 O
atom 7.3928595760650682 7.6004432333041896 20.6231285821235488 O
atom 3.8535699449785326 7.6004434014834814 15.8850881969705497 O
atom 12.7315738287264804 7.6004432808578972 18.5403696637286508 O
atom 14.1991122632862954 1.9001106339297527 17.9678480037074131 O
atom 12.6209448849208670 1.9001105333041817 20.6231288645354915 O
atom 19.8278135616619657 5.7003324574981598 17.8115587981208634 Ti
atom 17.5590458974552668 3.8002214472894917 18.6966587077085435 Ti
atom 5.5247364306206359 3.8002214266641925 21.3519276778830545 Ti
atom 0.4936063659717265 5.7003324781234772 15.1562890570858002 Ti
atom 19.5378287368271017 5.7003325114834800 15.8850883163956880 O
atom 17.9596605640811653 5.7003323608578986 18.5403695622687117 O
atom 19.4271990074970446 3.8002215439297515 17.9678480392295334 O
atom 16.4678495225290931 3.8002215241381538 17.0827598270081467 O
atom 15.6909228322217373 3.8002214906494962 19.4254578482086373 O
atom 0.8942204275076093 3.8002215616918802 15.0000000072689090 O
atom 0.7835911240062940 5.7003324741381602 17.0827595326692219 O
atom 10.7528221902862544 5.7003323466641858 21.3519279686910650 Ti
atom 5.7216927016518193 3.8002215381234792 15.1562890042079701 Ti
atom 14.5997263155059844 3.8002215474981536 17.8115590442918048 Ti
atom 12.3309596108632462 5.7003323772894952 18.6966586662976546 Ti
atom 10.4628368226070823 5.7003323706494973 19.4254577738806091 O
atom 6.1223065773246024 5.7003324716918806 15.0000000599972871 O
atom 7.3928592986277009 3.8002213933041875 20.6231285821235488 O
atom 3.8535696618594613 3.8002215814834801 15.8850882099211574 O
atom 12.7315735512891166 3.8002214708578954 18.5403696637286508 O
atom 14.1991125205041460 5.7003324539297529 17.9678479793934045 O
atom 12.6209450748783780 5.7003323233041812 20.6231288879294112 O
atom 0.2966490669890852 1.9001105166641854 21.3519279806180435 Ti
atom 16.1778646992813862 7.6004433681234689 15.1562894636327208 Ti
atom 4.1435552769802815 7.6004433474981683 17.8115584379017307 Ti
atom 1.8747875459733396 1.9001105472895030 18.6966582545808393 Ti
atom 0.0066643032728114 1.9001105406495031 19.4254575179852296 O
atom 16.5784787674191172 1.9001106516918762 15.0000002063990294 O
atom 17.8490311958268073 7.6004432133041782 20.6231290592605134 O
atom 14.3097416615362754 7.6004434014834708 15.8850886470791437 O
atom 2.2754021980613808 7.6004432708579079 18.5403691586432231 O
atom 3.7429404835627116 1.9001106339297633 17.9678475567732292 O
atom 2.1647723112768196 1.9001104833041846 20.6231287487965744 O
atom 9.3716405481114151 1.9001106274981594 17.8115587887011699 Ti
atom 7.1028744469714864 7.6004432972895035 18.6966582835011650 Ti
atom 15.9809080167521582 7.6004432266641802 21.3519282656408151 Ti
atom 10.9497778853030550 1.9001106581234679 15.1562894651681574 Ti
atom 9.0816550747801301 1.9001106814834721 15.8850885707038607 O
atom 7.5034878004796122 1.9001105508579008 18.5403694231358713 O
atom 8.9710271186939039 7.6004433239297562 17.9678478396911316 O
atom 6.0116781988370303 7.6004433341381654 17.0827593426022766 O
atom 5.2347513837852011 7.6004433306495063 19.4254574017345014 O
atom 11.3503923340228781 7.6004433716918713 15.0000004807714191 O
atom 11.2397633643160457 1.9001106341381566 17.0827596702148554 O
atom 0.2966493407920001 5.7003323466641858 21.3519279713018904 Ti
atom 16.1778644182095661 3.8002215481234685 15.1562894543165676 Ti
atom 4.1435549902267628 3.8002215274981679 17.8115584415361852 Ti
atom 1.8747878290924089 5.7003323772895023 18.6966582416302280 Ti
atom 0.0066645863918837 5.7003324106495050 19.4254575050346219 O
atom 16.5784790412220318 5.7003324616918780 15.0000001970828691 O
atom 17.8490309183894453 3.8002214233041776 20.6231290592605134 O
atom 14.3097413804644589 3.8002215714834713 15.8850886377629834 O
atom 2.2754019019917027 3.8002214608579075 18.5403691659121250 O
atom 3.7429407775851380 5.7003324439297636 17.9678475717710882 O
atom 2.1647725887141802 5.7003323633041845 20.6231287487965815 O
atom 9.3716407603356924 5.7003324374981572 17.8115588141423444 Ti
atom 7.1028741658996664 3.8002214072895022 18.6966582741850047 Ti
atom 15.9809077393147945 3.8002214366641800 21.3519282656408151 Ti
atom 10.9497781291102534 5.7003324681234675 15.1562894890221216 Ti
atom 9.0816552947333520 5.7003324714834713 15.8850885609276631 O
atom 7.5034881338139074 5.7003323708579012 18.5403694013291513 O
atom 8.9710268319403905 3.8002215439297551 17.9678478433255862 O
atom 6.0116779120835089 3.8002215041381646 17.0827593462367275 O
atom 5.2347511006661351 3.8002214506495058 19.4254574146851056 O
atom 11.3503920659016693 3.8002215616918695 15.0000004771369682 O
atom 11.2397636697018761 5.7003324141381571 17.0827596593114990 O
atom 1.6778305332841816 1.9001104258302099 24.8922972283283173 Ti
atom 20.3214090690910361 7.6004430556215441 25.7773971322342987 Ti
atom 8.2870996079381083 7.6004430449962435 28.4326660894582091 Ti
atom 3.2559689827327674 1.9001104464555278 22.2370274816115554 Ti
atom 1.3878456991331602 1.9001104398155280 22.9658267502375963 O
atom 20.7220231844766580 1.9001103491899480 25.6211079961106307 O
atom 1.2772165117272265 7.6004431522618026 25.0485864673897467 O
atom 19.2302127127971758 7.6004431224702049 24.1634982442649928 O
atom 18.4532860038575066 7.6004430789815469 26.5061962727343996 O
atom 3.6565836270918495 7.6004431700239321 22.0807384208913078 O
atom 5.1241219255437898 1.9001105330957870 21.5082168247030161 O
atom 3.5459537407673403 1.9001103924702101 24.1634979571949771 O
atom 13.5151848908926890 1.9001103349962372 28.4326663605067438 Ti
atom 8.4840558732875913 7.6004431664555288 22.2370274287337324 Ti
atom 17.3620894964579051 7.6004431458302051 24.8922974651831055 Ti
atom 15.0933222757922643 1.9001103656215435 25.7773971042340690 Ti
atom 13.2251994973123015 1.9001103789815488 26.5061961543328906 O
atom 8.8846692592987271 1.9001104500239308 22.0807384590818714 O
atom 10.3522084686865004 7.6004432630957899 21.5082167892844360 O
atom 10.1552224795796278 7.6004430316362406 27.7038670030148566 O
atom 6.6159328484930908 7.6004431998155324 22.9658266178618540 O
atom 15.4939367322410391 7.6004430791899473 25.6211080846199550 O
atom 16.9614751668008559 1.9001104322618034 25.0485864245987244 O
atom 15.3833077884354275 1.9001103316362324 27.7038672854267958 O
atom 1.6778308070870964 5.7003322558302107 24.8922972190121712 Ti
atom 20.3214088009698237 3.8002212456215418 25.7773971285998442 Ti
atom 8.2870993341351937 3.8002212249962430 28.4326660987743622 Ti
atom 3.2559692694862878 5.7003322764555282 22.2370274779771009 Ti
atom 1.3878459822522329 5.7003323098155310 22.9658267372869922 O
atom 20.7220234675957258 5.7003321591899487 25.6211079831600230 O
atom 1.2772162529221709 3.8002213422618025 25.0485864601208377 O
atom 19.2302124260436500 3.8002213224702035 24.1634982478994544 O
atom 18.4532857357362943 3.8002212889815463 26.5061962690999451 O
atom 3.6565833310221705 3.8002213600239312 22.0807384281602133 O
atom 5.1241222086628486 5.7003323430957877 21.5082168117524155 O
atom 3.5459540275208554 5.7003322724702095 24.1634979535605297 O
atom 13.5151850938008131 5.7003321449962376 28.4326663895823657 Ti
atom 8.4840556051663789 3.8002213364555293 22.2370274250992779 Ti
atom 17.3620892190205431 3.8002213458302037 24.8922974651831055 Ti
atom 15.0933225143778031 5.7003321756215453 25.7773970871889588 Ti
atom 13.2251997261216392 5.7003321689815474 26.5061961947719098 O
atom 8.8846694808391611 5.7003322700239307 22.0807384808885914 O
atom 10.3522081819329852 3.8002214330957891 21.5082167929188870 O
atom 10.1552222021422605 3.8002211916362389 27.7038670030148566 O
atom 6.6159325653740204 3.8002213798155311 22.9658266308124652 O
atom 15.4939364548036735 3.8002212691899464 25.6211080846199621 O
atom 16.9614754240187047 5.7003322522618047 25.0485864002847123 O
atom 15.3833079783929385 5.7003321216362322 27.7038673088207261 O
atom 3.0590119705036467 1.9001103149962362 28.4326664015093513 Ti
atom 18.9402276027959466 7.6004431664555199 22.2370278845240250 Ti
atom 6.9059181804948393 7.6004431458302193 24.8922968587930384 Ti
atom 4.6371504494879012 1.9001103456215536 25.7773966754721471 Ti
atom 2.7690272067873729 1.9001103389815537 26.5061959388765374 O
atom 19.3408416709336741 1.9001104500239270 22.0807386272903301 O
atom 20.8083806490047714 7.6004432530957819 21.5082170799371433 O
atom 20.6113940993413678 7.6004430116362292 27.7038674801518212 O
atom 17.0721045650508358 7.6004431998155209 22.9658270679704444 O
atom 5.0377651015759426 7.6004430691899589 25.6211075795345238 O
atom 6.5053033870772730 1.9001104322618141 25.0485859776645370 O
atom 4.9271352147913801 1.9001102816362352 27.7038671696878822 O
atom 12.1340034516259738 1.9001104258302102 24.8922972095924777 Ti
atom 9.8652373504860442 7.6004430956215527 25.7773967043924728 Ti
atom 18.7432709202667169 7.6004430249962311 28.4326666865321229 Ti
atom 13.7121407888176154 1.9001104564555185 22.2370278860594652 Ti
atom 11.8440179782946888 1.9001104798155224 22.9658269915951649 O
atom 10.2658507039941700 1.9001103491899514 25.6211078440271791 O
atom 11.7333900222084626 7.6004431222618072 25.0485862605824394 O
atom 8.7740411023515907 7.6004431324702155 24.1634977634935808 O
atom 7.9971142872997598 7.6004431289815573 26.5061958226258056 O
atom 14.1127552375374368 7.6004431700239214 22.0807389016627198 O
atom 15.5802936684628008 1.9001105230957778 21.5082172323253360 O
atom 14.0021262678306044 1.9001104324702072 24.1634980911061632 O
atom 3.0590122443065568 5.7003321449962376 28.4326663921931981 Ti
atom 18.9402273217241230 3.8002213464555186 22.2370278752078683 Ti
atom 6.9059178937413215 3.8002213258302184 24.8922968624275001 Ti
atom 4.6371507326069699 5.7003321756215541 25.7773966625215394 Ti
atom 2.7690274899064402 5.7003322089815551 26.5061959259259297 O
atom 19.3408419447365887 5.7003322600239290 22.0807386179741734 O
atom 20.8083803901997193 3.8002214430957815 21.5082170726682378 O
atom 20.6113938219040058 3.8002212216362286 27.7038674801518283 O
atom 17.0721042839790158 3.8002213698155209 22.9658270586542912 O
atom 5.0377648055062689 3.8002212591899580 25.6211075868034328 O
atom 6.5053036810996945 5.7003322422618128 25.0485859926623959 O
atom 4.9271354922287411 5.7003321616362355 27.7038671696878822 O
atom 12.1340036638502529 5.7003322358302091 24.8922972350336522 Ti
atom 9.8652370694142242 3.8002212056215532 25.7773966950763125 Ti
atom 18.7432706428293550 3.8002212349962301 28.4326666865321229 Ti
atom 13.7121410326248139 5.7003322664555176 22.2370279099134258 Ti
atom 11.8440181982479107 5.7003322698155232 22.9658269818189638 O
atom 10.2658510373284670 5.7003321691899513 25.6211078222204662 O
atom 11.7333897354549492 3.8002213422618056 25.0485862642168868 O
atom 8.7740408155980667 3.8002213024702147 24.1634977671280282 O
atom 7.9971140041806938 3.8002212489815563 26.5061958355764133 O
atom 14.1127549694162262 3.8002213600239205 22.0807388980282688 O
atom 15.5802939531690683 5.7003323430957780 21.5082172509576424 O
atom 14.0021265732164366 5.7003322124702072 24.1634980802027997 O
atom 7.8864848290583467 1.9001103314278376 28.5889552455943274 O
atom 13.1145713722010591 7.6004430614278391 28.5889552101757403 O
atom 7.8864851121774056 5.7003321414278396 28.5889552326437197 O
atom 13.1145710854475439 3.8002212314278392 28.5889552138101948 O
atom 2.6583978944298985 7.6004430514278329 28.5889555008284546 O
atom 18.3426565719773578 1.9001103214278283 28.5889556532166367 O
atom 2.6583976356248429 3.8002212414278329 28.5889554935595385 O
atom 18.3426568566836323 5.7003321414278290 28.5889556718489573 O
