#===============================================================================
# Created using the Atomic Simulation Environment (ASE)

# Mon Mar 23 14:01:35 2026

#=======================================================
lattice_vector 9.2839361000000000 0.0000000000000000 0.0000000000000000 
lattice_vector 0.0000000000000000 5.9471245399999999 0.0000000000000000 
lattice_vector 0.0000000000000000 0.0000000000000000 57.3366795700000011 
atom 9.2839360399999986 0.0000000100000000 20.5449132799999994 Ti
atom 0.9029265000000000 1.4867811300000000 15.0000000000000000 O
atom 9.2839360299999996 2.9735622699999991 20.5449132799999994 Ti
atom 0.9029265000000000 4.4603433999999993 15.0000000000000000 O
atom 4.6419680000000003 0.0000000100000000 20.5449132899999967 Ti
atom 5.5448945299999997 1.4867811300000000 15.0000000099999973 O
atom 4.6419680100000003 2.9735622799999990 20.5449132899999967 Ti
atom 5.5448945299999997 4.4603433999999993 15.0000000099999973 O
atom 2.3209840500000003 1.4867811399999995 18.2239343199999979 Ti
atom 9.2839360500000030 5.9471245299999991 15.9029553799999981 Ti
atom 0.9029265000000000 1.4867811399999995 19.6419579199999959 O
atom 3.7390416400000004 1.4867811300000000 16.8059108799999990 O
atom 1.4180576000000003 0.0000000000000000 17.3209789500000007 O
atom 3.2239105299999999 0.0000000000000000 19.1268898199999988 O
atom 2.3209840500000003 4.4603434099999992 18.2239343299999987 Ti
atom 9.2839360399999986 2.9735622600000000 15.9029553700000008 Ti
atom 0.9029265000000000 4.4603434099999992 19.6419579199999959 O
atom 3.7390416400000004 4.4603434099999992 16.8059108799999990 O
atom 1.4180576000000003 2.9735622699999991 17.3209789500000007 O
atom 3.2239105399999999 2.9735622699999991 19.1268898199999988 O
atom 6.9629519999999996 1.4867811399999995 18.2239343399999996 Ti
atom 4.6419680100000003 0.0000000000000000 15.9029553799999981 Ti
atom 5.5448945200000006 1.4867811399999995 19.6419579199999959 O
atom 8.3810096400000020 1.4867811199999996 16.8059108799999990 O
atom 6.0600256200000020 0.0000000000000000 17.3209789699999988 O
atom 7.8658785400000006 0.0000000000000000 19.1268898399999969 O
atom 6.9629520100000022 4.4603434099999992 18.2239343399999996 Ti
atom 4.6419680100000003 2.9735622699999991 15.9029553799999981 Ti
atom 5.5448945200000006 4.4603434199999983 19.6419579300000002 O
atom 8.3810096400000020 4.4603433999999993 16.8059108699999982 O
atom 6.0600256200000020 2.9735622699999991 17.3209789699999988 O
atom 7.8658785400000006 2.9735622699999991 19.1268898399999969 O
atom 2.3209840400000008 1.4867811399999995 22.8658923099999996 Ti
atom 9.2839360399999986 0.0000000100000000 29.8288291599999980 Ti
atom 0.9029265000000000 1.4867811300000000 24.2839158800000021 O
atom 3.7390416200000010 1.4867811399999995 21.4478688200000001 O
atom 1.4180575900000001 0.0000000000000000 21.9629368900000017 O
atom 3.2239105299999999 0.0000000000000000 23.7688477899999988 O
atom 2.3209840400000008 4.4603433999999993 22.8658923099999996 Ti
atom 9.2839360299999996 2.9735622699999991 29.8288291599999980 Ti
atom 0.9029265000000000 4.4603433999999993 24.2839158800000021 O
atom 3.7390416300000004 4.4603434099999992 21.4478688200000001 O
atom 1.4180575900000001 2.9735622699999991 21.9629368900000017 O
atom 3.2239105299999999 2.9735622699999991 23.7688477899999988 O
atom 6.9629519999999996 1.4867811300000000 22.8658923200000004 Ti
atom 4.6419680000000003 0.0000000100000000 29.8288291699999988 Ti
atom 5.5448945299999997 1.4867811300000000 24.2839158899999994 O
atom 8.3810096299999994 1.4867811300000000 21.4478688200000001 O
atom 6.0600256000000012 0.0000000000000000 21.9629369099999998 O
atom 7.8658785300000016 0.0000000000000000 23.7688478100000005 O
atom 6.9629519900000014 4.4603434099999992 22.8658923200000004 Ti
atom 4.6419680100000003 2.9735622799999990 29.8288291699999988 Ti
atom 5.5448945299999997 4.4603433999999993 24.2839158899999994 O
atom 8.3810096299999994 4.4603434099999992 21.4478688099999992 O
atom 6.0600256100000003 2.9735622699999991 21.9629369099999998 O
atom 7.8658785300000016 2.9735622699999991 23.7688478100000005 O
atom 2.3209840500000003 1.4867811399999995 27.5078502000000000 Ti
atom 9.2839360500000030 5.9471245299999991 25.1868712600000002 Ti
atom 0.9029265000000000 1.4867811399999995 28.9258737999999980 O
atom 3.7390416400000004 1.4867811300000000 26.0898267600000011 O
atom 1.4180576000000003 0.0000000000000000 26.6048948299999992 O
atom 3.2239105299999999 0.0000000000000000 28.4108056999999974 O
atom 2.3209840500000003 4.4603434099999992 27.5078502100000009 Ti
atom 9.2839360399999986 2.9735622600000000 25.1868712499999994 Ti
atom 0.9029265000000000 4.4603434099999992 28.9258737999999980 O
atom 3.7390416400000004 4.4603434099999992 26.0898267600000011 O
atom 1.4180576000000003 2.9735622699999991 26.6048948299999992 O
atom 3.2239105399999999 2.9735622699999991 28.4108056999999974 O
atom 6.9629519999999996 1.4867811399999995 27.5078502199999981 Ti
atom 4.6419680100000003 0.0000000000000000 25.1868712600000002 Ti
atom 5.5448945200000006 1.4867811399999995 28.9258737999999980 O
atom 8.3810096400000020 1.4867811199999996 26.0898267600000011 O
atom 6.0600256200000020 0.0000000000000000 26.6048948499999973 O
atom 7.8658785400000006 0.0000000000000000 28.4108057199999990 O
atom 6.9629520100000022 4.4603434099999992 27.5078502199999981 Ti
atom 4.6419680100000003 2.9735622699999991 25.1868712600000002 Ti
atom 5.5448945200000006 4.4603434199999983 28.9258738099999988 O
atom 8.3810096400000020 4.4603433999999993 26.0898267500000003 O
atom 6.0600256200000020 2.9735622699999991 26.6048948499999973 O
atom 7.8658785400000006 2.9735622699999991 28.4108057199999990 O
atom 2.3209840400000008 1.4867811399999995 32.1498081900000017 Ti
atom 9.2839360399999986 0.0000000100000000 39.1127450400000001 Ti
atom 0.9029265000000000 1.4867811300000000 33.5678317600000042 O
atom 3.7390416200000010 1.4867811399999995 30.7317846999999986 O
atom 1.4180575900000001 0.0000000000000000 31.2468527700000038 O
atom 3.2239105299999999 0.0000000000000000 33.0527636699999974 O
atom 2.3209840400000008 4.4603433999999993 32.1498081900000017 Ti
atom 9.2839360299999996 2.9735622699999991 39.1127450400000001 Ti
atom 0.9029265000000000 4.4603433999999993 33.5678317600000042 O
atom 3.7390416300000004 4.4603434099999992 30.7317846999999986 O
atom 1.4180575900000001 2.9735622699999991 31.2468527700000038 O
atom 3.2239105299999999 2.9735622699999991 33.0527636699999974 O
atom 6.9629519999999996 1.4867811300000000 32.1498081999999954 Ti
atom 4.6419680000000003 0.0000000100000000 39.1127450500000009 Ti
atom 5.5448945299999997 1.4867811300000000 33.5678317699999980 O
atom 8.3810096299999994 1.4867811300000000 30.7317846999999986 O
atom 6.0600256000000012 0.0000000000000000 31.2468527899999984 O
atom 7.8658785300000016 0.0000000000000000 33.0527636899999990 O
atom 6.9629519900000014 4.4603434099999992 32.1498081999999954 Ti
atom 4.6419680100000003 2.9735622799999990 39.1127450500000009 Ti
atom 5.5448945299999997 4.4603433999999993 33.5678317699999980 O
atom 8.3810096299999994 4.4603434099999992 30.7317846899999978 O
atom 6.0600256100000003 2.9735622699999991 31.2468527899999984 O
atom 7.8658785300000016 2.9735622699999991 33.0527636899999990 O
atom 2.3209840500000003 1.4867811399999995 36.7917660800000021 Ti
atom 9.2839360500000030 5.9471245299999991 34.4707871399999988 Ti
atom 0.9029265000000000 1.4867811399999995 38.2097896800000001 O
atom 3.7390416400000004 1.4867811300000000 35.3737426400000032 O
atom 1.4180576000000003 0.0000000000000000 35.8888107100000013 O
atom 3.2239105299999999 0.0000000000000000 37.6947215799999924 O
atom 2.3209840500000003 4.4603434099999992 36.7917660899999959 Ti
atom 9.2839360399999986 2.9735622600000000 34.4707871299999979 Ti
atom 0.9029265000000000 4.4603434099999992 38.2097896800000001 O
atom 3.7390416400000004 4.4603434099999992 35.3737426400000032 O
atom 1.4180576000000003 2.9735622699999991 35.8888107100000013 O
atom 3.2239105399999999 2.9735622699999991 37.6947215799999924 O
atom 6.9629519999999996 1.4867811399999995 36.7917661000000038 Ti
atom 4.6419680100000003 0.0000000000000000 34.4707871399999988 Ti
atom 5.5448945200000006 1.4867811399999995 38.2097896800000001 O
atom 8.3810096400000020 1.4867811199999996 35.3737426400000032 O
atom 6.0600256200000020 0.0000000000000000 35.8888107299999959 O
atom 7.8658785400000006 0.0000000000000000 37.6947216000000012 O
atom 6.9629520100000022 4.4603434099999992 36.7917661000000038 Ti
atom 4.6419680100000003 2.9735622699999991 34.4707871399999988 Ti
atom 5.5448945200000006 4.4603434199999983 38.2097896900000009 O
atom 8.3810096400000020 4.4603433999999993 35.3737426300000024 O
atom 6.0600256200000020 2.9735622699999991 35.8888107299999959 O
atom 7.8658785400000006 2.9735622699999991 37.6947216000000012 O
atom 2.3209840400000008 1.4867811399999995 41.4337240699999967 Ti
atom 3.7390416200000010 1.4867811399999995 40.0157005799999936 O
atom 1.4180575900000001 0.0000000000000000 40.5307686499999988 O
atom 3.2239105299999999 0.0000000000000000 42.3366795499999995 O
atom 2.3209840400000008 4.4603433999999993 41.4337240699999967 Ti
atom 3.7390416300000004 4.4603434099999992 40.0157005799999936 O
atom 1.4180575900000001 2.9735622699999991 40.5307686499999988 O
atom 3.2239105299999999 2.9735622699999991 42.3366795499999995 O
atom 6.9629519999999996 1.4867811300000000 41.4337240799999975 Ti
atom 8.3810096299999994 1.4867811300000000 40.0157005799999936 O
atom 6.0600256000000012 0.0000000000000000 40.5307686700000005 O
atom 7.8658785300000016 0.0000000000000000 42.3366795700000011 O
atom 6.9629519900000014 4.4603434099999992 41.4337240799999975 Ti
atom 8.3810096299999994 4.4603434099999992 40.0157005699999999 O
atom 6.0600256100000003 2.9735622699999991 40.5307686700000005 O
atom 7.8658785300000016 2.9735622699999991 42.3366795700000011 O
