#===============================================================================
# Created using the Atomic Simulation Environment (ASE)

# Mon Mar 23 14:01:36 2026

#=======================================================
lattice_vector 13.1294540471338479 0.0000000000000000 0.0000000000000000 
lattice_vector 0.0000000000000000 5.9471245399999999 0.0000000000000000 
lattice_vector 0.0000000000000000 0.0000000000000000 35.8362662009849871 
atom 13.1294182852083896 4.4603433999999993 16.2769513163203925 Ti
atom 6.5646841233986137 5.9471245299999991 19.5593147326366648 Ti
atom 2.0053764229755782 4.4603434099999992 16.2769294797546920 O
atom 11.1240061285915299 4.4603433999999993 16.2769732377389289 O
atom 13.1293991908980416 0.0000000000000000 15.0000000000000000 O
atom 13.1294373936607940 0.0000000000000000 17.5539027033514792 O
atom 13.1294182852083896 1.4867811400000002 16.2769513163203925 Ti
atom 6.5646841304696899 2.9735622699999995 19.5593147255656064 Ti
atom 2.0053764229755782 1.4867811400000002 16.2769294797546920 O
atom 11.1240061215204538 1.4867811300000000 16.2769732448099909 O
atom 13.1293991908980416 2.9735622699999995 15.0000000000000000 O
atom 13.1294373936607940 2.9735622699999995 17.5539027033514792 O
atom 9.8470476952861077 4.4603434099999992 19.5593147715275997 Ti
atom 9.8470547840316183 5.9471245299999991 16.2769512350031214 Ti
atom 11.8524598306896198 4.4603434099999992 19.5592929844593257 O
atom 9.8470285726914462 0.0000000000000000 18.2823634976335896 O
atom 9.8470477023571821 1.4867811300000000 19.5593147644565413 Ti
atom 9.8470547769605421 2.9735622600000000 16.2769512420741833 Ti
atom 11.8524598306896198 1.4867811400000002 19.5592929844593257 O
atom 9.8470285656203735 2.9735622699999995 18.2823635047046480 O
atom 3.2823205585820738 4.4603433999999993 19.5593147998117516 Ti
atom 3.2823277816778713 0.0000000099999998 16.2769512562163499 Ti
atom 5.2877327717673674 4.4603433999999993 19.5592929773882211 O
atom 3.2823014996270241 0.0000000000000000 18.2823635188467399 O
atom 3.2823205656531291 1.4867811300000000 19.5593148068828242 Ti
atom 3.2823277816778886 2.9735622800000003 16.2769512420742117 Ti
atom 5.2877327717673674 1.4867811300000000 19.5592929773882211 O
atom 3.2823014996270241 2.9735622699999995 18.2823635188467399 O
atom 6.5646913040679626 4.4603433999999993 16.2769512314676206 Ti
atom 13.1294111611076243 0.0000000000000000 19.5593147750630862 Ti
atom 8.5701034536136103 4.4603433999999993 16.2769294443993644 O
atom 4.5592791262378292 4.4603434199999983 16.2769732165257537 O
atom 6.5646721956153922 0.0000000000000000 15.0000000000000320 O
atom 6.5647103913071083 0.0000000000000000 17.5539026679961623 O
atom 6.5646912969968874 1.4867811300000000 16.2769512385386825 Ti
atom 13.1294111611076243 2.9735622699999995 19.5593147750630862 Ti
atom 8.5701034606846740 1.4867811199999996 16.2769294514704406 O
atom 4.5592791191667654 1.4867811400000002 16.2769732094546775 O
atom 6.5646721956153922 2.9735622699999995 15.0000000000000320 O
atom 6.5647103913071083 2.9735622699999995 17.5539026679961623 O
atom 7.8416354962428079 4.4603434099999992 19.5593367212303697 O
atom 9.8470667825252676 0.0000000000000000 20.8362661939140033 O
atom 7.8416354891717495 1.4867811300000000 19.5593367141592935 O
atom 9.8470667825252676 2.9735622699999995 20.8362661939140033 O
atom 1.2769084302494325 4.4603434099999992 19.5593367636567272 O
atom 3.2823396882476650 0.0000000000000000 20.8362661939139251 O
atom 1.2769084302494325 1.4867811300000000 19.5593367636567272 O
atom 3.2823396811765919 2.9735622699999995 20.8362662009849871 O
