#===============================================================================
# Created using the Atomic Simulation Environment (ASE)

# Mon Mar 23 14:01:31 2026

#=======================================================
lattice_vector 7.6004937600000506 0.0000000000000000 0.0000000000000000 
lattice_vector -0.0000000000000672 7.6004436200000214 0.0000000000000000 
lattice_vector 0.0000000000000000 0.0000000000000000 69.8245663249996085 
atom 0.0000046413884537 7.6004405965652442 22.7358489999999307 Ti
atom 1.9001274974648799 1.9001082682446226 17.8652829949999798 Ti
atom 1.9001276894290100 7.6004407324033840 20.3005863999999576 Ti
atom 0.0000037255054556 1.9001084140827340 15.4300207749999956 Ti
atom 0.0000040376773056 1.9001082910593681 17.4352715749999803 O
atom 1.9001276096404438 1.9001080452188095 19.8705658649999677 O
atom 1.9001274172534550 7.6004409654291916 18.2953036099999835 O
atom 0.0000043292165916 7.6004407195886170 20.7305980999999591 O
atom 1.9001280416008932 7.6004406293799978 22.3058374799999299 O
atom 0.0000036857167598 7.6004411568982091 15.0000000000000000 O
atom 1.9001272052930152 1.9001084012679978 15.8600320749999995 O
atom 0.0000046513884873 3.8002187765652327 22.7358489999999165 Ti
atom 1.9001274974648552 5.7003300782446269 17.8652830749999794 Ti
atom 1.9001276894290422 3.8002189024033743 20.3005863899999568 Ti
atom 0.0000036955054255 5.7003302240827427 15.4300208050000052 Ti
atom 0.0000040576772790 5.7003300810593736 17.4352716349999710 O
atom 1.9001276096404167 5.7003298652188157 19.8705659249999727 O
atom 1.9001274172534897 3.8002191354291797 18.2953036199999914 O
atom 0.0000043292166252 3.8002188795886069 20.7305980999999448 O
atom 1.9001280516009280 3.8002188093799862 22.3058374899999237 O
atom 0.0000036857167933 3.8002193468981984 15.0000000000000000 O
atom 1.9001271952929917 5.7003301912680016 15.8600321649999998 O
atom 3.8002515113884754 7.6004405965652468 22.7358489699999211 Ti
atom 5.7003744374649061 1.9001082582446223 17.8652830049999665 Ti
atom 5.7003746394290360 7.6004407624033847 20.3005863999999434 Ti
atom 3.8002505855054833 1.9001084040827321 15.4300208050000052 Ti
atom 3.8002509376773403 1.9001082910593625 17.4352716549999727 O
atom 5.7003746496404775 1.9001080452188042 19.8705659349999451 O
atom 5.7003745772534806 7.6004409254291918 18.2953036099999551 O
atom 3.8002512092166070 7.6004407195886232 20.7305980199999524 O
atom 5.7003749116009192 7.6004406593799967 22.3058374899999379 O
atom 3.8002505757167913 7.6004411468982056 15.0000000499999970 O
atom 5.7003740752930492 1.9001084012679927 15.8600321449999981 O
atom 3.8002515113885096 3.8002187765652349 22.7358489799999290 Ti
atom 5.7003744374648821 5.7003300682446261 17.8652830749999652 Ti
atom 5.7003746294290698 3.8002188724033732 20.3005863999999434 Ti
atom 3.8002505955054544 5.7003302140827392 15.4300208449999943 Ti
atom 3.8002509076773130 5.7003300810593691 17.4352717049999839 O
atom 5.7003746496404366 5.7003298652188192 19.8705658749999543 O
atom 5.7003745772535162 3.8002191454291792 18.2953036199999488 O
atom 3.8002512092166421 3.8002188895886122 20.7305980299999462 O
atom 5.7003749216009538 3.8002187793799851 22.3058374999999316 O
atom 3.8002505757168237 3.8002193368981958 15.0000000399999962 O
atom 5.7003740752930128 5.7003301812680052 15.8600321150000028 O
atom 1.9001286953123426 1.9001074948857091 27.6064166349998814 Ti
atom 1.9001289072765992 7.6004399590443876 30.0417211299998570 Ti
atom 0.0000069470833561 7.6004390698474333 42.2181160799997386 Ti
atom 0.0000048533527836 1.9001076307239100 25.1711532449998998 Ti
atom 0.0000051855246966 1.9001074877005020 27.1764045949998803 O
atom 1.9001289374879471 1.9001072818598694 29.6116998549998485 O
atom 1.9001287951009893 7.6004401920702316 28.0364378599998716 O
atom 0.0000054870641861 7.6004399462296170 30.4717328699998546 O
atom 1.9001291994484848 7.6004398460209996 32.0469722299998310 O
atom 0.0000048435640657 7.6004403835393992 24.7411322799999098 O
atom 0.0000046911771891 1.9001078537497420 23.1658701249999197 O
atom 1.9001283331404362 1.9001075979091115 25.6011653549998996 O
atom 1.9001298031597824 1.9001067415268111 37.3475500749997806 Ti
atom 1.9001299951239130 7.6004392056855732 39.7828534799997655 Ti
atom 0.0000057992360902 7.6004398332062166 32.4769841399998285 Ti
atom 0.0000060312003577 1.9001068873649223 34.9122878549998035 Ti
atom 0.0000063433722081 1.9001067643415566 36.9175386549997810 O
atom 1.9001299153353464 1.9001065185009982 39.3528329449997685 O
atom 1.9001297229483578 7.6004394387113807 37.7775706899997914 O
atom 0.0000066349114954 7.6004391928708044 40.2128651799997670 O
atom 1.9001303472957958 7.6004391026621860 41.7881045599997378 O
atom 0.0000059914116635 7.6004396301803974 34.4822670799998079 O
atom 0.0000058290247688 1.9001070903907513 32.9070047749998338 O
atom 1.9001295109879175 1.9001068745501861 35.3422991549998002 O
atom 1.9001286853123092 5.7003293248857192 27.6064166349998814 Ti
atom 1.9001289072766314 3.8002181490443769 30.0417211199998491 Ti
atom 0.0000069570833897 3.8002172498474218 42.2181160799997244 Ti
atom 0.0000048533527483 5.7003294607239203 25.1711532349999132 Ti
atom 0.0000051755246619 5.7003293577005127 27.1764045849998865 O
atom 1.9001289274879123 5.7003290918598797 29.6116998449998547 O
atom 1.9001287951010206 3.8002183820702218 28.0364378399998557 O
atom 0.0000054870642197 3.8002181462296067 30.4717328799998555 O
atom 1.9001291994485170 3.8002180560209888 32.0469722199998373 O
atom 0.0000048435641009 3.8002185735393876 24.7411322999999044 O
atom 0.0000046811771544 5.7003296637497529 23.1658701149999260 O
atom 1.9001283331404015 5.7003294779091229 25.6011653449999130 O
atom 1.9001298031597578 5.7003285515268152 37.3475501549997873 Ti
atom 1.9001299951239452 3.8002173756855631 39.7828534699997647 Ti
atom 0.0000057992361237 3.8002180332062045 32.4769841399998356 Ti
atom 0.0000060012003276 5.7003286973649301 34.9122878849998060 Ti
atom 0.0000063633721814 5.7003285543415618 36.9175387149997718 O
atom 1.9001299153353197 5.7003283385010040 39.3528330049997805 O
atom 1.9001297229483922 3.8002176087113679 37.7775706999997922 O
atom 0.0000066349115273 3.8002173528707952 40.2128651799997527 O
atom 1.9001303572958310 3.8002172826621741 41.7881045699997387 O
atom 0.0000059914116971 3.8002178201803871 34.4822670799998079 O
atom 0.0000057990247365 5.7003289103907600 32.9070047849998275 O
atom 1.9001295009878942 5.7003286645501889 35.3422992449998077 O
atom 5.7003755353123688 1.9001074848857091 27.6064166349998814 Ti
atom 5.7003757472766265 7.6004399690443867 30.0417211299998641 Ti
atom 3.8002538170833775 7.6004390698474342 42.2181160499997361 Ti
atom 3.8002517233528046 1.9001076307239118 25.1711532249999053 Ti
atom 3.8002520655247154 1.9001074877005066 27.1764045349998753 O
atom 5.7003756474879737 1.9001072818598694 29.6116998549998698 O
atom 5.7003754851010147 7.6004401920702316 28.0364378599998858 O
atom 3.8002523670642181 7.6004399362296127 30.4717329399998533 O
atom 5.7003760894485094 7.6004398660209995 32.0469722199998230 O
atom 3.8002516835640852 7.6004403835394019 24.7411322399999065 O
atom 3.8002515211772110 1.9001078537497444 23.1658700949999314 O
atom 5.7003752231404592 1.9001075879091132 25.6011653349998980 O
atom 5.7003767431598105 1.9001067315268105 37.3475500849997815 Ti
atom 5.7003769451239377 7.6004392356855730 39.7828534799997584 Ti
atom 3.8002526792361189 7.6004398132062141 32.4769841699998238 Ti
atom 3.8002528912003855 1.9001068773649201 34.9122878849998060 Ti
atom 3.8002532433722420 1.9001067643415506 36.9175387349997806 O
atom 5.7003769553353809 1.9001065185009927 39.3528330149997458 O
atom 5.7003768829483832 7.6004393987113801 37.7775706899997630 O
atom 3.8002535149115100 7.6004391928708115 40.2128650999997603 O
atom 5.7003772172958209 7.6004391326621850 41.7881045699997387 O
atom 3.8002528814116929 7.6004396201803930 34.4822671299998120 O
atom 3.8002527090248002 1.9001070803907476 32.9070048249998308 O
atom 5.7003763809879526 1.9001068745501808 35.3422992249998131 O
atom 5.7003755253123360 5.7003293148857193 27.6064166349998814 Ti
atom 5.7003757372766586 3.8002181490443765 30.0417211299998641 Ti
atom 3.8002538170834117 3.8002172498474227 42.2181160599997298 Ti
atom 3.8002517133527705 5.7003294607239221 25.1711532149999115 Ti
atom 3.8002520555246804 5.7003293577005181 27.1764045249998816 O
atom 5.7003756374879400 5.7003290918598797 29.6116998549998698 O
atom 5.7003754851010466 3.8002183820702222 28.0364378399998841 O
atom 3.8002523670642523 3.8002181462296023 30.4717329399998533 O
atom 5.7003760794485441 3.8002180360209894 32.0469722199998373 O
atom 3.8002516835641211 3.8002185735393907 24.7411322599999224 O
atom 3.8002515411771758 5.7003296637497556 23.1658700849999377 O
atom 5.7003752231404254 5.7003294679091239 25.6011653349999051 O
atom 5.7003767431597838 5.7003285415268135 37.3475501549997801 Ti
atom 5.7003769351239724 3.8002173456855624 39.7828534799997442 Ti
atom 3.8002526792361522 3.8002180232062037 32.4769841699998238 Ti
atom 3.8002529012003565 5.7003286873649266 34.9122879249998093 Ti
atom 3.8002532133722151 5.7003285543415574 36.9175387849997776 O
atom 5.7003769553353392 5.7003283385010075 39.3528329549997551 O
atom 5.7003768829484178 3.8002176187113683 37.7775706999997638 O
atom 3.8002535149115442 3.8002173628708005 40.2128651099997612 O
atom 5.7003772272958564 3.8002172526621734 41.7881045799997324 O
atom 3.8002528814117258 3.8002178101803841 34.4822671199998112 O
atom 3.8002527290247667 5.7003289003907582 32.9070048249998308 O
atom 5.7003763809879144 5.7003286545501926 35.3422991949998035 O
atom 1.9001310010072452 1.9001059681678978 47.0886837149996822 Ti
atom 1.9001312129715018 7.6004384323265759 49.5239882099996649 Ti
atom 0.0000071590476857 1.9001061040060985 44.6534203249997077 Ti
atom 0.0000074912195991 1.9001059609826905 46.6586716749996810 O
atom 1.9001312431828492 1.9001057551420582 49.0939669349996635 O
atom 1.9001311007958919 7.6004386653524199 47.5187049399996724 O
atom 0.0000077927590865 7.6004384195118062 49.9539999499996625 O
atom 1.9001315051433874 7.6004383193031879 51.5292393099996175 O
atom 0.0000071492589678 7.6004388568215884 44.2233993599997177 O
atom 0.0000069968720915 1.9001063270319303 42.6481372049997347 O
atom 1.9001306388353387 1.9001060711913003 45.0834324349997146 O
atom 0.0000081049309926 7.6004383064884049 51.9592512199996364 Ti
atom 0.0000083368952598 1.9001053606471108 54.3945549349996114 Ti
atom 0.0000082971065656 7.6004381034625865 53.9645341599996087 O
atom 0.0000081347196713 1.9001055636729396 52.3892718549996417 O
atom 1.9001318166828196 1.9001053478323746 54.8245662349996294 O
atom 1.9001309910072113 5.7003277981679084 47.0886837149996822 Ti
atom 1.9001312129715340 3.8002166223265657 49.5239881999996854 Ti
atom 0.0000071590476504 5.7003279340061104 44.6534203149997211 Ti
atom 0.0000074812195643 5.7003278309827028 46.6586716649996944 O
atom 1.9001312331828144 5.7003275651420688 49.0939669249996555 O
atom 1.9001311007959227 3.8002168553524101 47.5187049199996707 O
atom 0.0000077927591218 3.8002166195117946 49.9539999599996705 O
atom 1.9001315051434196 3.8002165293031767 51.5292392999996380 O
atom 0.0000071492590047 3.8002170468215755 44.2233993799997123 O
atom 0.0000069868720568 5.7003281370319412 42.6481371949997339 O
atom 1.9001306388353039 5.7003279511913121 45.0834324249997209 O
atom 0.0000081049310262 3.8002165064883928 51.9592512199996364 Ti
atom 0.0000083068952297 5.7003271706471184 54.3945549649996067 Ti
atom 0.0000082971065992 3.8002162934625754 53.9645341599996087 O
atom 0.0000081047196386 5.7003273836729491 52.3892718649996212 O
atom 1.9001318066827968 5.7003271378323781 54.8245663249996156 O
atom 5.7003778410072705 1.9001059581678976 47.0886837149996822 Ti
atom 5.7003780529715273 7.6004384423265767 49.5239882099996649 Ti
atom 3.8002540290477076 1.9001061040060998 44.6534203049997203 Ti
atom 3.8002543712196184 1.9001059609826951 46.6586716149996832 O
atom 5.7003779531828744 1.9001057551420582 49.0939669349996635 O
atom 5.7003777907959163 7.6004386653524199 47.5187049399997008 O
atom 3.8002546727591211 7.6004384095118001 49.9540000199996612 O
atom 5.7003783951434110 7.6004383393031887 51.5292392999996380 O
atom 3.8002539892589882 7.6004388568215902 44.2233993199997215 O
atom 3.8002538268721140 1.9001063270319327 42.6481371749997393 O
atom 5.7003775288353618 1.9001060611913017 45.0834324149997130 O
atom 3.8002549849310219 7.6004382864884024 51.9592512499996317 Ti
atom 3.8002551968952885 1.9001053506471088 54.3945549649996067 Ti
atom 3.8002551871065959 7.6004380934625821 53.9645342099996199 O
atom 3.8002550147197023 1.9001055536729359 52.3892719049996245 O
atom 5.7003786866828534 1.9001053478323695 54.8245663049995997 O
atom 5.7003778310072377 5.7003277881679084 47.0886837149996822 Ti
atom 5.7003780429715603 3.8002166223265652 49.5239882099996933 Ti
atom 3.8002540190476726 5.7003279340061104 44.6534202949997123 Ti
atom 3.8002543612195825 5.7003278309827063 46.6586716049996824 O
atom 5.7003779431828416 5.7003275651420680 49.0939669349996635 O
atom 5.7003777907959474 3.8002168553524101 47.5187049199996991 O
atom 3.8002546727591544 3.8002166195117906 49.9540000199996612 O
atom 5.7003783851434449 3.8002165093031772 51.5292392999996380 O
atom 3.8002539892590232 3.8002170468215790 44.2233993399997232 O
atom 3.8002538468720779 5.7003281370319439 42.6481371649997385 O
atom 5.7003775288353289 5.7003279411913130 45.0834324149997201 O
atom 3.8002549849310552 3.8002164964883911 51.9592512499996317 Ti
atom 3.8002552068952595 5.7003271606471166 54.3945550049996100 Ti
atom 3.8002551871066284 3.8002162834625719 53.9645341999996120 O
atom 3.8002550347196689 5.7003273736729465 52.3892719049996245 O
atom 5.7003786866828179 5.7003271278323826 54.8245662749996043 O
