#===============================================================================
# Created using the Atomic Simulation Environment (ASE)

# Mon Mar 23 14:01:35 2026

#=======================================================
lattice_vector 11.0253972427838800 0.0000000000000000 0.0000000000000000 
lattice_vector 0.0000000000000000 9.2839361000000000 0.0000000000000000 
lattice_vector 0.0000000000000000 0.0000000000000000 41.5453013048020452 
atom 7.8175045723620400 9.2839360400000004 15.7648851124725091 Ti
atom 10.5738539416719366 2.3209840399999999 15.7648851322059258 Ti
atom 9.3798098118686646 3.7390416300000000 15.0000000203923065 O
atom 1.1107618824777667 3.2239105299999999 15.0000000161820655 O
atom 7.8175045807825221 4.6419680000000003 15.7648851178665321 Ti
atom 9.3798098034481843 8.3810096299999994 15.0000000149982853 O
atom 1.1107618993187294 7.8658785299999998 15.0000000269701133 O
atom 5.0611552727835614 2.3209840499999999 15.7648851136562911 Ti
atom 3.8671111958707485 3.7390416399999999 15.0000000119718262 O
atom 6.6234604786082603 3.2239105299999999 15.0000000000000000 O
atom 2.3048059870195945 9.2839360400000004 15.7648851118136157 Ti
atom 5.0611552896245291 6.9629519999999996 15.7648851244443371 Ti
atom 3.8671112012647697 8.3810096400000020 15.0000000035513441 O
atom 6.6234604954492253 7.8658785400000006 15.0000000107880442 O
atom 2.3048059900460514 4.6419680100000003 15.7648851256281191 Ti
atom 8.9699076332356942 2.3209840399999999 18.2687678915803602 Ti
atom 4.6096119662775994 9.2839360400000004 20.7726506143804173 Ti
atom 10.1639518304028194 0.9029265000000000 19.0336530465461600 O
atom 7.7758635088264469 3.7390416200000001 17.5038827713462624 O
atom 9.0115488032110989 1.4180575900000001 16.5297702890144009 O
atom 10.5322128222194245 3.2239105299999999 17.5038827671360231 O
atom 7.3659613355874951 2.3209840399999999 20.7726506341138339 Ti
atom 6.2135582747138427 9.2839360299999996 18.2687678550059829 Ti
atom 0.7425008906611615 0.9029265000000000 16.5297702955922077 O
atom 6.1719172057842240 3.7390416300000000 20.0077655223002182 O
atom 7.4076025001688741 1.4180575900000001 19.0336530399683568 O
atom 8.9282665191772033 3.2239105299999999 20.0077655180899754 O
atom 8.9699076470501975 6.9629519999999996 18.2687678885538993 Ti
atom 4.6096119746980788 4.6419680000000003 20.7726506197744420 Ti
atom 10.1639518388233014 5.5448945299999997 19.0336530519401848 O
atom 7.7758635142204682 8.3810096299999994 17.5038827629257803 O
atom 9.0115488200520595 6.0600256000000012 16.5297702998024469 O
atom 10.5322128390603922 7.8658785299999998 17.5038827779240691 O
atom 10.5738539446983992 6.9629519900000014 15.7648851460204291 Ti
atom 6.2135582777403000 4.6419680100000003 18.2687678688204862 Ti
atom 0.7425008990816441 5.5448945299999997 16.5297703009862289 O
atom 6.1719171973637437 8.3810096299999994 20.0077655169061934 O
atom 7.4076025170098365 6.0600256100000003 19.0336530507563992 O
atom 8.9282665360181710 7.8658785299999998 20.0077655288780214 O
atom 1.8532626666991210 2.3209840499999999 20.7726506155641957 Ti
atom 0.7008596923978544 9.2839360499999994 18.2687678681615928 Ti
atom 6.2551994898181125 0.9029265000000000 16.5297702932246438 O
atom 0.6592185897863100 3.7390416399999999 20.0077655138797326 O
atom 1.8949038787769366 1.4180576000000003 19.0336530399683568 O
atom 3.4155678725238179 3.2239105299999999 20.0077655019079046 O
atom 3.4572089781618263 2.3209840499999999 18.2687678700042682 Ti
atom 10.1223106237190272 9.2839360400000004 20.7726506137215239 Ti
atom 4.6512531867758922 0.9029265000000000 19.0336530441785960 O
atom 2.2631648874345069 3.7390416399999999 17.5038827713462624 O
atom 3.4988501818191571 1.4180576000000003 16.5297702890144009 O
atom 5.0195141755660408 3.2239105399999999 17.5038827509539523 O
atom 1.8532626835400861 6.9629519999999996 20.7726506263522452 Ti
atom 0.7008596870038308 4.6419680100000003 18.2687678765820749 Ti
atom 6.2551994898181125 5.5448945200000015 16.5297702932246438 O
atom 0.6592185951803335 8.3810096400000020 20.0077655054592540 O
atom 1.8949038956178994 6.0600256200000020 19.0336530507564028 O
atom 3.4155678893647834 7.8658785400000006 20.0077655126959542 O
atom 3.4572089865823088 6.9629520100000022 18.2687678753982929 Ti
atom 10.1223106267454899 4.6419680100000003 20.7726506275360272 Ti
atom 4.6512531898023513 5.5448945200000015 19.0336530579930994 O
atom 2.2631648844080452 8.3810096400000020 17.5038827575317590 O
atom 3.4988501986601221 6.0600256200000020 16.5297702998024469 O
atom 5.0195141924070033 7.8658785400000006 17.5038827617419983 O
atom 5.7620150271512536 2.3209840399999999 23.2765333934882683 Ti
atom 1.4017193601931581 9.2839360400000004 25.7804161162883219 Ti
atom 6.9560592243183779 0.9029265000000000 24.0414185484540681 O
atom 4.5679709027420081 3.7390416200000001 22.5116482732541741 O
atom 5.8036561971266565 1.4180575900000001 21.5375357909223126 O
atom 7.3243202161349803 3.2239105299999999 22.5116482690439312 O
atom 4.1580687295030536 2.3209840399999999 25.7804161360217421 Ti
atom 3.0056656686294043 9.2839360299999996 23.2765333569138946 Ti
atom 8.5600055273605999 0.9029265000000000 21.5375357975001158 O
atom 2.9640245996997856 3.7390416300000000 25.0155310242081264 O
atom 4.1997098940844353 1.4180575900000001 24.0414185418762685 O
atom 5.7203739130927627 3.2239105299999999 25.0155310199978871 O
atom 5.7620150409657569 6.9629519999999996 23.2765333904618075 Ti
atom 1.4017193686136431 4.6419680000000003 25.7804161216823502 Ti
atom 6.9560592327388626 5.5448945299999997 24.0414185538480965 O
atom 4.5679709081360267 8.3810096299999994 22.5116482648336884 O
atom 5.8036562139676162 6.0600256000000012 21.5375358017103551 O
atom 7.3243202329759480 7.8658785299999998 22.5116482798319772 O
atom 7.3659613386139569 6.9629519900000014 20.7726506479283373 Ti
atom 3.0056656716558612 4.6419680100000003 23.2765333707283979 Ti
atom 8.5600055357810803 5.5448945299999997 21.5375358028941406 O
atom 2.9640245912793004 8.3810096299999994 25.0155310188141016 O
atom 4.1997099109253959 6.0600256100000003 24.0414185526643109 O
atom 5.7203739299337322 7.8658785299999998 25.0155310307859295 O
atom 9.6707673033985593 2.3209840499999999 25.7804161174721074 Ti
atom 8.5183643290972917 9.2839360499999994 23.2765333700695010 Ti
atom 3.0473068837336719 0.9029265000000000 21.5375357951325519 O
atom 8.4767232264857437 3.7390416399999999 25.0155310157876407 O
atom 9.7124085154763762 1.4180576000000003 24.0414185418762685 O
atom 0.2076752664393771 3.2239105299999999 25.0155310038158163 O
atom 0.2493163720773879 2.3209840499999999 23.2765333719121799 Ti
atom 6.9144180176345857 9.2839360400000004 25.7804161156294356 Ti
atom 1.4433605806914538 0.9029265000000000 24.0414185460865042 O
atom 10.0806695241339455 3.7390416399999999 22.5116482732541705 O
atom 0.2909575757347185 1.4180576000000003 21.5375357909223126 O
atom 1.8116215694816000 3.2239105399999999 22.5116482528618604 O
atom 9.6707673202395252 6.9629519999999996 25.7804161282601534 Ti
atom 8.5183643237032705 4.6419680100000003 23.2765333784899831 Ti
atom 3.0473068837336719 5.5448945200000015 21.5375357951325519 O
atom 8.4767232318797685 8.3810096400000020 25.0155310073671586 O
atom 9.7124085323173368 6.0600256200000020 24.0414185526643109 O
atom 0.2076752832803423 7.8658785400000006 25.0155310146038623 O
atom 0.2493163804978681 6.9629520100000022 23.2765333773062011 Ti
atom 6.9144180206610519 4.6419680100000003 25.7804161294439353 Ti
atom 1.4433605837179153 5.5448945200000015 24.0414185599010111 O
atom 10.0806695211074846 8.3810096400000020 22.5116482594396672 O
atom 0.2909575925756788 6.0600256200000020 21.5375358017103551 O
atom 1.8116215863225651 7.8658785400000006 22.5116482636499100 O
atom 2.5957635910422128 1.4180575900000001 26.5453012928302208 O
atom 5.3521129212761593 0.9029265000000000 26.5453012994080240 O
atom 2.5957636078831730 6.0600256000000012 26.5453013036182632 O
atom 4.1580687325295109 6.9629519900000014 25.7804161498362419 Ti
atom 5.3521129296966352 5.5448945299999997 26.5453013048020452 O
atom 10.8648115204331113 0.9029265000000000 26.5453012970404600 O
atom 8.1084622124341479 1.4180576000000003 26.5453012928302172 O
atom 10.8648115204331113 5.5448945200000015 26.5453012970404600 O
atom 8.1084622292751138 6.0600256200000020 26.5453013036182632 O
