#===============================================================================
# Created using the Atomic Simulation Environment (ASE)

# Mon Mar 23 14:01:33 2026

#=======================================================
lattice_vector 11.0253972427838800 0.0000000000000000 0.0000000000000000 
lattice_vector 3.2078926060844428 10.5484209638685815 0.0000000000000000 
lattice_vector 0.0000000000000000 0.0000000000000000 41.0186868567188796 
atom 12.1778002393201419 9.0250929211425159 17.2037461642308429 Ti
atom 7.8175045723620435 5.7936400136093091 18.3056118495049631 Ti
atom 2.3464471937033853 7.4139019061406488 17.2037314960646910 O
atom 7.7758635088264461 0.0878629909922771 17.2037608819548815 O
atom 12.2194414092955412 9.0559772343820448 15.2445537298243892 O
atom 13.7401054283038722 10.1829038595858670 16.9592071473830543 O
atom 13.7817465477563825 10.2137881529849430 15.0000146655024658 Ti
atom 9.4214508807982913 6.9823352366504796 16.1018803460291764 Ti
atom 3.9503934967456060 8.6025971339855296 15.0000000047473954 O
atom 9.3798098118686699 1.2765582276384149 15.0000293953849955 O
atom 10.6154951062533218 7.8672820065371649 17.4482852211416812 O
atom 12.1778002531346417 4.9395775892785805 15.0000146275232105 Ti
atom 7.8175045807825239 1.7081247657603935 16.1018803676824938 Ti
atom 2.3464472021238674 3.3283866318879629 15.0000000000000000 O
atom 10.9837561203049088 6.5507686695639675 15.0000293642368732 O
atom 9.0115488200520630 2.5930714842763232 17.4482852116468905 O
atom 10.5738539446983992 3.7508823486348972 17.2037461215041816 Ti
atom 6.2135582777403062 0.5194295467167691 18.3056118637471954 Ti
atom 0.7425008990816518 2.1396914040430821 17.2037314913172921 O
atom 9.3798098034481843 5.3620734402823027 17.2037608582178336 O
atom 10.6154951230942842 3.7817667209224601 15.2445537250770009 O
atom 12.1361591421026151 4.9086933285237677 16.9592071331408540 O
atom 8.2690478788680135 10.2137881705924691 15.0000146539238628 Ti
atom 3.9087522984823000 6.9823352480074874 16.1018803671025843 Ti
atom 9.4630920959025602 8.6025971351095087 15.0000000026636400 O
atom 3.8671111958707520 1.2765582404372164 15.0000293927213235 O
atom 5.1027964848613854 7.8672820153384198 17.4482852258890944 O
atom 6.6651015842462717 9.0250929401868252 17.2037461499885751 Ti
atom 2.3048059870195985 5.7936400139221131 18.3056118489250501 Ti
atom 7.8591457928603417 7.4139019072646288 17.2037314939809356 O
atom 2.2631648874345096 0.0878630085947901 17.2037608914496971 O
atom 6.7067427879036012 9.0559772431833014 15.2445537345717952 O
atom 8.2274067816504868 10.1829038760694122 16.9592071378882032 O
atom 5.0611552896245300 3.7508823676792042 17.2037461072619138 Ti
atom 0.7008596870038317 0.5194295430320269 18.3056118705783675 Ti
atom 6.2551994898181187 2.1396913989265678 17.2037314797387140 O
atom 3.8671112012647795 5.3620734545178923 17.2037608528904968 O
atom 5.1027965017023469 3.7817667297237176 15.2445537298244105 O
atom 6.6234604954492280 4.9086933450073138 16.9592071236460029 O
atom 6.6651015926667521 4.9395776043253434 15.0000146206920277 Ti
atom 2.3048059900460549 1.7081247708769083 16.1018803792610754 Ti
atom 7.8591457958868007 3.3283866202131400 15.0000000005799166 O
atom 5.4710574904924938 6.5507686809259900 15.0000293642368661 O
atom 3.4988501986601213 2.5930715018788364 17.4482852211417026 O
atom 8.9699076332356995 6.6477024654527535 21.6112091468654306 Ti
atom 4.6096119662776065 3.4162495579195462 22.7130748321395544 Ti
atom 10.1639518304028247 5.0365114504508854 21.6111944786992822 O
atom 7.7758635088264505 8.2588934991710961 21.6112238645894763 O
atom 9.0115488032111006 6.6785867786922823 19.6520167124589804 O
atom 10.5322128222194316 7.8055134038961036 21.3666701300176456 O
atom 10.5738539416719384 7.8363976972951805 19.4074776481370534 Ti
atom 6.2135582747138471 4.6049447809607154 20.5093433286637712 Ti
atom 11.7678981334450441 6.2252066782957662 19.4074629873819831 O
atom 9.3798098118686699 9.4475887358172326 19.4074923780195867 O
atom 7.4076025001688803 5.4898915508474024 21.8557482037762725 O
atom 12.1361591252616527 8.9942086317409853 19.1629386387003500 O
atom 8.9699076470501975 2.5621871335888176 19.4074776101578017 Ti
atom 7.8175045807825327 9.8791552739392117 20.5093433503170850 Ti
atom 10.1639518388233032 0.9509961761982004 19.4074629826345841 O
atom 7.7758635142204726 4.1733782138742050 19.4074923468714644 O
atom 5.8036562139676242 0.2156810285865595 21.8557481942814817 O
atom 10.5322128390603922 3.7199981006788865 19.1629386244581461 O
atom 7.3659613386139577 1.3734918929451347 21.6112091041387657 Ti
atom 6.2135582777403080 8.6904600548955866 22.7130748463817866 Ti
atom 11.7678981418655333 10.3107219122219007 21.6111944739518833 O
atom 6.1719171973637490 2.9846829845925402 21.6112238408524249 O
atom 7.4076025170098454 1.4043762652326974 19.6520167077115886 O
atom 8.9282665360181710 2.5313028728340052 21.3666701157754417 O
atom 5.0611552727835676 7.8363977149027058 19.4074776365584540 Ti
atom 11.7262569351817341 4.6049447923177249 20.5093433497371720 Ti
atom 6.2551994898181231 6.2252066794197463 19.4074629852982312 O
atom 3.8671111958707560 9.4475887486160364 19.4074923753559112 O
atom 1.8949038787769446 5.4898915596486582 21.8557482085236856 O
atom 6.6234604786082674 8.9942086394232721 19.1629386244580928 O
atom 3.4572089781618298 6.6477024844970600 21.6112091326231663 Ti
atom 10.1223106237190379 3.4162495582323520 22.7130748315596378 Ti
atom 4.6512531867758966 5.0365114515748646 21.6111944766155268 O
atom 13.2885621302183914 8.2588935167736075 21.6112238740842884 O
atom 3.4988501818191606 6.6785867874935390 19.6520167172063864 O
atom 5.0195141755660471 7.8055134203796488 21.3666701205227980 O
atom 1.8532626835400940 1.3734919119894409 21.6112090898965050 Ti
atom 11.7262569297877164 8.6904600512108452 22.7130748532129587 Ti
atom 6.2551994898181178 10.3107219071053855 21.6111944623733052 O
atom 11.6846158379642127 2.9846829988281294 21.6112238355250881 O
atom 1.8949038956179007 1.4043762740339552 19.6520167124589982 O
atom 3.4155678893647914 2.5313028893175504 21.3666701062805942 O
atom 3.4572089865823155 2.5621871486355805 19.4074776033266190 Ti
atom 13.3302032328299358 9.8791552790557269 20.5093433618956595 Ti
atom 4.6512531898023592 0.9509961645233768 19.4074629832145114 O
atom 2.2631648844080505 4.1733782252362275 19.4074923468714537 O
atom 0.2909575925756900 0.2156810461890742 21.8557482037762938 O
atom 5.0195141924070068 3.7199981171624317 19.1629386149632985 O
atom 5.7620150271512527 4.2703120097629919 26.0186721295000183 Ti
atom 6.9560592243183876 2.6591209947611230 26.0186574613338735 O
atom 4.5679709027420046 5.8815030434813336 26.0186868472240640 O
atom 5.8036561971266627 4.3011963230025199 24.0594796950935716 O
atom 7.3243202161349910 5.4281229482063402 25.7741331126522404 O
atom 7.3659613355875040 5.4590072416054189 23.8149406307716447 Ti
atom 3.0056656686294057 2.2275543252709542 24.9168063112983589 Ti
atom 8.5600055273606035 3.8478162226060042 23.8149259700165743 O
atom 6.1719172057842249 7.0701982801274701 23.8149553606541815 O
atom 8.9282665191772068 6.6168181760512228 23.5704016213349377 O
atom 5.7620150409657578 0.1847966778990548 23.8149405927923929 Ti
atom 4.6096119746980824 7.5017648182494518 24.9168063329516727 Ti
atom 10.1639518388233032 9.1220266843770190 23.8149259652691789 O
atom 4.5679709081360365 1.7959877581844412 23.8149553295060628 O
atom 7.3243202329759516 1.3426076449891244 23.5704016070927338 O
atom 7.3659613386139648 9.5445224011239524 26.0186720867733605 Ti
atom 8.5600055357810874 7.9333314565321400 26.0186574565864746 O
atom 2.9640245912793080 0.6072925289027785 26.0186868234870126 O
atom 7.4076025170098516 9.5754067734115171 24.0594796903461834 O
atom 5.7203739299337304 0.1539124171442419 25.7741330984100330 O
atom 1.8532626666991261 5.4590072592129424 23.8149406191930453 Ti
atom 8.5183643290972952 2.2275543366279607 24.9168063323717632 Ti
atom 3.0473068837336861 3.8478162237299829 23.8149259679328225 O
atom 11.6846158325701897 7.0701982929262730 23.8149553579904989 O
atom 3.4155678725238157 6.6168181837335105 23.5704016070926841 O
atom 11.2747136148612590 4.2703120288072984 26.0186721152577540 Ti
atom 1.4433605806914562 2.6591209958851039 26.0186574592501145 O
atom 10.0806695241339490 5.8815030610838450 26.0186868567188796 O
atom 11.3163548185185991 4.3011963318037782 24.0594796998409777 O
atom 1.8116215694816007 5.4281229646898872 25.7741331031573857 O
atom 12.8786599263239712 9.5445224201682599 26.0186720725310998 Ti
atom 3.0473068837336763 7.9333314514156239 26.0186574450078965 O
atom 8.4767232318797756 0.6072925431383657 26.0186868181596793 O
atom 12.9203011384017881 9.5754067822127755 24.0594796950935859 O
atom 0.2076752832803403 0.1539124336277889 25.7741330889151854 O
atom 0.2493163804978789 0.1847966929458179 23.8149405859612102 Ti
atom 10.1223106267454970 7.5017648233659626 24.9168063445302508 Ti
atom 4.6512531898023513 9.1220266727021979 23.8149259658490990 O
atom 10.0806695211074846 1.7959877695464654 23.8149553295060414 O
atom 1.8116215863225660 1.3426076614726701 23.5704015975978933 O
