#===============================================================================
# Created using the Atomic Simulation Environment (ASE)

# Mon Mar 23 14:01:41 2026

#=======================================================
lattice_vector 9.2181867428585846 0.0000000000000000 0.0000000000000000 
lattice_vector 0.0015442526650186 10.7770658557386358 0.0000000000000000 
lattice_vector 0.0000000000000000 0.0000000000000000 48.2042933915815794 
atom 2.3081119155487664 5.3311361584945853 15.7196495380998158 V
atom 4.6027309406476826 8.0261615893690657 15.7174862135902060 V
atom 1.3831345165044067 9.2019169427453420 15.0038483988504368 O
atom 3.6887826026906740 4.1557331250986564 16.4329867404630292 O
atom 0.9218482895065261 6.5104079653808151 15.0022618247686204 O
atom 3.2287178327138495 6.8534820863831722 16.4362110028371369 O
atom 2.3068007866747871 10.7204025165963852 15.7201614877107332 V
atom 4.6026819046340428 2.6380438696575732 15.7177009739220424 V
atom 1.3815436039667008 3.8139573569063492 15.0041154565770469 O
atom 3.6889547762996657 9.5439642900639399 16.4329928840931352 O
atom 0.9195640137898071 1.1204303862367369 15.0023327542157503 O
atom 3.2275842680715541 1.4643523789893420 16.4356706706611142 O
atom 6.9166398947089958 5.3306613801337512 15.7197470347542065 V
atom 9.2184213730540563 8.0254481197427872 15.7185133955722307 V
atom 5.9967498846233198 9.2042580422395712 15.0017088579155100 O
atom 8.2966056076527828 4.1572345637874406 16.4362081711565580 O
atom 5.5312273468145863 6.5081841137595129 15.0000000000000000 O
atom 7.8329623577651795 6.8502653153667792 16.4379849749191820 O
atom 6.9157112082671643 10.7197185681623193 15.7203374884921487 V
atom 9.2178874606529710 2.6372935934758672 15.7186134406039777 V
atom 5.9947477492887398 3.8166375988765622 15.0016588442547025 O
atom 8.2975312527459035 9.5455415812228441 16.4361633823355362 O
atom 5.5286094377724142 1.1183378863079532 15.0006384281833505 O
atom 7.8326877168621296 1.4604766788989985 16.4382901830758854 O
atom 2.3019225316003262 6.7928577634752365 18.1155812791226367 V
atom 9.2182797902490403 4.0979839610214110 18.1163070689616958 V
atom 2.3038625399358272 2.8616319800939465 20.5064849411979786 V
atom 4.5997728056624361 5.5560638179106956 20.5083563188182936 V
atom 1.3801918037264878 6.7325619368139069 19.7930083682792031 O
atom 3.6877818548407979 1.6851504240935813 21.2228088030019464 O
atom 3.2207474173195725 2.9195791105748983 18.8328364272493651 O
atom 0.9208475909123203 7.9670872589024349 17.3982654398006957 O
atom 3.6862548501545120 5.6154764442740843 18.8338783931145137 O
atom 1.3850094799885961 5.2730497418720645 17.3966860592977888 O
atom 0.9200990629133358 4.0387630635769849 19.7917043135527422 O
atom 3.2270958405636740 4.3833254677409537 21.2260318821567786 O
atom 2.3014229584236325 1.4038982003400864 18.1151435403756622 V
atom 9.2176681007549650 9.4858630088843405 18.1159396823534351 V
atom 2.3039276828390252 8.2496522940150925 20.5076769172158286 V
atom 4.5985829840269767 0.1679910682545607 20.5090329342564921 V
atom 1.3815717579366322 1.3440676666445683 19.7945810659896821 O
atom 3.6878140043702690 7.0735572787060681 21.2237695483217230 O
atom 3.2226436363681823 8.3072271468623775 18.8330266880559023 O
atom 0.9197364484993289 2.5780501345433664 17.3986006761528387 O
atom 3.6864341457838319 0.2281100388784520 18.8348340533825152 O
atom 1.3847057515147234 10.6628257117392948 17.3963507365106054 O
atom 0.9198770114024531 9.4262417726938814 19.7920829462398657 O
atom 3.2275962740029076 9.7712571521388494 21.2252503067584897 O
atom 6.9109784444150080 6.7922370508808720 18.1153861732845911 V
atom 4.6156167579248430 4.0976022951216757 18.1171430267230846 V
atom 6.9134632116037151 2.8609273132555768 20.5060190663185615 V
atom 9.2157001509300294 5.5560458727159618 20.5086491725113902 V
atom 5.9950281152818707 6.7345438997815794 19.7915991430201537 O
atom 8.2951582649672968 1.6855911586337484 21.2263527375118954 O
atom 7.8350893657507124 2.9210798944431167 18.8311478231410199 O
atom 5.5291293663501140 7.9682671319718557 17.4014123954737272 O
atom 8.2958729317241424 5.6140603858944544 18.8316506006494357 O
atom 5.9891873011557903 5.2699809705821714 17.3984559639976482 O
atom 5.5310370494470815 4.0386568200725241 19.7887981468462684 O
atom 7.8315567135631756 4.3799849397497139 21.2279394416121043 O
atom 6.9101494302390121 1.4030231745974193 18.1154609160196962 V
atom 4.6148434728699579 9.4853143586535218 18.1165886138829748 V
atom 6.9126479801661471 8.2493639511197898 20.5073463655256667 V
atom 9.2159650244205746 0.1673904226049650 20.5096671133153023 V
atom 5.9953316732995772 1.3462317771794257 19.7931064071522727 O
atom 8.2950160444235337 7.0740529087635711 21.2275555832460441 O
atom 7.8359815160502340 8.3096244771708090 18.8311065679726291 O
atom 5.5276514573293740 2.5788232159714557 17.4022491867705966 O
atom 8.2960073705731450 0.2261458027274185 18.8330324534303912 O
atom 5.9899875015339852 10.6590170544871050 17.3989088058207813 O
atom 5.5303054129348901 9.4260696771440866 19.7897527338144421 O
atom 7.8329939626798719 9.7680118273591887 21.2275301125871465 O
atom 2.3018705097312377 4.3227275946403463 22.9066553455506963 V
atom 9.2183457401204549 1.6279637049864857 22.9052566155948227 V
atom 2.3065476375675771 0.3913890081924498 25.2989014090261151 V
atom 4.6011666626664933 3.0864144390669286 25.2967380845165053 V
atom 1.3815702385232176 4.2621697924432054 24.5831002697767360 O
atom 3.6887625773745025 9.9930518305351530 26.0122386113893214 O
atom 3.2207612209916143 0.4490526861006716 23.6219680597618122 O
atom 0.9202970316180095 5.4976726315045088 22.1874276979404002 O
atom 3.6853398950137572 3.1449741502682218 23.6247007426619646 O
atom 1.3842672947430850 2.8034280710412283 22.1862092396066863 O
atom 0.9202840115253366 1.5706608150786781 24.5815136956949232 O
atom 3.2271535547326611 1.9137349360810367 26.0154628737634397 O
atom 2.3033390168992671 9.7112308663053142 22.9067463292556397 V
atom 9.2176234454492612 7.0158483043903077 22.9049768195390726 V
atom 2.3052365086935982 5.7806553662942468 25.2994133586370324 V
atom 4.6026618793178722 8.4753625750940689 25.2969528448483416 V
atom 1.3815235786505304 9.6512760623428484 24.5833673275033391 O
atom 3.6873904983184760 4.6042171397618006 26.0122447550194309 O
atom 3.2207888834955694 5.8375068457368915 23.6214427015110644 O
atom 0.9197029464574001 0.1085702213404500 22.1873950186979769 O
atom 3.6865941919925227 8.5345632002166880 23.6250415206552873 O
atom 1.3847138049105863 8.1923592242603931 22.1867982545290197 O
atom 0.9195439884736366 6.9577490916732341 24.5815846251420425 O
atom 3.2275642427553835 7.3016710844258403 26.0149225415874170 O
atom 6.9111814653601913 4.3222040499373682 22.9065754877997279 V
atom 4.6162828861192535 1.6278935925528530 22.9057137830992659 V
atom 6.9150756167278065 0.3909142298316131 25.2989989056805058 V
atom 9.2168570950728679 3.0857009694406496 25.2977652664985300 V
atom 5.9951856066421305 4.2645108919374310 24.5809607288418022 O
atom 8.2965855823366130 9.9945532692239389 26.0154600420828501 O
atom 7.8349374487704440 0.4509892802910309 23.6203905521404209 O
atom 5.5281792235599374 5.4988398596968686 22.1909106834725414 O
atom 8.2955025893200141 3.1441934553496846 23.6225534721076968 O
atom 5.9889159066698188 2.8004546021639944 22.1881225737420635 O
atom 5.5296630688333961 1.5684369634573743 24.5792518709262993 O
atom 7.8313980797839911 1.9105181650646410 26.0172368458454883 O
atom 6.9126781478428523 9.7109181270424987 22.9061695221304404 V
atom 4.6157511509593210 7.0155413465609948 22.9056636042798303 V
atom 6.9141469302859742 5.7799714178601809 25.2995893594184480 V
atom 9.2178674353367995 8.4746122989123656 25.2978653115302805 V
atom 5.9947277239725691 9.6539563043130627 24.5809107151810053 O
atom 8.2959669747647169 4.6057944309207048 26.0154152532618355 O
atom 7.8344178290377711 5.8398939283719260 23.6200241494717744 O
atom 5.5279419594778805 0.1098126408554629 22.1900731840435554 O
atom 8.2967359645822398 8.5339652432191144 23.6224583969066799 O
atom 5.9894497605058437 8.1896765303397849 22.1889767490201528 O
atom 5.5285894124562436 6.9556565917444502 24.5798902991096497 O
atom 7.8326676915459590 7.2977953843354957 26.0175420540021847 O
atom 2.3003582536191374 1.8531106131730981 27.6948331500489360 V
atom 9.2182597649328706 9.9353026664579094 27.6955589398879880 V
atom 2.3038425146196566 8.6989506855304448 30.0857368121242814 V
atom 4.5982085276812468 0.6163166676085590 30.0876081897445857 V
atom 1.3786275257452982 1.7928147865117696 29.3722602392054952 O
atom 3.6877618295246277 7.5224691295300792 30.8020606739282385 O
atom 3.2207273920034019 8.7568978160113957 28.4120882981756679 O
atom 0.9192833129311312 3.0273401086002982 26.9775173107269950 O
atom 3.6846905721733223 0.6757292939719459 28.4131302640408165 O
atom 1.3834452020074068 0.3333025915699255 26.9759379302240916 O
atom 0.9200790375971651 9.8760817690134832 29.3709561844790414 O
atom 3.2270758152475039 10.2206441731774529 30.8052837530830743 O
atom 2.3014029331074628 7.2412169057765849 27.6943954113019544 V
atom 9.2161038227737766 4.5461158585822039 27.6951915532797273 V
atom 2.3023634048578363 3.3099051437129536 30.0869287881421315 V
atom 4.5985629587108070 6.0053097736910592 30.0882848051827878 V
atom 1.3815517326204616 7.1813863720810689 29.3738329369159814 O
atom 3.6862497263890797 2.1338101284039328 30.8030214192480187 O
atom 3.2210793583869939 3.3674799965602387 28.4122785589821945 O
atom 0.9197164231831580 8.4153688399798643 26.9778525470791379 O
atom 3.6864141204676608 6.0654287443149499 28.4140859243088144 O
atom 1.3831414735335339 5.7230785614371555 26.9756026074368975 O
atom 0.9183127334212638 4.4864946223917439 29.3713348171661579 O
atom 3.2260319960217183 4.8315100018367119 30.8045021776847818 O
atom 6.9094141664338187 1.8524899005787354 27.6946380442108904 V
atom 4.6155967326086715 9.9349210005581732 27.6963948976493839 V
atom 6.9134431862875445 8.6982460186920747 30.0852709372448572 V
atom 9.2141358729488410 0.6162987224138246 30.0879010434376895 V
atom 5.9934638373006823 1.7947967494794415 29.3708510139464494 O
atom 8.2951382396511253 7.5229098640702450 30.8056046084381947 O
atom 7.8350693404345426 8.7583985998796141 28.4103996940673156 O
atom 5.5275650883689256 3.0285199816697186 26.9806642664000265 O
atom 8.2943086537429540 0.6743132355923186 28.4109024715757386 O
atom 5.9876230231746010 0.3302338202800348 26.9777078349239474 O
atom 5.5310170241309109 9.8759755255090234 29.3680500177725676 O
atom 7.8315366882470059 10.2173036451862131 30.8071913125384000 O
atom 6.9101294049228406 7.2403418800339177 27.6947127869459990 V
atom 4.6132791948887695 4.5455672083513834 27.6958404848092812 V
atom 6.9110837021849578 3.3096168008176505 30.0865982364519695 V
atom 9.2159449991044031 6.0047091280414637 30.0889189842416016 V
atom 5.9953116479834074 7.1835504826159235 29.3723582780785790 O
atom 8.2934517664423453 2.1343057584614336 30.8068074541723433 O
atom 7.8344172380690447 3.3698773268686697 28.4103584388989248 O
atom 5.5276314320132034 8.4161419214079540 26.9815010576969030 O
atom 8.2959873452569752 6.0634645081639178 28.4122843243566905 O
atom 5.9884232235527959 5.7192699041849675 26.9781606767470805 O
atom 5.5287411349537008 4.4863225268419473 29.3690046047407449 O
atom 7.8314296846986826 4.8282646770570512 30.8067819835134458 O
atom 2.3018504844150671 10.1600463000768446 32.4859072164769955 V
atom 9.2183257148042834 7.4652824104229856 32.4845084865211220 V
atom 3.2207411956754437 6.2863713915371697 33.2012199306881115 O
atom 0.9187327536368204 0.5579254812023693 31.7666795688666923 O
atom 3.6853198696975866 8.9822928557047188 33.2039526135882710 O
atom 1.3842472694269143 8.6407467764777284 31.7654611105329892 O
atom 2.3017747389180783 4.7714837160031767 32.4859982001819390 V
atom 9.2160591674680710 2.0761011540881711 32.4842286904653719 V
atom 3.2192246055143796 0.8977596954347534 33.2006945724373708 O
atom 0.9196829211412295 5.9458889267769477 31.7666468896242691 O
atom 3.6850299140113330 3.5948160499145483 33.2042933915815794 O
atom 1.3831495269293972 3.2526120739582556 31.7660501254553225 O
atom 6.9111614400440216 10.1595227553738656 32.4858273587260271 V
atom 4.6162628608030838 7.4652122979893516 32.4849656540255651 V
atom 7.8349174234542742 6.2883079857275295 33.1996424230667131 O
atom 5.5266149455787490 0.5590927093947303 31.7701625543988371 O
atom 8.2954825640038425 8.9815121607861794 33.2018053430339961 O
atom 5.9888958813536499 8.6377733076004919 31.7673744446683557 O
atom 6.9111138698616630 4.7711709767403612 32.4854213930567397 V
atom 4.6141868729781326 2.0757941962588582 32.4849154752061295 V
atom 7.8328535510565827 0.9001467780697875 33.1992760203980808 O
atom 5.5279219341617116 5.9471313462919611 31.7693250549698547 O
atom 8.2951716866010514 3.5942180929169765 33.2017102678329792 O
atom 5.9878854825246535 3.2499293800376470 31.7682286199464414 O
