#===============================================================================
# Created using the Atomic Simulation Environment (ASE)

# Mon Mar 23 14:01:47 2026

#=======================================================
lattice_vector 9.2314623421363340 0.0000000000000000 0.0000000000000000 
lattice_vector 0.0003972008493561 9.2315018135911977 0.0000000000000000 
lattice_vector 0.0000000000000000 0.0000000000000000 36.9738038049697337 
atom 0.0000439815243607 0.0000178988777078 16.3946824299814651 V
atom 1.3830108882743284 1.3831775568845646 16.3945379223340382 O
atom 3.2324787973402462 3.2326604789984876 16.3945419376816020 O
atom 2.3078100803807224 2.3079257540738443 15.0000000000000000 V
atom 0.9252548007092242 3.6908148478585097 15.0002145249507457 O
atom 3.6904750454712585 0.9252849979983910 15.0004840350127786 O
atom 1.3832903587423466 5.9989296319567629 16.3947041673250737 O
atom 3.2327480751289768 7.8482880442893412 16.3947021526860262 O
atom 2.3081169595489750 6.9236172385597392 15.0002003949940139 V
atom 0.9248875487552418 8.3069148069286562 15.0012398299782497 O
atom 3.6911976627501195 5.5404221435728571 15.0010154800159441 O
atom 5.9992201032097778 1.3833586365746176 16.3942777372638844 O
atom 7.8486103563523173 3.2325662103593999 16.3942846126470876 O
atom 6.9238126920865071 2.3079541482582995 15.0002440349675084 V
atom 5.5405539905702064 3.6912193172343386 15.0010500199581429 O
atom 8.3070999689887319 0.9244651688484047 15.0012737399958063 O
atom 4.6158860923622038 4.6157383275598107 16.3946888699940558 V
atom 5.9991622263071012 5.9987681589031867 16.3944334823255922 O
atom 7.8490879583402355 7.8483890211674145 16.3944333876094781 O
atom 6.9240273392638718 6.9235539847110923 15.0002688599806397 V
atom 5.5413148960647884 8.3062786718853019 15.0005692649647884 O
atom 8.3067729502540697 5.5407249168563597 15.0003038150031571 O
atom 0.0000484019886503 0.0000217087262182 21.9737226999806659 V
atom 2.3078122855400554 2.3079243789961832 17.7894995899999273 V
atom 1.3830153087386179 1.3831813667330752 21.9735781923332389 O
atom 3.2324832178045360 3.2326642888469985 21.9735822076807992 O
atom 0.9250273060027733 3.6908218376813084 17.7892965149749784 O
atom 3.6907090906782041 0.9252909278343240 17.7889819049866169 O
atom 9.2316814442587809 9.2312661422298525 19.1843192800307847 V
atom 2.3078145008450122 2.3079295639223552 20.5790402699992043 V
atom 1.3832276181480387 1.3833928572394676 19.1845210822891339 O
atom 3.2323079995534418 3.2325196976904267 19.1845259777141948 O
atom 0.9252592211735137 3.6908186577070201 20.5792547949499465 O
atom 3.6904794659355473 0.9252888078469012 20.5795243050119794 O
atom 0.0003270123268474 4.6157859538649220 16.3947635349705365 V
atom 2.3081140445078243 6.9236086135521253 17.7892931349952121 V
atom 1.3832947792066366 5.9989334418052724 21.9737444373242745 O
atom 3.2327524955932661 7.8482918541378517 21.9737424226852269 O
atom 0.9248227143073521 8.3069447030410171 17.7881805499824281 O
atom 3.6912675470887204 5.5403932368333546 17.7884270000111826 O
atom 0.0002513989429736 4.6158522104630597 19.1842798049723058 V
atom 2.3081213800132643 6.9236210484082488 20.5792406649932147 V
atom 1.3833940797675524 5.9992003247067007 19.1843202872870719 O
atom 3.2326085790294159 7.8482275722714157 19.1843161227072763 O
atom 0.9248919692195317 8.3069186167771658 20.5802800999774504 O
atom 3.6912020832144088 5.5404259534213693 20.5800557500151449 O
atom 4.6156959832704025 0.0000490405880592 16.3947549049870567 V
atom 6.9238157474488906 2.3079643331212254 17.7893264349661955 V
atom 5.9992245236740676 1.3833624464231282 21.9733180072630887 O
atom 7.8486147768166070 3.2325700202079113 21.9733248826462884 O
atom 5.5405102269654156 3.6912862829344877 17.7884075599563580 O
atom 8.3071301423242634 0.9243923029115386 17.7881610799997141 O
atom 4.6161473977160536 9.2314767479841819 19.1842695149884577 V
atom 6.9238171125507968 2.3079579581068095 20.5792843049667056 V
atom 5.9994207390580945 1.3833840373297661 19.1848092472394605 O
atom 7.8484441067297466 3.2323373190073341 19.1848150626878677 O
atom 5.5405584110344952 3.6912231270828495 20.5800902899573401 O
atom 8.3071043894530252 0.9244689786969149 20.5803140099950070 O
atom 4.6158905128264927 4.6157421374083212 21.9737291399932566 V
atom 6.9240279144574908 6.9235569996142949 17.7892185999803090 V
atom 5.9991666467713909 5.9987719687516972 21.9734737523247965 O
atom 7.8490923788045253 7.8483928310159250 21.9734736576086789 O
atom 5.5413366658920955 8.3065002062718545 17.7889028449405977 O
atom 8.3067676407480011 5.5405096818821562 17.7892134050249844 O
atom 4.6160481813462777 4.6159139990568132 19.1843331699590358 V
atom 6.9240317597281607 6.9235577945596019 20.5793091299798405 V
atom 5.9997074931594110 5.9993066822126595 19.1846442722128856 O
atom 7.8483636474689087 7.8476389017892538 19.1846416477626889 O
atom 5.5413193165290773 8.3062824817338115 20.5796095349639856 O
atom 8.3067773707183594 5.5407287267048693 20.5793440850023579 O
atom 0.0003314327911370 4.6157897637134324 21.9738038049697373 V
atom 4.6157004037346923 0.0000528504365696 21.9737951749862575 V
