#===============================================================================
# Created using the Atomic Simulation Environment (ASE)

# Mon Mar 23 14:01:37 2026

#=======================================================
lattice_vector 3.7155747600003020 0.0000000000000000 0.0000000000000000 
lattice_vector 0.0000010448242668 6.4438726005089801 0.0000000000000000 
lattice_vector 0.0000000000000000 0.0000000000000000 63.7700805293948960 
atom 1.8577842057465714 1.7676496512675390 15.4269423647247805 V
atom 1.8577843536830032 5.1354641694801373 16.4889266462613158 V
atom 1.8577841820333558 3.3420902267268260 16.0933566388935851 O
atom 3.7155717141166620 1.5211471936022138 15.0000000000000000 O
atom 1.8577834717731421 0.7352271527202031 16.9897075188270250 O
atom 3.7155718948731193 5.2913895954227010 16.1209243049173381 O
atom 1.8577804273010454 4.6545622026978242 26.8118000856994527 V
atom 3.7155679857273021 2.2277155360773131 25.5734444701634303 V
atom 1.8577795304132103 1.5785041204014429 27.8737843672359844 V
atom 3.7155688926289092 5.3037992678395218 24.5114340958788191 V
atom 3.7155701989428302 6.4330261298350333 21.1193460242821800 V
atom 1.8577829873644791 4.0061883862412850 19.8810059220209041 V
atom 3.7155693020382703 3.3569478247741200 22.1813667349594468 V
atom 1.8577828494239941 0.6383765583571442 18.8190337626719995 V
atom 1.8577804035878300 6.2290027781571116 27.4782143598682538 O
atom 3.7155680094550481 0.6532675085813390 24.9069876847590663 O
atom 1.8577804773682152 2.4742364204444058 26.0003650874455587 O
atom 3.7155679356711353 4.4080597450324994 26.3848577209746793 O
atom 1.8577796933276156 3.6221397041504897 28.3745652398016901 O
atom 3.7155687297135782 3.2601687623090267 24.0106579301800451 O
atom 1.8577813514305945 5.1478306904075213 24.8794398657442244 O
atom 3.7155670716033260 1.7344295463440069 27.5057820258920032 O
atom 3.7155691303893188 1.5635799342712564 21.7857974748296499 O
atom 1.8577830110813880 2.4317438666481239 19.2145799514249553 O
atom 3.7155702489945219 4.2526842888097534 20.3079458949879239 O
atom 1.8577829472769192 6.1864897009964546 20.6924854108258174 O
atom 3.7155694749523178 5.4005780403097328 22.6821462462079531 O
atom 1.8577837313420364 5.0386217201490098 18.3182343131944130 O
atom 3.7155700682291797 0.4824125434921869 19.1870328693338301 O
atom 1.8577820832304091 3.5128685841036136 21.8133560858346343 O
atom 1.8577756040312527 1.0976021536191287 38.1966578066741178 V
atom 3.7155642072817754 5.1146280875075982 36.9583021911381024 V
atom 1.8577757519676843 4.4654166718317265 39.2586420882106566 V
atom 3.7155640693591163 1.7468392187608279 35.8962918168534912 V
atom 3.7155653756730382 2.8760660807563387 32.5042037452568451 V
atom 1.8577781640946862 0.4492283371625900 31.2658636429955763 V
atom 3.7155655235927449 6.2438603762044069 33.5662244559341190 V
atom 1.8577790709784681 3.5252891097874302 30.2038914836466645 V
atom 1.8577755803180369 2.6720427290784157 38.8630720808429331 O
atom 3.7155642310095223 3.5401800600116249 36.2918454057337385 O
atom 1.8577766989226892 5.3611489718746919 37.3852228084202309 O
atom 3.7155631124013433 0.8510996959538035 37.7697154419493444 O
atom 1.8577748700578229 0.0651796550717933 39.7594229607763623 O
atom 3.7155649512680515 6.1470813137393145 35.3955156511547102 O
atom 1.8577765281608014 1.5908706413288263 36.2642975867188966 O
atom 3.7155632931578002 4.6213420977742921 38.8906397468666754 O
atom 3.7155653519437930 4.4504924857015418 33.1706551958043150 O
atom 1.8577792326358618 5.3186564180784091 30.5994376723996240 O
atom 3.7155654257247290 0.6957242397310579 31.6928036159625961 O
atom 1.8577781240071263 2.6295296519177609 32.0773431318004896 O
atom 3.7155646516825254 1.8436179912310395 34.0670039671826217 O
atom 1.8577789080722433 1.4816616710703152 29.7030920341690816 O
atom 3.7155662897836539 3.3693250949224733 30.5718905903084988 O
atom 1.8577783047848833 6.3997811355338996 33.1982138068093064 O
atom 3.7155593840119829 1.5576680384289032 48.3431599121127817 V
atom 3.7155602909135901 4.6337517701911137 47.2811495378281492 V
atom 3.7155615972275116 5.7629786321866243 43.8890614662315315 V
atom 1.8577743856491604 3.3361408885928769 42.6507213639702414 V
atom 3.7155607003229520 2.6869003271257101 44.9510821769087840 V
atom 1.8577752925329420 6.4122016612177140 41.5887492046213438 V
atom 3.7155604525639960 6.4270926114419096 47.6767031267084036 O
atom 1.8577718756528963 1.8041889227959966 48.7700805293948960 O
atom 3.7155601279982586 2.5901212646606186 46.7803733721293753 O
atom 1.8577727497152756 4.4777831927591105 47.6491553076935830 O
atom 3.7155605286739997 0.8935324366228468 44.5555129167789872 O
atom 1.8577744093660691 1.7616963689997138 41.9842953933742962 O
atom 3.7155616472792032 3.5826367911613426 43.0776613369372612 O
atom 1.8577743455616003 5.5164422033480456 43.4622008527751547 O
atom 3.7155608732369991 4.7305305426613247 45.4518616881572939 O
atom 1.8577751296267175 4.3685742225006008 41.0879497551437538 O
atom 3.7155625113381276 6.2562376463527585 41.9567483112831709 O
atom 1.8577734815150904 2.8428210864552041 44.5830715277839715 O
