#===============================================================================
# Created using the Atomic Simulation Environment (ASE)

# Mon Mar 23 14:01:37 2026

#=======================================================
lattice_vector 3.7155747600003020 0.0000000000000000 0.0000000000000000 
lattice_vector 0.0000010448242668 6.4438726005089801 0.0000000000000000 
lattice_vector 0.0000000000000000 0.0000000000000000 31.9897071572655207 
atom 3.7155593840119829 1.5576680384289032 16.5627865399834064 V
atom 3.7155602909135901 4.6337517701911137 15.5007761656987739 V
atom 3.7155604525639960 6.4270926114419096 15.8963297545790283 O
atom 1.8577718756528963 1.8041889227959966 16.9897071572655207 O
atom 3.7155601279982586 2.5901212646606186 15.0000000000000000 O
atom 1.8577727497152756 4.4777831927591105 15.8687819355642077 O
