#===============================================================================
# Created using the Atomic Simulation Environment (ASE)

# Mon Mar 23 14:01:47 2026

#=======================================================
lattice_vector 9.2315018221363143 0.0000000000000000 0.0000000000000000 
lattice_vector 0.0000038100387047 5.5790402700009523 0.0000000000000000 
lattice_vector 0.0000000000000000 0.0000000000000000 57.2363610523833160 
atom 0.9254382958105540 1.3942320891251774 15.0002318356113520 O
atom 0.0001500900104293 2.7895738540247170 20.5408457000139784 V
atom 0.9254361659431434 4.1847744889677303 15.0000000000000000 O
atom 5.5405406245661490 1.3936771844348768 15.0005917199435199 O
atom 5.5405733383374427 4.1853059343860997 15.0005240428407376 O
atom 0.0002362085332171 0.0000058220291439 15.9252596420838373 V
atom 2.3082508096541958 1.3945791806635277 18.2332789972729934 V
atom 1.3836091417237886 5.5785700204325650 17.3087242419046774 O
atom 3.2328962869143725 5.5785783610334896 19.1580349280718742 O
atom 3.6915132391468335 1.3936592096069338 16.8499139590513813 O
atom 0.9247383001472007 1.3934149217508414 19.6166529222979733 O
atom 0.0001621046708460 2.7895204320726279 15.9253116487228255 V
atom 2.3082444346985205 4.1845370506642432 18.2332781521521952 V
atom 1.3836307410729021 2.7900612605652744 17.3089226657084012 O
atom 3.2326635783706434 2.7900685409407306 19.1578664773472340 O
atom 3.6914500853684533 4.1853419396452196 16.8499599339741870 O
atom 0.9248149748244456 4.1855678517248478 19.6166249538914919 O
atom 4.6159293094509355 5.5789800570303729 15.9252511534545889 V
atom 6.9238434810036953 1.3944713456883953 18.2332925707508942 V
atom 5.9990186572898629 5.5787257652910789 17.3084677791428021 O
atom 7.8487191139993886 5.5787271362169299 19.1583139264231903 O
atom 8.3067271937710565 1.3941544950886315 16.8505418202649970 O
atom 5.5408556592476828 1.3944672463315306 19.6160918036957064 O
atom 4.6161011778832206 2.7895840871219435 15.9254110246313942 V
atom 6.9238442761144494 4.1845618756900969 18.2332942053852527 V
atom 5.9995533940211532 2.7898962856085405 17.3090108121263455 O
atom 7.8479651534185262 2.7898951257944673 19.1575874371322925 O
atom 8.3065094684867358 4.1848611850974065 16.8505222691796668 O
atom 5.5410747044888407 4.1845979263157309 19.6160993136073714 O
atom 0.0004074798433236 5.5789772741531687 20.5410699795974168 V
atom 2.3084094433887512 1.3947559925474593 22.8487378748086556 V
atom 1.3836266410405953 5.5788338621899021 21.9239773724171272 O
atom 3.2331891379013404 5.5788393428167087 23.7733657026625700 O
atom 3.6912474041507912 1.3945518218881976 21.4658933952300686 O
atom 0.9258354949612171 1.3942394032570540 24.2316941691997059 O
atom 0.0005472891610907 2.7895811681565941 29.7723080336023358 V
atom 2.3084146284102363 4.1842966725476156 22.8487378797240623 V
atom 1.3838381406817599 2.7897767523148800 21.9241918825099376 O
atom 3.2330445392058440 2.7897831127121560 23.7731927004155459 O
atom 3.6912442341550467 4.1845101020460387 21.4661231000400896 O
atom 0.9258333650938061 4.1847818030996073 24.2314623335883539 O
atom 4.6161717326971345 0.0000181092081837 20.5411544091730569 V
atom 6.9240936866558851 1.3945495376244801 22.8488410363839094 V
atom 5.9993787238649201 5.5790001072450144 21.9240582422784058 O
atom 7.8488167105058775 5.5789995578771370 23.7734363852065940 O
atom 8.3073702564346963 1.3934358565761822 21.4654901879903832 O
atom 5.5409378237168116 1.3936844985667536 24.2320540535318756 O
atom 4.6162379860418179 2.7895343791491691 20.5410765827913337 V
atom 6.9241061218276192 4.1844970676274178 22.8488461608655093 V
atom 5.9996456110386722 2.7895759572873553 21.9241597414302767 O
atom 7.8487524224472516 2.7895732577860413 23.7732946814845434 O
atom 8.3073441731506801 4.1855354066252026 21.4655572318310419 O
atom 5.5409705374881053 4.1853132485179758 24.2319863764290915 O
atom 0.0006334076838800 0.0000131361610206 25.1567219756721911 V
atom 2.3086480088048589 1.3945864947954045 27.4647413308613473 V
atom 1.3840063408744510 5.5785773345644403 26.5401865754930313 O
atom 3.2332934860650351 5.5785856751653666 28.3894972616602317 O
atom 3.6919104382974965 1.3936665237388104 26.0813762926397388 O
atom 0.9251354992978635 1.3934222358827180 28.8481152558863272 O
atom 0.0005593038215073 2.7895277462045045 25.1567739823111793 V
atom 2.3086416338491835 4.1845443647961202 27.4647404857405562 V
atom 1.3840279402235649 2.7900685746971510 26.5403849992967551 O
atom 3.2330607775213069 2.7900758550726072 28.3893288109355915 O
atom 3.6918472845191164 4.1853492537770958 26.0814222675625409 O
atom 0.9252121739751086 4.1855751658567240 28.8480872874798493 O
atom 4.6163265086015981 5.5789873711622491 25.1567134870429427 V
atom 6.9242406801543579 1.3944786598202719 27.4647549043392551 V
atom 5.9994158564405273 5.5787330794229542 26.5399301127311560 O
atom 7.8491163131500521 5.5787344503488061 28.3897762600115477 O
atom 8.3071243929217182 1.3941618092205081 26.0820041538533509 O
atom 5.5412528583983462 1.3944745604634077 28.8475541372840638 O
atom 4.6164983770338841 2.7895914012538201 25.1568733582197481 V
atom 6.9242414752651120 4.1845691898219739 27.4647565389736101 V
atom 5.9999505931718176 2.7899035997404176 26.5404731457146994 O
atom 7.8483623525691888 2.7899024399263443 28.3890497707206571 O
atom 8.3069066676373993 4.1848684992292826 26.0819846027680242 O
atom 5.5414719036395033 4.1846052404476080 28.8475616471957252 O
atom 0.0008046789939864 5.5789845882850457 29.7725323131857742 V
atom 2.3088066425394143 1.3947633066793359 32.0802002083970166 V
atom 1.3840238401912583 5.5788411763217791 31.1554397060054775 O
atom 3.2335863370520035 5.5788466569485857 33.0048280362509274 O
atom 3.6916446033014543 1.3945591360200742 30.6973557288184224 O
atom 0.9262326941118798 1.3942467173889306 33.4631565027880669 O
atom 0.0009444883117540 2.7895884822884707 39.0037703671906897 V
atom 2.3088118275608993 4.1843039866794927 32.0802002133124233 V
atom 1.3842353398324228 2.7897840664467566 31.1556542160982950 O
atom 3.2334417383565075 2.7897904268440326 33.0046550340039033 O
atom 3.6916414333057088 4.1845174161779148 30.6975854336284470 O
atom 0.9262305642444688 4.1847891172314835 33.4629246671767149 O
atom 4.6165689318477972 0.0000254233400604 29.7726167427614179 V
atom 6.9244908858065477 1.3945568517563567 32.0803033699722704 V
atom 5.9997759230155827 5.5790074213768897 31.1555205758667633 O
atom 7.8492139096565401 5.5790068720090131 33.0048987187949550 O
atom 8.3077674555853598 1.3934431707080588 30.6969525215787371 O
atom 5.5413350228674751 1.3936918126986304 33.4635163871202295 O
atom 4.6166351851924814 2.7895416932810457 29.7725389163796947 V
atom 6.9245033209782818 4.1845043817592948 32.0803084944538739 V
atom 6.0000428101893348 2.7895832714192319 31.1556220750186341 O
atom 7.8491496215979142 2.7895805719179179 33.0047570150729044 O
atom 8.3077413723013436 4.1855427207570788 30.6970195654193994 O
atom 5.5413677366387679 4.1853205626498529 33.4634487100174525 O
atom 0.0010306068345428 0.0000204502928972 34.3881843092605521 V
atom 2.3090452079555219 1.3945938089272809 36.6962036644497118 V
atom 1.3844035400251140 5.5785846486963173 35.7716489090813923 O
atom 3.2336906852156981 5.5785929892972428 37.6209595952485927 O
atom 3.6923076374481592 1.3936738378706870 35.3128386262280927 O
atom 0.9255326984485264 1.3934295500145946 38.0795775894746811 O
atom 0.0009565029721707 2.7895350603363807 34.3882363158995332 V
atom 2.3090388329998466 4.1845516789279964 36.6962028193289029 V
atom 1.3844251393742280 2.7900758888290285 35.7718473328851161 O
atom 3.2334579766719695 2.7900831692044843 37.6207911445239489 O
atom 3.6922444836697794 4.1853565679089728 35.3128846011508983 O
atom 0.9256093731257713 4.1855824799886010 38.0795496210682103 O
atom 4.6167237077522616 5.5789946852941261 34.3881758206313037 V
atom 6.9246378793050214 1.3944859739521485 36.6962172379276126 V
atom 5.9998130555911899 5.5787403935548312 35.7713924463195099 O
atom 7.8495135123007147 5.5787417644806832 37.6212385935998981 O
atom 8.3075215920723817 1.3941691233523847 35.3134664874417084 O
atom 5.5416500575490089 1.3944818745952841 38.0790164708724177 O
atom 4.6168955761845476 2.7895987153856963 34.3883356918081091 V
atom 6.9246386744157755 4.1845765039538501 36.6962188725619569 V
atom 6.0003477923224802 2.7899109138722942 35.7719354793030604 O
atom 7.8487595517198514 2.7899097540582209 37.6205121043090074 O
atom 8.3073038667880628 4.1848758133611605 35.3134469363563852 O
atom 5.5418691027901668 4.1846125545794841 38.0790239807840791 O
atom 0.0012018781446493 5.5789919024169219 39.0039946467741316 V
atom 2.3092038416900773 1.3947706208112125 41.3116625419853705 V
atom 1.3844210393419207 5.5788484904536562 40.3869020395938350 O
atom 3.2339835362026665 5.5788539710804628 42.2362903698392813 O
atom 3.6920418024521164 1.3945664501519510 39.9288180624067763 O
atom 2.3092090267115619 4.1843113008113697 41.3116625469007772 V
atom 1.3846325389830851 2.7897913805786332 40.3871165496866524 O
atom 3.2338389375071697 2.7897977409759092 42.2361173675922572 O
atom 3.6920386324563719 4.1845247303097919 39.9290477672168009 O
atom 4.6169661309984606 0.0000327374719370 39.0040790763497753 V
atom 6.9248880849572103 1.3945641658882335 41.3117657035606243 V
atom 6.0001731221662462 5.5790147355087667 40.3869829094551136 O
atom 7.8496111088072036 5.5790141861408902 42.2363610523833160 O
atom 8.3081646547360215 1.3934504848399354 39.9284148551670910 O
atom 4.6170323843431440 2.7895490074129219 39.0040012499680557 V
atom 6.9249005201289444 4.1845116958911719 41.3117708280422207 V
atom 6.0004400093399983 2.7895905855511085 40.3870844086069951 O
atom 7.8495468207485777 2.7895878860497945 42.2362193486612583 O
atom 8.3081385714520053 4.1855500348889558 39.9284818990077497 O
