#===============================================================================
# Created using the Atomic Simulation Environment (ASE)

# Mon Mar 23 14:01:47 2026

#=======================================================
lattice_vector 9.2314623421363340 0.0000000000000000 0.0000000000000000 
lattice_vector 0.0003972008493561 9.2315018135911977 0.0000000000000000 
lattice_vector 0.0000000000000000 0.0000000000000000 39.7646829949692204 
atom 0.0000439815243607 0.0000178988777078 19.1855616199809482 V
atom 2.3078078650757656 2.3079205691476727 15.0013385100002061 V
atom 1.3830108882743284 1.3831775568845646 19.1854171123335213 O
atom 3.2324787973402462 3.2326604789984876 19.1854211276810851 O
atom 0.9250228855384838 3.6908180278327976 15.0011354349752608 O
atom 3.6907046702139144 0.9252871179858136 15.0008208249868993 O
atom 9.2316770237944894 9.2312623323813430 16.3961582000310671 V
atom 2.3078100803807224 2.3079257540738443 17.7908791899994831 V
atom 1.3832231976837492 1.3833890473909574 16.3963600022894163 O
atom 3.2323035790891521 3.2325158878419162 16.3963648977144736 O
atom 0.9252548007092242 3.6908148478585097 17.7910937149502288 O
atom 3.6904750454712585 0.9252849979983910 17.7913632250122618 O
atom 2.3081096240435346 6.9236048037036158 15.0011320549954945 V
atom 1.3832903587423466 5.9989296319567629 19.1855833573245569 O
atom 3.2327480751289768 7.8482880442893412 19.1855813426855093 O
atom 0.9248182938430624 8.3069408931925075 15.0000194699827070 O
atom 3.6912631266244311 5.5403894269848442 15.0002659200114614 O
atom 0.0002469784786840 4.6158484006145493 16.3961187249725882 V
atom 2.3081169595489750 6.9236172385597392 17.7910795849934971 V
atom 1.3833896593032631 5.9991965148581912 16.3961592072873579 O
atom 3.2326041585651262 7.8482237624229061 16.3961550427075586 O
atom 0.9248875487552418 8.3069148069286562 17.7921190199777328 O
atom 3.6911976627501195 5.5404221435728571 17.7918946700154272 O
atom 6.9238113269846009 2.3079605232727149 15.0011653549664778 V
atom 5.9992201032097778 1.3833586365746176 19.1851569272633675 O
atom 7.8486103563523173 3.2325662103593999 19.1851638026465707 O
atom 5.5405058065011268 3.6912824730859772 15.0002464799566404 O
atom 8.3071257218599754 0.9243884930630284 15.0000000000000000 O
atom 4.6161429772517639 9.2314729381356724 16.3961084349887436 V
atom 6.9238126920865071 2.3079541482582995 17.7911232249669915 V
atom 5.9994163185938056 1.3833802274812554 16.3966481672397428 O
atom 7.8484396862654577 3.2323335091588237 16.3966539826881501 O
atom 5.5405539905702064 3.6912193172343386 17.7919292099576261 O
atom 8.3070999689887319 0.9244651688484047 17.7921529299952894 O
atom 4.6158860923622038 4.6157383275598107 19.1855680599935390 V
atom 6.9240234939932011 6.9235531897657845 15.0010575199805949 V
atom 5.9991622263071012 5.9987681589031867 19.1853126723250753 O
atom 7.8490879583402355 7.8483890211674145 19.1853125776089612 O
atom 5.5413322454278049 8.3064963964233431 15.0007417649408801 O
atom 8.3067632202837114 5.5405058720336458 15.0010523250252668 O
atom 4.6160437608819880 4.6159101892083028 16.3961720899593182 V
atom 6.9240273392638718 6.9235539847110923 17.7911480499801229 V
atom 5.9997030726951204 5.9993028723641491 16.3964831922131715 O
atom 7.8483592270046190 7.8476350919407434 16.3964805677629748 O
atom 5.5413148960647884 8.3062786718853019 17.7914484549642715 O
atom 8.3067729502540697 5.5407249168563597 17.7911830050026403 O
atom 0.0000484019886503 0.0000217087262182 24.7646018899801490 V
atom 2.3078122855400554 2.3079243789961832 20.5803787799994105 V
atom 1.3830153087386179 1.3831813667330752 24.7644573823327221 O
atom 3.2324832178045360 3.2326642888469985 24.7644613976802823 O
atom 0.9250273060027733 3.6908218376813084 20.5801757049744616 O
atom 3.6907090906782041 0.9252909278343240 20.5798610949861001 O
atom 9.2316814442587809 9.2312661422298525 21.9751984700302678 V
atom 2.3078145008450122 2.3079295639223552 23.3699194599986875 V
atom 1.3832276181480387 1.3833928572394676 21.9754002722886170 O
atom 3.2323079995534418 3.2325196976904267 21.9754051677136779 O
atom 0.9252592211735137 3.6908186577070201 23.3701339849494296 O
atom 3.6904794659355473 0.9252888078469012 23.3704034950114625 O
atom 0.0003270123268474 4.6157859538649220 19.1856427249700197 V
atom 2.3081140445078243 6.9236086135521253 20.5801723249946953 V
atom 1.3832947792066366 5.9989334418052724 24.7646236273237577 O
atom 3.2327524955932661 7.8482918541378517 24.7646216126847101 O
atom 0.9248227143073521 8.3069447030410171 20.5790597399819113 O
atom 3.6912675470887204 5.5403932368333546 20.5793061900106657 O
atom 0.0002513989429736 4.6158522104630597 21.9751589949717889 V
atom 2.3081213800132643 6.9236210484082488 23.3701198549926978 V
atom 1.3833940797675524 5.9992003247067007 21.9751994772865551 O
atom 3.2326085790294159 7.8482275722714157 21.9751953127067594 O
atom 0.9248919692195317 8.3069186167771658 23.3711592899769336 O
atom 3.6912020832144088 5.5404259534213693 23.3709349400146280 O
atom 4.6156959832704025 0.0000490405880592 19.1856340949865398 V
atom 6.9238157474488906 2.3079643331212254 20.5802056249656786 V
atom 5.9992245236740676 1.3833624464231282 24.7641971972625718 O
atom 7.8486147768166070 3.2325700202079113 24.7642040726457715 O
atom 5.5405102269654156 3.6912862829344877 20.5792867499558412 O
atom 8.3071301423242634 0.9243923029115386 20.5790402699991972 O
atom 4.6161473977160536 9.2314767479841819 21.9751487049879408 V
atom 6.9238171125507968 2.3079579581068095 23.3701634949661887 V
atom 5.9994207390580945 1.3833840373297661 21.9756884372389436 O
atom 7.8484441067297466 3.2323373190073341 21.9756942526873509 O
atom 5.5405584110344952 3.6912231270828495 23.3709694799568233 O
atom 8.3071043894530252 0.9244689786969149 23.3711931999944902 O
atom 4.6158905128264927 4.6157421374083212 24.7646083299927398 V
atom 6.9240279144574908 6.9235569996142949 20.5800977899797921 V
atom 5.9991666467713909 5.9987719687516972 24.7643529423242796 O
atom 7.8490923788045253 7.8483928310159250 24.7643528476081620 O
atom 5.5413366658920955 8.3065002062718545 20.5797820349400808 O
atom 8.3067676407480011 5.5405096818821562 20.5800925950244675 O
atom 4.6160481813462777 4.6159139990568132 21.9752123599585190 V
atom 6.9240317597281607 6.9235577945596019 23.3701883199793237 V
atom 5.9997074931594110 5.9993066822126595 21.9755234622123687 O
atom 7.8483636474689087 7.8476389017892538 21.9755208377621720 O
atom 5.5413193165290773 8.3062824817338115 23.3704887249634687 O
atom 8.3067773707183594 5.5407287267048693 23.3702232750018410 O
atom 0.0003314327911370 4.6157897637134324 24.7646829949692204 V
atom 4.6157004037346923 0.0000528504365696 24.7646743649857406 V
