#===============================================================================
# Created using the Atomic Simulation Environment (ASE)

# Mon Mar 23 14:01:37 2026

#=======================================================
lattice_vector 6.4438726005090654 0.0000000000000000 0.0000000000000000 
lattice_vector -3.5569600490794309 11.3848577209754627 0.0000000000000000 
lattice_vector 0.0000000000000000 0.0000000000000000 31.8577875508655666 
atom 1.7676517598483152 9.1578214656191896 15.0000000304250207 V
atom -1.3084063224481706 10.2198057471557959 15.0000000284149522 V
atom 3.5461159882117919 3.4653667112494140 16.8577873904249635 V
atom 1.1192779433922007 2.2270273019401343 15.0000001104406593 V
atom 0.4700376831507746 4.5273874219267567 16.8577873884150407 V
atom 4.1953387160171483 1.1650551425911495 15.0000001224507571 V
atom 3.3420923353075773 9.8242357397880475 15.0000000000000000 O
atom -0.4126740224050643 8.3463864673651997 15.0000001313510793 O
atom 1.5211496034089174 8.7308784079422583 16.8577874195145156 O
atom 0.7352292613008776 10.7205866197215354 15.0000000467601708 O
atom 2.2609202475581571 7.2254612456637854 15.0000001538071999 O
atom -1.1524805952796802 9.8518027128596817 16.8577874070584457 O
atom 5.1205423931569714 4.1318181617969394 16.8577873600000814 O
atom -0.4551665762009364 1.5606013313441276 15.0000001408656445 O
atom 3.2995792581473347 3.0385067907451346 15.0000000195147720 O
atom 2.5136678986863892 5.0281669331752870 16.8577874167602637 O
atom 2.1517112773000329 0.6642556931135363 15.0000001041054674 O
atom 0.6259581412543891 4.1593774657540354 15.0000000070585209 O
atom -0.6591946055462304 7.9194651571309258 16.8577875204406702 V
atom 2.4168891262160845 6.8574547828462347 16.8577875324506152 V
atom -2.2336426330421819 7.2530083717265033 16.8577875508655701 O
atom 0.3732586206855896 6.3566786171474305 16.8577875141054037 O
atom 1.3657741471865485 2.6539665819550655 16.8577874913511536 O
atom 4.0393750023780681 1.5330535563008885 16.8577875038073088 O
