#===============================================================================
# Created using the Atomic Simulation Environment (ASE)

# Mon Mar 23 14:01:47 2026

#=======================================================
lattice_vector 9.2315018221363143 0.0000000000000000 0.0000000000000000 
lattice_vector 0.0000038100387047 5.5790402700009523 0.0000000000000000 
lattice_vector 0.0000000000000000 0.0000000000000000 31.8494590127894810 
atom 2.3092038416900773 1.3947706208112125 15.9247605023915355 V
atom 1.3844210393419207 5.5788484904536562 15.0000000000000000 O
atom 3.2339835362026665 5.5788539710804628 16.8493883302454464 O
atom 2.3092090267115619 4.1843113008113697 15.9247605073069423 V
atom 1.3846325389830851 2.7897913805786332 15.0002145100928175 O
atom 3.2338389375071697 2.7897977409759092 16.8492153279984223 O
atom 6.9248880849572103 1.3945641658882335 15.9248636639667893 V
atom 6.0001731221662462 5.5790147355087667 15.0000808698612786 O
atom 7.8496111088072036 5.5790141861408902 16.8494590127894810 O
atom 6.9249005201289444 4.1845116958911719 15.9248687884483857 V
atom 6.0004400093399983 2.7895905855511085 15.0001823690131602 O
atom 7.8495468207485777 2.7895878860497945 16.8493173090674233 O
