#===============================================================================
# Created using the Atomic Simulation Environment (ASE)

# Mon Mar 23 14:01:37 2026

#=======================================================
lattice_vector 3.7155747600003020 0.0000000000000000 0.0000000000000000 
lattice_vector 0.0000010448242668 6.4438726005089801 0.0000000000000000 
lattice_vector 0.0000000000000000 0.0000000000000000 37.6821307742511422 
atom 3.7155593840119829 1.5576680384289032 22.2552101569690279 V
atom 3.7155602909135901 4.6337517701911137 21.1931997826843954 V
atom 3.7155615972275116 5.7629786321866243 17.8011117110877777 V
atom 1.8577743856491604 3.3361408885928769 16.5627716088264876 V
atom 3.7155607003229520 2.6869003271257101 18.8631324217650302 V
atom 1.8577752925329420 6.4122016612177140 15.5007994494775900 V
atom 3.7155604525639960 6.4270926114419096 21.5887533715646498 O
atom 1.8577718756528963 1.8041889227959966 22.6821307742511422 O
atom 3.7155601279982586 2.5901212646606186 20.6924236169856215 O
atom 1.8577727497152756 4.4777831927591105 21.5612055525498292 O
atom 3.7155605286739997 0.8935324366228468 18.4675631616352334 O
atom 1.8577744093660691 1.7616963689997138 15.8963456382305424 O
atom 3.7155616472792032 3.5826367911613426 16.9897115817935074 O
atom 1.8577743455616003 5.5164422033480456 17.3742510976314009 O
atom 3.7155608732369991 4.7305305426613247 19.3639119330135401 O
atom 1.8577751296267175 4.3685742225006008 15.0000000000000000 O
atom 3.7155625113381276 6.2562376463527585 15.8687985561394171 O
atom 1.8577734815150904 2.8428210864552041 18.4951217726402177 O
