#===============================================================================
# Created using the Atomic Simulation Environment (ASE)

# Mon Mar 23 14:01:48 2026

#=======================================================
lattice_vector 10.7863573876396668 0.0000000000000000 0.0000000000000000 
lattice_vector 0.0003366819931270 9.2315018159967526 0.0000000000000000 
lattice_vector 0.0000000000000000 0.0000000000000000 31.4333459133870790 
atom 3.3831207097254534 2.3082936792461743 15.7165877175904356 V
atom 4.8960078506693927 3.2330143878461417 15.0009649298687933 O
atom 2.1997746365800386 3.6911747987284782 15.0011636456849118 O
atom 4.5669352877998151 0.9256765550117149 16.4314527639055221 O
atom 0.6863935851776820 0.0001326766356452 15.7166249914037799 V
atom 1.8702705948736271 1.3837775510628587 16.4323074704048899 O
atom 3.3834841235082593 6.9239779123289846 15.7164643822539531 V
atom 4.8961538124353456 7.8486419581970095 15.0011386084770564 O
atom 2.2001751190711984 8.3072976394764186 15.0000000000000000 O
atom 4.5676986243852946 5.5407788589970224 16.4311639940189060 O
atom 0.6867799562075511 4.6162205616457088 15.7167106265968783 V
atom 1.8705152874252098 5.9995850155654118 16.4321189964090522 O
atom 6.0797193625524883 0.0004192943890277 15.7166621835605831 V
atom 7.2640488915573869 1.3837452247927355 16.4318248178552651 O
atom 8.7763948701800896 2.3083253616301826 15.7169545567036799 V
atom 10.2889955693656123 3.2326893398749639 15.0017293408227417 O
atom 7.5921214466772735 3.6915742048420062 15.0021490525469616 O
atom 9.9597432737846354 0.9248527429504559 16.4333459133870790 O
atom 6.0799145916566220 4.6161085812175831 15.7166012771830275 V
atom 7.2639171714480986 5.9991547482323266 16.4318254611303090 O
atom 8.7765641045041587 6.9239251999436480 15.7169841063279065 V
atom 10.2890147740853166 7.8479909172919147 15.0014365960309100 O
atom 7.5930196957801241 8.3066335582695778 15.0020284575388061 O
atom 9.9599634411283056 5.5411124676552515 16.4322439292853630 O
