#===============================================================================
# Created using the Atomic Simulation Environment (ASE)

# Mon Mar 23 14:01:43 2026

#=======================================================
lattice_vector 14.1833344881180565 0.0000000000000000 0.0000000000000000 
lattice_vector 3.7544216431755140 10.1019537203898881 0.0000000000000000 
lattice_vector 0.0000000000000000 0.0000000000000000 34.3239193963161924 
atom 3.3007525380601410 4.5813839949735344 15.5050298847844417 V
atom 15.0524103742246584 2.6096396054237445 17.1565794438355468 V
atom 3.2944063955305154 5.8374865509382170 16.9946069713760082 O
atom 15.7371471544732593 5.1689823939456643 15.0009006950774477 O
atom 14.4980666666602716 2.7533298714289556 15.3372573332624000 O
atom 2.6560777220232734 3.1967545190098550 16.6650765681059312 O
atom 5.1794078879921450 9.6310418650312979 15.5038837750837217 V
atom 16.9291515958946306 7.6603479268513350 17.1572493261172596 V
atom 1.4176948146936901 0.7866461677977041 16.9941789824145602 O
atom 13.8600928776876984 0.1180314995083847 15.0000000000000000 O
atom 16.3748263904392495 7.8033476072125545 15.3378409454190319 O
atom 4.5333664049329929 8.2483391592765241 16.6644415221925826 O
atom 11.5061202467151826 2.6088986735991111 17.1634621970693786 V
atom 13.9356865426435981 4.5806646710138157 15.5096134925511961 V
atom 13.2525079766229226 2.0215372024879610 17.6645402829701865 O
atom 11.5119806123944208 1.3516618518535302 15.6705910130931017 O
atom 12.1503886950711841 3.9930430882472385 16.0009080529047765 O
atom 14.4929465937022695 4.4368477699228377 17.3282135351061157 O
atom 13.3825228023670917 7.6599825620987829 17.1637027296117495 V
atom 15.8140193245043470 9.6321690805029867 15.5086393250307495 V
atom 15.1301667775320592 7.0713742921245784 17.6636192568643295 O
atom 13.3884502653705493 6.4034414122089407 15.6703956978936887 O
atom 14.0280913393631685 9.0431021513717784 16.0013286115519975 O
atom 16.3722458303439851 9.4884498137146664 17.3273264453801730 O
atom 4.4138732271526422 2.6082820188653151 17.1618304732601956 V
atom 6.8492132718754410 4.5785042379290539 15.5040887604539392 V
atom 6.1669497381913523 2.0212121233333455 17.6608860263404779 O
atom 4.4182037458052923 1.3541806027504690 15.6692033269920259 O
atom 5.0536874411820891 3.9920098735419001 16.0028260299769514 O
atom 7.4033398106644217 4.4355994177139051 17.3287520449655545 O
atom 6.2907598223313768 7.6598344843613253 17.1617233571713683 V
atom 8.7273032344320498 9.6298521529788079 15.5028369986250780 V
atom 8.0438103361725339 7.0722775750204541 17.6635272037562032 O
atom 6.2960369570355033 6.4054640936469909 15.6691915728139364 O
atom 6.9309382152116674 9.0416459354350049 16.0018181996039317 O
atom 9.2818197741564425 9.4872294215018584 17.3282983801688673 O
atom 10.3922612919395032 4.5818010269442020 15.5006391237151675 V
atom 7.9588376725053713 2.6106053862587211 17.1610014716162453 V
atom 10.3899513068753251 5.8363320279190267 16.9958058456119545 O
atom 8.6410288347475053 5.1683384088229332 15.0032805379940442 O
atom 7.4039335491821419 2.7550861775404614 15.3353567302090212 O
atom 9.7539842361858184 3.1983022462030966 16.6625919209493745 O
atom 12.2714339388748783 9.6321517365238787 15.5004157935717117 V
atom 9.8361045782296195 7.6616919544777193 17.1624545382121383 V
atom 8.5141720254411144 0.7848992058087473 16.9959811335506004 O
atom 6.7637080702689509 0.1173899571371876 15.0033384093571485 O
atom 9.2812729966653151 7.8053554263577229 15.3369680865397555 O
atom 11.6306624875679248 8.2500167949087242 16.6627873690257715 O
atom 10.9438231418289362 5.6918214493947596 18.8251928884968436 V
atom 8.5131471075605365 2.4667278625105125 18.9900106834535620 O
atom 9.1490712388684390 5.1046143533659256 19.3237456110141039 O
atom 9.0676205832406556 0.6411617498198076 18.8239221703403388 V
atom 10.3904184622036748 7.5182897389116157 18.9901163644051962 O
atom 7.2723312014771020 0.0530377358833266 19.3239193963161924 O
atom 14.4885854150472220 5.6944732426850413 18.8256522351825524 V
atom 12.7360028431320345 6.2815953805845348 18.3244309964878909 O
atom 11.5000928789966910 3.8676640220476930 18.6575009775565022 O
atom 12.6126963886109795 0.6424460969319306 18.8248361431238251 V
atom 10.8592547836545368 1.2300501686965299 18.3232461495313075 O
atom 13.3765081891514672 8.9176148131239632 18.6577672625402968 O
atom 7.3965599416484675 5.6937062320834171 18.8215586535767940 V
atom 5.6500034364641172 6.2808593477090984 18.3216319693943177 O
atom 4.4091857315713590 3.8658780683003351 18.6574854089980846 O
atom 5.5207922668045137 0.6427400019777423 18.8218758600290315 V
atom 3.7724985967021714 1.2309356171819994 18.3225739290200167 O
atom 6.2860172566500072 8.9157512687436444 18.6588334944144094 O
atom 3.8496304661142120 5.6930098693959943 18.8302637642397386 V
atom 1.4243454656810630 2.4648939076102869 18.9917626974475056 O
atom 2.0630465671882403 5.1060606277033749 19.3214739532730206 O
atom 1.9733356710266667 0.6425685240094601 18.8287658965703457 V
atom 3.3028975111042151 7.5163442751411074 18.9918345144282625 O
atom 0.1859481018717452 0.0545052237867638 19.3218081434814763 O
