#===============================================================================
# Created using the Atomic Simulation Environment (ASE)

# Mon Mar 23 14:01:46 2026

#=======================================================
lattice_vector 10.7863573876396668 0.0000000000000000 0.0000000000000000 
lattice_vector 2.8859864345801114 10.3931385144755009 0.0000000000000000 
lattice_vector 0.0000000000000000 0.0000000000000000 30.0013515070342649 
atom 6.2691071443055577 4.7657456553591402 15.0002909491422791 V
atom 5.0857610711601637 6.3227272787764592 15.0001581964800437 O
atom 7.4529217223799265 3.2092553444792911 15.0000484484338976 O
atom 7.7120787588056103 9.9621524474443994 15.0004828611484591 V
atom 3.6417232214373771 1.1259680260572087 15.0012742786300848 O
atom 8.8953613752435388 8.4045955592998158 15.0010799841690883 O
atom 11.6623813047602045 4.7656052636097428 15.0006313384270271 V
atom 10.4781078812573867 6.3226293251064813 15.0012169490506793 O
atom 2.0593723207250805 3.2076538702972348 15.0013515070342649 O
atom 13.1056690421107813 9.9622524013536573 15.0001543321593118 V
atom 9.0364750352373022 1.1261581760523878 15.0000000000000000 O
atom 3.5027267215973152 8.4052303079326851 15.0000391251788301 O
