#===============================================================================
# Created using the Atomic Simulation Environment (ASE)

# Mon Mar 23 14:01:44 2026

#=======================================================
lattice_vector 10.7779019647855687 0.0000000000000000 0.0000000000000000 
lattice_vector 4.9380262626701636 13.2931389776887805 0.0000000000000000 
lattice_vector 0.0000000000000000 0.0000000000000000 49.2667131905445785 
atom 15.2119828187469235 12.3005579884336296 15.5004084925709762 V
atom 2.1866229683681291 0.6044474962461555 17.1551200509460458 V
atom 5.9519707054956372 11.1477209393789920 15.3328836959228703 O
atom 14.0344407457999338 10.8275277875070444 15.0003022860882496 O
atom 0.6738327753071151 0.4839528513050724 15.9997743654474665 O
atom 3.3630797031803308 0.1654904053360579 15.6708960841438554 O
atom 13.9765092755802520 8.9797586064909094 15.5004131334718629 V
atom 5.8925309219020248 10.5791417619383719 17.1618853058248568 V
atom 7.0650723713148196 12.0556426089534057 17.6594563557504820 O
atom 4.3749843973501532 11.7315641807832272 17.3232199960201356 O
atom 12.7987803607876138 9.4238918138514585 16.9952881594878491 O
atom 4.7152479917849055 9.1014174138782931 16.6605798668393845 O
atom 11.5078849010929645 2.3384865982578740 15.5071464529815870 V
atom 3.4237029584543035 3.9345354045841425 17.1621027334237688 V
atom 4.5980905938993875 5.4063918072019028 17.6611065750751628 O
atom 1.9041115997989988 5.0880919072677671 17.3283263903669393 O
atom 10.3324901849804540 2.7761883771327822 16.9906633178056268 O
atom 2.2445184039568247 2.4573637646427371 16.6606535907446407 O
atom 12.7426946847579554 5.6550214655146211 15.5007219290521032 V
atom 4.6567905405737395 7.2555989484686654 17.1601971339938260 V
atom 3.4795198617970988 4.5020731665049301 15.3365646896049377 O
atom 11.5674705627127636 4.1791849180440312 15.0010706153582873 O
atom 3.1406427312240988 7.1320305163597819 16.0004467510357706 O
atom 5.8359912478151168 6.8112207245805649 15.6656655416670176 O
atom 9.8216272608517166 12.3003655038143833 15.4995801738215988 V
atom 7.5767828217010829 0.6026714947114713 17.1538094668946606 V
atom 11.3402701856650303 11.1460445290330039 15.3314983040375186 O
atom 8.6461122528304930 10.8275080670911361 15.0000000000000000 O
atom 6.0614322264059899 0.4840372761723788 15.9998771749440358 O
atom 8.7523337958960141 0.1650249761611068 15.6701784701320186 O
atom 8.5880170334299937 8.9789624548015023 15.5001558729698985 V
atom 11.2800082055449380 10.5789501724858113 17.1591675152560441 V
atom 12.4552906431771042 12.0553556621953213 17.6592350247276997 O
atom 9.7650808350239213 11.7320066236628140 17.3242830488080060 O
atom 7.4088275371119794 9.4232354107718663 16.9948229756830003 O
atom 10.1049423707411705 9.1019493975627501 16.6594448036525051 O
atom 6.1199475223346864 2.3372396001190032 15.5063367202930422 V
atom 8.8096094447878848 3.9338930171545194 17.1593971174914017 V
atom 9.9883137765093082 5.4068928530256457 17.6597015014520871 O
atom 7.2933037886250052 5.0873893901058320 17.3281278406303869 O
atom 4.9436622583767473 2.7760700354530714 16.9900684065675875 O
atom 7.6325748649141145 2.4578256619311896 16.6610302917531072 O
atom 7.3531037457127848 5.6546040100732373 15.4986718072626850 V
atom 10.0470242061701356 7.2543558500280065 17.1598111062459466 V
atom 8.8703336236558545 4.5027598452850555 15.3378001109636664 O
atom 6.1805168057283177 4.1783989567128348 15.0003387241305184 O
atom 8.5300588999347671 7.1323894067703844 16.0001480048710114 O
atom 11.2244420757486161 6.8108124760205646 15.6654256393830860 O
atom 10.2726186512975666 5.3992380061164722 22.1426682711878193 V
atom 11.5067785108144101 5.5296272228962575 18.8231083067698179 V
atom 3.4227296690513112 7.1305650488295154 20.4839016012774024 V
atom 12.9631870283745076 6.9962664916177779 23.7973798295628889 V
atom 11.7905085028318499 4.2464009570618328 21.9751434745397134 O
atom 4.5952464356305134 8.6052073785404755 20.9812025494364889 O
atom 12.6836350003936911 8.2811964945545462 20.6451018617376505 O
atom 9.0950765783505787 3.9262078051898865 21.6425620647050962 O
atom 11.4503968353134926 6.8757718466766953 22.6420341440643114 O
atom 10.3287572367449005 5.9739071225347589 20.3162200348575439 O
atom 2.2448405323327179 5.6509040970857463 19.9836670401682284 O
atom 3.3617417984011397 6.5573094007076813 22.3131558627606985 O
atom 12.7423950911081345 8.8503698171548901 18.8220508140438270 V
atom 9.0371451081308987 2.0784386241737511 22.1426729120887060 V
atom 11.7310687192382375 3.6778217796212145 23.8041450844417000 V
atom 4.6549676194724725 10.4470910344121481 20.4770951041201918 V
atom 3.4822633227262227 7.6960378281564896 18.6538618056014442 O
atom 2.1257082038654649 5.1543226266362465 24.3017161343673287 O
atom 10.2135221946863659 4.8302441984660662 23.9654797746369823 O
atom 11.5649905975067284 7.3773667745644715 18.3211991445588396 O
atom 13.9198976841321489 10.3259772454310745 19.3220108313116619 O
atom 7.8594161933382614 2.5225718315343006 23.6375479381046922 O
atom 10.5537857891211200 2.2000974315611352 23.3028396454562277 O
atom 5.8312172117859147 10.0082793884838033 18.9912260160904012 O
atom 10.2734565475677027 2.2038410602225733 18.8213471547208044 V
atom 11.5065469963137730 8.7303055936294971 22.1494062315984337 V
atom 14.2002670184606821 10.3263543999557648 23.8043625120406119 V
atom 2.1871930024605697 3.8050491673890825 20.4808903902340340 V
atom 1.0103002625275472 1.0528339607977693 18.6580344734786365 O
atom 4.5967526891201960 11.7982108025735251 24.3033663536920059 O
atom 12.6806756598053756 11.4799109026393875 23.9705861689837860 O
atom 9.0983063703404774 0.7275609708459622 18.3223859333232042 O
atom 11.4495149772811633 3.6818127618955607 19.3205110838760383 O
atom 10.3311522802012625 9.1680073725044053 23.6329230964224735 O
atom 13.0210824639632037 8.8491827600143598 23.3029133693614874 O
atom 3.3654624528658137 3.3595123040504151 18.9871137449880436 O
atom 12.7413567799787621 12.0468404608862443 22.1429817076689446 V
atom 13.9765903654836947 12.1806449919423212 18.8267754097384952 V
atom 0.9543056289424827 0.4821653663580294 20.4825178482994659 V
atom 10.4953283379099531 0.3542789661515074 23.8024569126106726 V
atom 14.2560839218034747 10.8938921618765523 21.9788244682217808 O
atom 2.1284722198726502 1.9559977411194265 20.9821936333108958 O
atom 10.2118356471927765 1.6364191248321636 20.6486380880523726 O
atom 11.5661326579335721 10.5710039134156553 21.6433303939751340 O
atom 8.9791805285603115 0.2307105340426230 22.6427065296526173 O
atom 12.8012777939710727 12.6177788494210699 20.3123176333220101 O
atom 4.7140321908275968 12.2991932463471780 19.9798471379005207 O
atom 5.8346533430359244 13.2030397199521872 22.3079253202838643 O
atom 4.8822630934023623 5.3990455214972251 22.1418399524384419 V
atom 6.1183615896102479 5.5287219040260043 18.8228026137229598 V
atom 8.8090316650926983 7.1288456257986583 20.4807437997659747 V
atom 7.5754449169218896 6.9944904900830958 23.7960692455115037 V
atom 6.4009060182156743 4.2447245467158465 21.9737580826543635 O
atom 9.9846967726339297 8.6054452177860501 20.9806703909956695 O
atom 7.2948242481646437 8.2800632648959667 20.6450877759247646 O
atom 3.7067480853811388 3.9261880847739787 21.6422597786168467 O
atom 6.0600943216267993 6.8758562715440013 22.6421369535608825 O
atom 4.9400130407617295 5.9740068306130949 20.3160686796794359 O
atom 7.6344404477607712 5.6514285747835915 19.9818203354581740 O
atom 8.7509958911168244 6.5568439715327296 22.3124382487488617 O
atom 7.3517516175893807 8.8503122695284180 18.8205043961994818 V
atom 3.6486528659806394 2.0776424724843436 22.1424156515867416 V
atom 6.3406440380955829 3.6776301901686539 23.8014272938728908 V
atom 10.0455175181230132 10.4443427333682255 20.4751370460580020 V
atom 8.8719678641444055 7.6963327742852901 18.6547026636729818 O
atom 7.5159264757277500 5.1540356798781639 24.3014948033445464 O
atom 4.8257166675745671 4.8306866413456566 23.9665428274248526 O
atom 6.1769592560246736 7.3768252463857493 18.3206814751483122 O
atom 8.5300910023915772 10.3261133283845989 19.3227152614356470 O
atom 2.4694633696626238 2.5219154284547072 23.6370827542998398 O
atom 5.1655782032918154 2.2006294152455905 23.3017045822693518 O
atom 11.2202589237234491 10.0079586957426105 18.9904936295122333 O
atom 4.8830431299254586 2.2035720142489619 18.8202385483218784 V
atom 6.1186096175554958 8.7290585954906259 22.1485964989098854 V
atom 8.8082715400086951 10.3257120125261412 23.8016568961082484 V
atom 7.5763813864763963 3.8032344217730047 20.4799456835345488 V
atom 6.3994132601673943 1.0519930390851979 18.6575396942896319 O
atom 9.9869758717301185 11.7987118483972679 24.3019612800689302 O
atom 7.2919658838458137 11.4792083854774560 23.9703876192472300 O
atom 3.7096733652106555 0.7279211631509940 18.3222725429679585 O
atom 6.0594321767738055 3.6819530730004835 19.3198043401711601 O
atom 4.9423243535975567 9.1678890308246945 23.6323281851844307 O
atom 7.6312369601349239 8.8496446573028109 23.3032900703699539 O
atom 8.7548919653280350 3.3592320464476972 18.9865182260668597 O
atom 7.3517658409335933 12.0464230054448596 22.1409315858795281 V
atom 8.5881753910265441 12.1793557940721193 18.8256709644012616 V
atom 6.3411514086378871 0.4817558155005074 20.4797458177525300 V
atom 5.1076600387207813 0.3530358677108483 23.8020708848627933 V
atom 8.8689957188766613 10.8945788406566777 21.9800598895805130 O
atom 7.5197335206372644 1.9552473176716811 20.9805110591151731 O
atom 4.8235796787755048 1.6368187788091539 20.6493382819246278 O
atom 6.1791789009491254 10.5702179520844570 21.6425985027473615 O
atom 3.5906947324854106 0.2310694244532271 22.6424077834878545 O
atom 7.4121783055001815 12.6180967219752933 20.3116725383215950 O
atom 10.1022810387898989 12.2996641575638783 19.9806898617815989 O
atom 11.2231041709694246 13.2026314713921860 22.3076854179999273 O
atom 10.2712807465183733 11.7910570014880935 28.7849280498046625 V
atom 11.5054406060352203 11.9214462182678815 25.4653680853866646 V
atom 9.2612674663875261 0.2292450665123603 27.1261613798942456 V
atom 8.0238228609251507 0.0949465093006185 30.4396396081797356 V
atom 11.7891705980526602 10.6382199524334577 28.6174032531565565 O
atom 10.4337842329667279 1.7038873962233176 27.6234623280533320 O
atom 7.7442708329443342 1.3798765122373877 27.2873616403544936 O
atom 9.0937386735713872 10.3180268005615101 28.2848218433219323 O
atom 11.4490589305343029 13.2675908420483175 29.2842939226811545 O
atom 10.3274193319657108 12.3657261179063820 26.9584798134743835 O
atom 13.0214045923390955 12.0427230924573703 26.6259268187850680 O
atom 14.1383058584075165 12.9491283960793027 28.9554156413775416 O
atom 7.8030309236587794 1.9490498348377332 25.4643105926606701 V
atom 9.0358072033517054 8.4702576195453769 28.7849326907055527 V
atom 11.7297308144590477 10.0696407749928358 30.4464048630585467 V
atom 10.4935054168086861 3.5457710520949903 27.1193548827370350 V
atom 9.3208011200624359 0.7947178458393344 25.2961215842182838 O
atom 12.9022722638718417 11.5461416220078714 30.9439759129841718 O
atom 10.2121842899071762 11.2220631938376911 30.6077395532538219 O
atom 6.6256264300573724 0.4760467922473128 24.9634589231756827 O
atom 8.9805335166827920 3.4246572631139158 25.9642706099285050 O
atom 7.8580782885590663 8.9143908269059242 30.2798077167215389 O
atom 10.5524478843419303 8.5919164269327606 29.9450994240730708 O
atom 11.6697550091221274 3.1069594061666441 25.6334857947072479 O
atom 10.2721186427885129 8.5956600555941964 25.4636069333376511 V
atom 6.5671828288644205 1.8289856113123395 28.7916660102152768 V
atom 9.2609028510113252 3.4250344176386078 30.4466222906574586 V
atom 12.9637570624669483 10.1968681627607065 27.1231501688508772 V
atom 11.7868643225339245 7.4446529561693922 25.3002942520954832 O
atom 10.4352904864564113 4.8968908202563668 30.9456261323088526 O
atom 7.7413114923560222 4.5785909203222301 30.6128459476006292 O
atom 9.0969684655612859 7.1193799662175854 24.9646457119400509 O
atom 11.4481770725019718 10.0736317572671812 25.9627708624928815 O
atom 5.3917881127519065 2.2666873901872457 30.2751828750393166 O
atom 8.0817182965138485 1.9478627776972013 29.9451731479783305 O
atom 14.1420265128721905 9.7513312994220378 25.6293735236048903 O
atom 7.8019926125294079 5.1455204785690869 28.7852414862857913 V
atom 9.0372261980343414 5.2793250096251638 25.4690351883553383 V
atom 11.7308696889488608 6.8739843617296534 27.1247776269163126 V
atom 10.4939904331307616 6.7460979615231329 30.4447166912275158 V
atom 9.3167197543541214 3.9925721795593945 28.6210842468386275 O
atom 12.9050362798790257 8.3478167364910494 27.6244534119277390 O
atom 10.2104977424135850 8.0282381202037865 27.2908978666692121 O
atom 6.6267684904842152 3.6696839310984966 28.2855901725919772 O
atom 8.9778426237811200 6.6225295294142459 29.2849663082694605 O
atom 7.8619136265217175 5.7164588671039134 26.9545774119388533 O
atom 10.5525699881638104 5.3978732640300207 26.6221069165173674 O
atom 11.6731911403721362 6.3017197376350289 28.9501850989007075 O
atom 4.8809251886231708 11.7908645168688473 28.7840997310552851 V
atom 6.1170236848310564 11.9205408993976274 25.4650623923398030 V
atom 3.8696674976433436 0.2275256434815015 27.1230035783828178 V
atom 2.6360807494725358 0.0931705077659355 30.4383290241283504 V
atom 6.3995681134364837 10.6365435420874661 28.6160178612712066 O
atom 5.0453326051845755 1.7041252354688925 27.6229301696125162 O
atom 2.3554600807152903 1.3787432825788117 27.2873475545416113 O
atom 14.4833121453875169 10.3180070801456001 28.2845195572336898 O
atom 6.0587564168476078 13.2676752669156262 29.2843967321777257 O
atom 4.9386751359825380 12.3658258259847180 26.9583284582962790 O
atom 7.6331025429815806 12.0432475701552146 26.6240801140750207 O
atom 8.7496579863376329 12.9486629669043509 28.9546980273657084 O
atom 2.4123874501400251 1.9489922872112599 25.4627641748163285 V
atom 3.6473149612014475 8.4694614678559663 28.7846754302035848 V
atom 6.3393061333163923 10.0694491855402752 30.4436870724897339 V
atom 5.1061533506736581 3.5430227510510668 27.1173968246748487 V
atom 3.9326036966950517 0.7950127919681331 25.2969624422898249 O
atom 7.5145885709485585 11.5458546752497853 30.9437545819613895 O
atom 4.8243787627953765 11.2225056367172797 30.6088026060416958 O
atom 1.2375950885753175 0.4755052640685880 24.9629412537651589 O
atom 3.5907268349422226 3.4247933460674416 25.9649750400524937 O
atom 13.2460274296690006 8.9137344238263285 30.2793425329166865 O
atom 5.1642402985126239 8.5924484106172123 29.9439643608861950 O
atom 6.2808947562740931 3.1066387134254536 25.6327534081290800 O
atom 4.8817052251462671 8.5953910096205846 25.4624983269387215 V
atom 1.1792454501061398 1.8277386131734679 28.7908562775267285 V
atom 3.8689073725593399 3.4243920302089830 30.4439166747250916 V
atom 7.5750434816972048 10.1950534171446261 27.1222054621513919 V
atom 6.3980753553882037 7.4438120344568208 25.2997994729064786 O
atom 5.0476117042807624 4.8973918660801115 30.9442210586857769 O
atom 2.3526017163964590 4.5778884031602960 30.6126473978640732 O
atom 3.7083354604314644 7.1197401585226157 24.9645323215848052 O
atom 6.0580942719946149 10.0737720683721061 25.9620641187880068 O
atom 10.7808621509337712 2.2665690485075336 30.2745879638012774 O
atom 2.6918727926855683 1.9483246749856529 29.9455498489867971 O
atom 8.7535540605488453 9.7510510418193199 25.6287780046837028 O
atom 2.4124016734842377 5.1451030231277004 28.7831913644963713 V
atom 3.6488112235771890 5.2780358117549602 25.4679307430181083 V
atom 6.3398135038586965 6.8735748108721291 27.1220055963693696 V
atom 5.1063221339415898 6.7448548630824687 30.4443306634796329 V
atom 3.9296315514273061 3.9932588583395199 28.6223196681973562 O
atom 7.5183956158580729 8.3470663130433049 27.6227708377320198 O
atom 4.8222417739963133 8.0286377741807762 27.2915980605414710 O
atom 12.0177166982853389 3.6688979697672970 28.2848582813642082 O
atom 3.5893568277062196 6.6228884198248483 29.2846675621047012 O
atom 2.4728141380508268 5.7167767396581333 26.9539323169384417 O
atom 5.1629168713405429 5.3983441752467209 26.6229496403984456 O
atom 6.2837400035200686 6.3013114890750295 28.9499451966167740 O
atom 6.5660764385858661 5.0201262359507259 32.1076278640035042 V
atom 9.2599295616083381 6.6210640618839829 33.7684211585110887 V
atom 10.4324463281875364 8.0957063915949430 34.2657221066701752 O
atom 7.7429329281651444 7.7716955076090128 33.9296214189713368 O
atom 5.3880551645163548 5.4644061355892246 33.6007395920912302 O
atom 8.0820404248897404 5.1414031101402111 33.2681865974019075 O
atom 7.8016930188795870 8.3408688302093577 32.1065703712775132 V
atom 10.4921675120294964 9.9375900474666157 33.7616146613538746 V
atom 9.3194632152832462 7.1865368412109563 31.9383813628351270 O
atom 6.6242885252781818 6.8678657876189382 31.6057187017925223 O
atom 8.9791956119036040 9.8164762584855385 32.6065303885453517 O
atom 11.6684171043429377 9.4987784015382672 32.2757455733240874 O
atom 5.3327544753391596 1.6943400732770397 32.1058667119544907 V
atom 8.0243928950175949 3.2955481804435509 33.7654099474677167 V
atom 6.8475001550845693 0.5433329738522350 31.9425540307123228 O
atom 4.1576042981119299 0.2180599839004267 31.6069054905568940 O
atom 6.5088129050526140 3.1723117749500251 32.6050306411097210 O
atom 9.2026623454228371 2.8500113171048800 32.2716333022217299 O
atom 9.0358882932551481 11.6711440049967869 32.1112949669721814 V
atom 11.7295317841696676 13.2658033571012748 33.7670374055331592 V
atom 7.9656721124296723 1.4464967541738942 34.2667131905445785 O
atom 5.2711335749642290 1.1269181378866289 33.9331576452860588 O
atom 7.8605757217425278 12.1082778624755374 33.5968371905556964 O
atom 10.5512320833846207 11.7896922594016456 33.2643666951341999 O
atom 11.9555614821672709 5.0192209170804682 32.1073221709566496 V
atom 3.8683295928641517 6.6193446388531223 33.7652633569996681 V
atom 5.0439947004053840 8.0959442308405158 34.2651899482293629 O
atom 13.1320241407216667 7.7705622779504342 33.9296073331584580 O
atom 10.7772129333187525 5.4645058436675598 33.6005882369131257 O
atom 2.6937383755322255 5.1419275878380564 33.2663398926918603 O
atom 13.1889515101464028 8.3408112825828820 32.1050239534331681 V
atom 5.1048154458944675 9.9348417464226895 33.7596566032916883 V
atom 3.9312657919158598 7.1868317873397540 31.9392222209066716 O
atom 12.0141591485816939 6.8673242594402097 31.6052010323820021 O
atom 14.3672908949485993 9.8166123414390665 32.6072348186693404 O
atom 6.2795568514949025 9.4984577087970781 32.2750131867459231 O
atom 10.7202430224824816 1.6940710273034314 32.1047581055555611 V
atom 2.6356793142478505 3.2937334348274701 33.7644652407682315 V
atom 1.4587111879388490 0.5424920521396642 31.9420592515233217 O
atom 9.5468732577676771 0.2184201762054577 31.6067921002016483 O
atom 11.8966320693308294 3.1724520860549488 32.6043238974048535 O
atom 3.8141898930994911 2.8497310595021643 32.2710377833005424 O
atom 14.4253752835835645 11.6698548071265815 32.1101905216349479 V
atom 6.3384755990795050 13.2653938062437504 33.7642653749862163 V
atom 2.5790314484087182 1.4457463307261453 34.2650306163488665 O
atom 10.6607795713325260 1.1273177918636195 33.9338578391583141 O
atom 13.2493781980572045 12.1085957350297608 33.5961920955552813 O
atom 5.1615789665613523 11.7901631706183441 33.2652094190152781 O
