#===============================================================================
# Created using the Atomic Simulation Environment (ASE)

# Mon Mar 23 14:01:47 2026

#=======================================================
lattice_vector 9.2314623421363340 0.0000000000000000 0.0000000000000000 
lattice_vector 0.0003972008493561 9.2315018135911977 0.0000000000000000 
lattice_vector 0.0000000000000000 0.0000000000000000 32.7895342899812761 
atom 0.0000484019886503 0.0000217087262182 17.7894531849922082 V
atom 1.3830153087386179 1.3831813667330752 17.7893086773447813 O
atom 3.2324832178045360 3.2326642888469985 17.7893126926923415 O
atom 9.2316814442587809 9.2312661422298525 15.0000497650423270 V
atom 2.3078145008450122 2.3079295639223552 16.3947707550107467 V
atom 1.3832276181480387 1.3833928572394676 15.0002515673006762 O
atom 3.2323079995534418 3.2325196976904267 15.0002564627257371 O
atom 0.9252592211735137 3.6908186577070201 16.3949852799614888 O
atom 3.6904794659355473 0.9252888078469012 16.3952547900235217 O
atom 1.3832947792066366 5.9989334418052724 17.7894749223358168 O
atom 3.2327524955932661 7.8482918541378517 17.7894729076967693 O
atom 0.0002513989429736 4.6158522104630597 15.0000102899838481 V
atom 2.3081213800132643 6.9236210484082488 16.3949711500047570 V
atom 1.3833940797675524 5.9992003247067007 15.0000507722986143 O
atom 3.2326085790294159 7.8482275722714157 15.0000466077188186 O
atom 0.9248919692195317 8.3069186167771658 16.3960105849889928 O
atom 3.6912020832144088 5.5404259534213693 16.3957862350266872 O
atom 5.9992245236740676 1.3833624464231282 17.7890484922746310 O
atom 7.8486147768166070 3.2325700202079113 17.7890553676578307 O
atom 4.6161473977160536 9.2314767479841819 15.0000000000000000 V
atom 6.9238171125507968 2.3079579581068095 16.3950147899782479 V
atom 5.9994207390580945 1.3833840373297661 15.0005397322510028 O
atom 7.8484441067297466 3.2323373190073341 15.0005455476994101 O
atom 5.5405584110344952 3.6912231270828495 16.3958207749688825 O
atom 8.3071043894530252 0.9244689786969149 16.3960444950065494 O
atom 4.6158905128264927 4.6157421374083212 17.7894596250047989 V
atom 5.9991666467713909 5.9987719687516972 17.7892042373363388 O
atom 7.8490923788045253 7.8483928310159250 17.7892041426202212 O
atom 4.6160481813462777 4.6159139990568132 15.0000636549705781 V
atom 6.9240317597281607 6.9235577945596019 16.3950396149913828 V
atom 5.9997074931594110 5.9993066822126595 15.0003747572244279 O
atom 7.8483636474689087 7.8476389017892538 15.0003721327742312 O
atom 5.5413193165290773 8.3062824817338115 16.3953400199755279 O
atom 8.3067773707183594 5.5407287267048693 16.3950745700139002 O
atom 0.0003314327911370 4.6157897637134324 17.7895342899812796 V
atom 4.6157004037346923 0.0000528504365696 17.7895256599977998 V
