#===============================================================================
# Created using the Atomic Simulation Environment (ASE)

# Mon Mar 23 14:01:45 2026

#=======================================================
lattice_vector 18.4059850900857853 0.0000000000000000 0.0000000000000000 
lattice_vector -0.0015568314247998 9.2181866113943300 0.0000000000000000 
lattice_vector 0.0000000000000000 0.0000000000000000 34.2120108780818697 
atom 6.9036788465162697 2.3030364838259021 16.4065660312736341 V
atom 9.2043900606180014 0.0017134986315517 15.0029027200822789 V
atom 11.5056616283303939 2.3084908265666488 16.4032628412533761 V
atom 9.2028744392694772 4.6027209736843204 17.8040206423497729 V
atom 7.8280371206543684 1.3828923115430856 17.8065602826197527 O
atom 12.8803522211985655 3.6893937007007964 16.4006498712109696 O
atom 10.5835214688033439 3.2225486855892909 15.0013453007795903 O
atom 5.5263138514787924 0.9212303670359339 16.4039108077630864 O
atom 8.2828263186499989 3.6867388088493218 16.4067501208937401 O
atom 7.8262083454220148 1.3855890589451449 15.0006717107916927 O
atom 10.1255603895245603 0.9219940996649157 16.4044305657402383 O
atom 10.5785085759076463 3.2289401728093070 17.8074255561869030 O
atom 4.6035467846889011 0.0002141815600235 17.8067465029765337 V
atom 13.8038830588296602 4.6034489879843967 15.0000000000000000 V
atom 12.4289381883716477 1.3820784311330023 15.0026665963981216 O
atom 8.2793616780451451 3.6887888270506979 19.2049181844658534 O
atom 5.9820639195825160 3.2217992219608651 17.8052758220818426 O
atom 0.9255315766191442 0.9214035224661464 19.2080066378103638 O
atom 3.2249233889930755 1.3852584721349097 17.8058020394750223 O
atom 5.5255796265034709 0.9204771998798045 19.2081593920247187 O
atom 15.1799885297157413 3.2285837380674631 15.0022334615704054 O
atom 6.9033058858926895 6.9123474422019022 16.4062253662142332 V
atom 9.2039082556045244 4.6178373719507473 15.0032566045160500 V
atom 11.5053394612362272 6.9170188170411251 16.4030989986313323 V
atom 9.2047955591813828 0.0002249220461503 17.8045264301122543 V
atom 7.8241453762628561 5.9965070881937743 17.8059517423439715 O
atom 12.8799685148061904 8.2972167065739093 16.4041820529333648 O
atom 10.5802675413710539 7.8367244296268552 15.0010061573521476 O
atom 5.5263516405691018 5.5291126310748018 16.4074923930884218 O
atom 8.2815968250188146 8.2969013612575253 16.4045102666604592 O
atom 7.8289654960089141 5.9902382021873741 15.0007579820525514 O
atom 10.1255037163763610 5.5313732131378224 16.4013418143217535 O
atom 10.5814010197765551 7.8331852520196383 17.8072662019163737 O
atom 4.6033866915396393 4.6165286687261347 17.8071731925048979 V
atom 6.9039478651515447 6.9153130155918978 19.2082961497526483 V
atom 13.8057759869469816 0.0004680551906359 15.0003886770397727 V
atom 12.4245919033935230 5.9952819082149791 15.0019638139220923 O
atom 8.2788865668163876 8.2973652889816059 19.2084463519562156 O
atom 5.9785081411045784 7.8354276327752954 17.8053068635426612 O
atom 3.2275702336503183 5.9899949404176738 17.8062660619043420 O
atom 5.5257061992089538 5.5295227109703333 19.2056235869745002 O
atom 15.1838835408894059 7.8336879103498225 15.0024531770317751 O
atom 13.8063580035733313 0.0008604830873160 17.8079767427087852 V
atom 16.1056355050571973 2.3050183264529616 19.2054923814336860 V
atom 4.6019727370121357 4.6005500844029106 15.0005462364139746 V
atom 3.2256111437519830 1.3807365870391251 15.0020121636121218 O
atom 17.4828008800383934 3.6891702463549048 19.2048684018533216 O
atom 15.1849624221267430 3.2217477272435002 17.8065272722755168 O
atom 12.4282179593632431 1.3855441855670450 17.8050484688383186 O
atom 14.7287186384968134 0.9210222864055484 19.2077721653807458 O
atom 5.9771108359507004 3.2281053426077273 15.0030245929622765 O
atom 16.1058351805771771 2.3025787786285634 16.4048671961908639 V
atom 0.0004349746360910 9.2176683056733619 15.0029026082705208 V
atom 2.3019601247499262 2.3043164867216186 16.4018233026986557 V
atom 0.0006804857858024 4.6001274172214233 17.8057836097910567 V
atom 17.0311298427089106 1.3828838352168846 17.8077953217674114 O
atom 3.6786750971984321 3.6884353371822538 16.4012030480479005 O
atom 1.3810832843842988 3.2228769292717101 15.0018090830440265 O
atom 14.7305447071520508 0.9206599803855369 16.4040917367156922 O
atom 17.4841604311806798 3.6878227668891639 16.4074788613696754 O
atom 17.0282337115356590 1.3844730870338671 15.0009889519233077 O
atom 0.9250824831241458 0.9200332588806097 16.4031267012992323 O
atom 1.3759660006313592 3.2278287027346200 17.8064644130613239 O
atom 13.8063394728957363 4.6163842563159454 17.8084919293788531 V
atom 16.1052162555143354 6.9146189930544359 19.2047278339440624 V
atom 4.6013609039045402 9.2164773921694625 15.0007869638313771 V
atom 3.2224059458307623 5.9955724230924359 15.0018403277965788 O
atom 17.4834908256240453 8.2965468387118495 19.2081239333409499 O
atom 15.1820227844720677 7.8360892450151791 17.8058664498067145 O
atom 12.8826790257236912 8.2964844884047455 19.2078365542536886 O
atom 12.4309819211573274 5.9897225391933420 17.8049626667511802 O
atom 14.7265181403757879 5.5319599670623134 19.2052353050922981 O
atom 5.9801784434844407 7.8325667993521710 15.0029149001763891 O
atom 16.1059691842566970 6.9113053388023111 16.4046828019101802 V
atom 0.0020185537232392 4.6148438795914730 15.0031711881264584 V
atom 2.3012559540820763 6.9130367308503118 16.4013909798212367 V
atom 0.0007436132255877 9.2175095341267586 17.8060125319463545 V
atom 17.0277352369427284 5.9966432430738941 17.8076624097103640 O
atom 3.6794441964014477 8.2956375728314935 16.4046938782695619 O
atom 1.3772577674175486 7.8362142286665284 15.0014171704393391 O
atom 14.7310051976314327 5.5285751327017385 16.4076095327723976 O
atom 17.4841215608318059 8.2973960508527540 16.4049182093412469 O
atom 17.0320394673409119 5.9897555454733888 15.0011910932339028 O
atom 0.9232380528492942 5.5304614146640088 16.4010473743884226 O
atom 1.3791458889565793 7.8332269941326462 17.8067221280641448 O
atom 2.3024998877281324 2.3037279119323886 19.2110484050224599 V
atom 6.9040506303022999 2.3064025456256965 19.2085018188859031 V
atom 3.6808502568601718 3.6872158921431928 19.2120108780818732 O
atom 2.3016882828021177 6.9130669715421247 19.2103931084975130 V
atom 0.9250862374019179 5.5296425259945909 19.2109401224299177 O
atom 3.6792378910170274 8.2973574581724385 19.2094939546979866 O
atom 11.5044472255387422 2.3023012374331571 19.2098831363402880 V
atom 10.1286881306594090 0.9209939292911010 19.2084880019768320 O
atom 12.8834077995105432 3.6868664641758877 19.2104758358747034 O
atom 11.5040972993755162 6.9113571568814693 19.2093934910244748 V
atom 10.1285401707161533 5.5292757454609456 19.2117892333821736 O
