#===============================================================================
# Created using the Atomic Simulation Environment (ASE)

# Mon Mar 23 14:01:37 2026

#=======================================================
lattice_vector 6.4438726005090654 0.0000000000000000 0.0000000000000000 
lattice_vector -3.5569600490794309 11.3848577209754627 0.0000000000000000 
lattice_vector 0.0000000000000000 0.0000000000000000 33.7155749508654807 
atom 3.5461153857599879 3.4653680971536462 15.0000000304248786 V
atom 0.4700370806989703 4.5273888078309898 15.0000000284149593 V
atom 1.5211490009571134 8.7308797938464924 15.0000000595144378 O
atom -1.1524811977314844 9.8518040987639139 15.0000000470583643 O
atom 5.1205417907051682 4.1318195477011717 15.0000000000000000 O
atom 2.5136672962345847 5.0281683190795201 15.0000000567601859 O
atom 1.7676517598483152 9.1578214656191896 16.8577874304249349 V
atom -0.6591952079980350 7.9194665430351590 15.0000001604405924 V
atom -1.3084063224481706 10.2198057471557959 16.8577874284148663 V
atom 2.4168885237642810 6.8574561687504652 15.0000001724505374 V
atom 3.5461159882117919 3.4653667112494140 18.7155747904248777 V
atom 1.1192779433922007 2.2270273019401343 16.8577875104405734 V
atom 0.4700376831507746 4.5273874219267567 18.7155747884149548 V
atom 4.1953387160171483 1.1650551425911495 16.8577875224506712 V
atom 3.3420923353075773 9.8242357397880475 16.8577873999999142 O
atom -2.2336432354939864 7.2530097576307355 15.0000001908654923 O
atom -0.4126740224050643 8.3463864673651997 16.8577875313509935 O
atom 1.5211496034089174 8.7308784079422583 18.7155748195144298 O
atom 0.7352292613008776 10.7205866197215354 16.8577874467600850 O
atom 0.3732580182337859 6.3566800030516628 15.0000001541053223 O
atom 2.2609202475581571 7.2254612456637854 16.8577875538071140 O
atom -1.1524805952796802 9.8518027128596817 18.7155748070583599 O
atom 5.1205423931569714 4.1318181617969394 18.7155747599999955 O
atom -0.4551665762009364 1.5606013313441276 16.8577875408655586 O
atom 1.3657735447347445 2.6539679678592982 15.0000001313510722 O
atom 3.2995792581473347 3.0385067907451346 16.8577874195146862 O
atom 2.5136678986863892 5.0281669331752870 18.7155748167601779 O
atom 2.1517112773000329 0.6642556931135363 16.8577875041053815 O
atom 4.0393743999262641 1.5330549422051210 15.0000001438072239 O
atom 0.6259581412543891 4.1593774657540354 16.8577874070584350 O
atom -0.6591946055462304 7.9194651571309258 18.7155749204405843 V
atom 2.4168891262160845 6.8574547828462347 18.7155749324505294 V
atom -2.2336426330421819 7.2530083717265033 18.7155749508654843 O
atom 0.3732586206855896 6.3566786171474305 18.7155749141053178 O
atom 1.3657741471865485 2.6539665819550655 18.7155748913510678 O
atom 4.0393750023780681 1.5330535563008885 18.7155749038072230 O
