#===============================================================================
# Created using the Atomic Simulation Environment (ASE)

# Mon Mar 23 14:01:45 2026

#=======================================================
lattice_vector 18.4059850900857853 0.0000000000000000 0.0000000000000000 
lattice_vector -0.0015568314247998 9.2181866113943300 0.0000000000000000 
lattice_vector 0.0000000000000000 0.0000000000000000 32.8113610068709036 
atom 6.9036788465162697 2.3030364838259021 15.0059161600626645 V
atom 11.5056616283303939 2.3084908265666488 15.0026129700424065 V
atom 9.2028744392694772 4.6027209736843204 16.4033707711388033 V
atom 7.8280371206543684 1.3828923115430856 16.4059104114087830 O
atom 12.8803522211985655 3.6893937007007964 15.0000000000000000 O
atom 5.5263138514787924 0.9212303670359339 15.0032609365521168 O
atom 8.2828263186499989 3.6867388088493218 15.0061002496827705 O
atom 10.1255603895245603 0.9219940996649157 15.0037806945292687 O
atom 10.5785085759076463 3.2289401728093070 16.4067756849759334 O
atom 4.6035467846889011 0.0002141815600235 16.4060966317655641 V
atom 8.2793616780451451 3.6887888270506979 17.8042683132548838 O
atom 5.9820639195825160 3.2217992219608651 16.4046259508708729 O
atom 0.9255315766191442 0.9214035224661464 17.8073567665993941 O
atom 3.2249233889930755 1.3852584721349097 16.4051521682640526 O
atom 5.5255796265034709 0.9204771998798045 17.8075095208137490 O
atom 6.9033058858926895 6.9123474422019022 15.0055754950032636 V
atom 11.5053394612362272 6.9170188170411251 15.0024491274203626 V
atom 9.2047955591813828 0.0002249220461503 16.4038765589012847 V
atom 7.8241453762628561 5.9965070881937743 16.4053018711330019 O
atom 12.8799685148061904 8.2972167065739093 15.0035321817223952 O
atom 5.5263516405691018 5.5291126310748018 15.0068425218774522 O
atom 8.2815968250188146 8.2969013612575253 15.0038603954494896 O
atom 10.1255037163763610 5.5313732131378224 15.0006919431107839 O
atom 10.5814010197765551 7.8331852520196383 16.4066163307054040 O
atom 4.6033866915396393 4.6165286687261347 16.4065233212939283 V
atom 6.9039478651515447 6.9153130155918978 17.8076462785416787 V
atom 8.2788865668163876 8.2973652889816059 17.8077964807452460 O
atom 5.9785081411045784 7.8354276327752954 16.4046569923316916 O
atom 3.2275702336503183 5.9899949404176738 16.4056161906933724 O
atom 5.5257061992089538 5.5295227109703333 17.8049737157635306 O
atom 13.8063580035733313 0.0008604830873160 16.4073268714978155 V
atom 16.1056355050571973 2.3050183264529616 17.8048425102227164 V
atom 17.4828008800383934 3.6891702463549048 17.8042185306423519 O
atom 15.1849624221267430 3.2217477272435002 16.4058774010645472 O
atom 12.4282179593632431 1.3855441855670450 16.4043985976273490 O
atom 14.7287186384968134 0.9210222864055484 17.8071222941697762 O
atom 16.1058351805771771 2.3025787786285634 15.0042173249798942 V
atom 2.3019601247499262 2.3043164867216186 15.0011734314876861 V
atom 0.0006804857858024 4.6001274172214233 16.4051337385800871 V
atom 17.0311298427089106 1.3828838352168846 16.4071454505564418 O
atom 3.6786750971984321 3.6884353371822538 15.0005531768369309 O
atom 14.7305447071520508 0.9206599803855369 15.0034418655047226 O
atom 17.4841604311806798 3.6878227668891639 15.0068289901587057 O
atom 0.9250824831241458 0.9200332588806097 15.0024768300882627 O
atom 1.3759660006313592 3.2278287027346200 16.4058145418503543 O
atom 13.8063394728957363 4.6163842563159454 16.4078420581678834 V
atom 16.1052162555143354 6.9146189930544359 17.8040779627330927 V
atom 17.4834908256240453 8.2965468387118495 17.8074740621299803 O
atom 15.1820227844720677 7.8360892450151791 16.4052165785957449 O
atom 12.8826790257236912 8.2964844884047455 17.8071866830427190 O
atom 12.4309819211573274 5.9897225391933420 16.4043127955402106 O
atom 14.7265181403757879 5.5319599670623134 17.8045854338813285 O
atom 16.1059691842566970 6.9113053388023111 15.0040329306992106 V
atom 2.3012559540820763 6.9130367308503118 15.0007411086102671 V
atom 0.0007436132255877 9.2175095341267586 16.4053626607353848 V
atom 17.0277352369427284 5.9966432430738941 16.4070125384993943 O
atom 3.6794441964014477 8.2956375728314935 15.0040440070585923 O
atom 14.7310051976314327 5.5285751327017385 15.0069596615614280 O
atom 17.4841215608318059 8.2973960508527540 15.0042683381302773 O
atom 0.9232380528492942 5.5304614146640088 15.0003975031774530 O
atom 1.3791458889565793 7.8332269941326462 16.4060722568531752 O
atom 2.3024998877281324 2.3037279119323886 17.8103985338114903 V
atom 6.9040506303022999 2.3064025456256965 17.8078519476749335 V
atom 3.6808502568601718 3.6872158921431928 17.8113610068709036 O
atom 2.3016882828021177 6.9130669715421247 17.8097432372865434 V
atom 0.9250862374019179 5.5296425259945909 17.8102902512189480 O
atom 3.6792378910170274 8.2973574581724385 17.8088440834870170 O
atom 11.5044472255387422 2.3023012374331571 17.8092332651293184 V
atom 10.1286881306594090 0.9209939292911010 17.8078381307658624 O
atom 12.8834077995105432 3.6868664641758877 17.8098259646637338 O
atom 11.5040972993755162 6.9113571568814693 17.8087436198135052 V
atom 10.1285401707161533 5.5292757454609456 17.8111393621712040 O
