#===============================================================================
# Created using the Atomic Simulation Environment (ASE)

# Mon Mar 23 14:01:39 2026

#=======================================================
lattice_vector 12.3188787347632243 0.0000000000000000 0.0000000000000000 
lattice_vector -1.5101125036326633 6.2644276927716032 0.0000000000000000 
lattice_vector 0.0000000000000000 0.0000000000000000 38.0328225521457171 
atom 6.0438539833035652 2.1350198022399285 16.1751445414299369 V
atom 8.5779794860613112 3.4137083903779315 15.1227280460040951 V
atom 4.2731288286542988 5.1724254763511377 15.8456493258164421 V
atom -0.8706522612860853 5.2672384671383767 16.1751415072559404 V
atom 3.1735982418340409 0.2815323556597575 15.1227315106123328 V
atom 11.1876437594911771 2.0402472819475324 15.8456581480605898 V
atom 7.7921270097143660 5.0690148397760142 15.0000000000000000 O
atom 5.0589583770919484 3.5171475496132802 15.9683722683776494 O
atom 7.3047063706906474 0.1961625038547638 16.4268903792015877 O
atom 9.5197141881622258 1.5385487475660475 15.2780983981357821 O
atom 4.8415121702508621 0.7831535382034701 15.6902804340190727 O
atom 7.7140805083928159 3.0450633548972150 16.7746640024170510 O
atom 2.3877478744057163 1.9368330878194560 15.0000036964433754 O
atom 11.9734726713942958 0.3849419765755514 15.9683787946868918 O
atom 0.3902512867060862 3.3284376245137341 16.4269079052778437 O
atom 2.6052179211509494 4.6708053203352398 15.2781014498935477 O
atom 10.2458937977600542 3.9153948679027990 15.6902820323280814 O
atom 0.7995779890352840 6.1773176987685270 16.7746648894853543 O
atom 5.6865933457962159 6.1809915808507814 18.3254627950485904 V
atom 4.9231748911967754 1.8648665696268909 19.7073664201593459 V
atom 7.4573003939545135 3.1435551577649008 18.6549499247335042 V
atom 3.1524497365475144 4.9022722437381017 19.3778712045458548 V
atom 0.2821831736688334 3.0487877706820070 18.3254549572925320 V
atom 10.3275473813703424 4.9970852345253460 19.7073633859853494 V
atom 2.0529191497272490 0.0113791230467284 18.6549533893417419 V
atom 10.0669646673843864 1.7700940493345005 19.3778800267899989 V
atom 6.6714479176075718 4.7988616071629782 18.5322218787294091 O
atom 3.9382792849851684 3.2469943170002482 19.5005941471070621 O
atom 5.9358376817659435 1.8553984279112135 18.0737102099994900 O
atom 4.6739147749512009 6.1904369640133350 19.9591122579310003 O
atom 8.3990350960554387 1.2683955149530184 18.8103202768651911 O
atom 3.7208330781440657 0.5130003055904382 19.2225023127484853 O
atom 4.0163417702952788 5.2709599928731334 17.7259363118527524 O
atom 6.5934014162860262 2.7749101222841834 20.3068858811464601 O
atom 1.2670687822989251 1.6666798552064255 18.5322255751727880 O
atom 10.8527935792875052 0.1147887439625195 19.5006006734163044 O
atom -0.9786565321560210 4.9876456903445234 18.0737131905519739 O
atom -0.7304278054006988 3.0582843919006995 19.9591297840072563 O
atom 1.4845388290441588 4.4006520877222064 18.8103233286229603 O
atom 9.1252147056532600 3.6452416352897643 19.2225039110574905 O
atom 10.9308516123650730 2.1387758785015176 17.7259430667971287 O
atom -0.3211011030715125 5.9071644661554945 20.3068867682147669 O
atom 4.5659142536894191 5.9108383482377471 21.8576846737779995 V
atom 6.3366213018477273 2.8734019251518692 22.1871718034629133 V
atom 2.0317706444407118 4.6321190111250719 22.9100930832752674 V
atom 11.4803828163252604 2.7786345380689750 21.8576768360219411 V
atom -0.5778724460122096 6.0056535832052944 22.1871752680711545 V
atom 8.9462855752775852 1.4999408167214658 22.9101019055194079 V
atom 5.5507688255007848 4.5287083745499519 22.0644437574588181 O
atom 2.8176001928783769 2.9768410843872188 23.0328160258364676 O
atom 4.8151585896591476 1.5852451952981788 21.6059320887288990 O
atom 7.2783560039486366 0.9982422823399836 22.3425421555946038 O
atom 2.6001539860372844 0.2428470729774091 22.7547241914778944 O
atom 2.8956626781884776 5.0008067602601018 21.2581581905821615 O
atom 0.1463896901921331 1.3965266225933963 22.0644474539022006 O
atom 8.2220019835480507 6.1090632041210906 23.0328225521457135 O
atom 10.2195431105003998 4.7174924577314918 21.6059350692813830 O
atom 0.3638597369373678 4.1304988551091748 22.3425452073523694 O
atom 8.0045356135464729 3.3750884026767349 22.7547257897868995 O
atom 9.8101725202582966 1.8686226458884883 21.2581649455265413 O
