#===============================================================================
# Created using the Atomic Simulation Environment (ASE)

# Mon Mar 23 14:01:43 2026

#=======================================================
lattice_vector 14.1833344881180565 0.0000000000000000 0.0000000000000000 
lattice_vector 3.7544216431755140 10.1019537203898881 0.0000000000000000 
lattice_vector 0.0000000000000000 0.0000000000000000 31.0022874269218747 
atom 10.9438231418289362 5.6918214493947596 15.5035609191025259 V
atom 8.5131471075605365 2.4667278625105125 15.6683787140592443 O
atom 9.1490712388684390 5.1046143533659256 16.0021136416197862 O
atom 9.0676205832406556 0.6411617498198076 15.5022902009460211 V
atom 10.3904184622036748 7.5182897389116157 15.6684843950108785 O
atom 7.2723312014771020 0.0530377358833266 16.0022874269218747 O
atom 14.4885854150472220 5.6944732426850413 15.5040202657882347 V
atom 12.7360028431320345 6.2815953805845348 15.0027990270935732 O
atom 11.5000928789966910 3.8676640220476930 15.3358690081621845 O
atom 12.6126963886109795 0.6424460969319306 15.5032041737295074 V
atom 10.8592547836545368 1.2300501686965299 15.0016141801369898 O
atom 13.3765081891514672 8.9176148131239632 15.3361352931459791 O
atom 7.3965599416484675 5.6937062320834171 15.4999266841824763 V
atom 5.6500034364641172 6.2808593477090984 15.0000000000000000 O
atom 4.4091857315713590 3.8658780683003351 15.3358534396037669 O
atom 5.5207922668045137 0.6427400019777423 15.5002438906347138 V
atom 3.7724985967021714 1.2309356171819994 15.0009419596256990 O
atom 6.2860172566500072 8.9157512687436444 15.3372015250200917 O
atom 3.8496304661142120 5.6930098693959943 15.5086317948454209 V
atom 1.4243454656810630 2.4648939076102869 15.6701307280531879 O
atom 2.0630465671882403 5.1060606277033749 15.9998419838787029 O
atom 1.9733356710266667 0.6425685240094601 15.5071339271760280 V
atom 3.3028975111042151 7.5163442751411074 15.6702025450339448 O
atom 0.1859481018717452 0.0545052237867638 16.0001761740871586 O
