#===============================================================================
# Created using the Atomic Simulation Environment (ASE)

# Mon Mar 23 14:01:41 2026

#=======================================================
lattice_vector 9.2181867428585846 0.0000000000000000 0.0000000000000000 
lattice_vector 0.0015442526650186 10.7770658557386358 0.0000000000000000 
lattice_vector 0.0000000000000000 0.0000000000000000 43.4154952447353111 
atom 2.3038625399358272 2.8616319800939465 15.7176867943517102 V
atom 4.5997728056624361 5.5560638179106956 15.7195581719720252 V
atom 1.3801918037264878 6.7325619368139069 15.0042102214329347 O
atom 3.6877818548407979 1.6851504240935813 16.4340106561556780 O
atom 0.9200990629133358 4.0387630635769849 15.0029061667064738 O
atom 3.2270958405636740 4.3833254677409537 16.4372337353105102 O
atom 2.3039276828390252 8.2496522940150925 15.7188787703695603 V
atom 4.5985829840269767 0.1679910682545607 15.7202347874102237 V
atom 1.3815717579366322 1.3440676666445683 15.0057829191434138 O
atom 3.6878140043702690 7.0735572787060681 16.4349714014754547 O
atom 0.9198770114024531 9.4262417726938814 15.0032847993935974 O
atom 3.2275962740029076 9.7712571521388494 16.4364521599122213 O
atom 6.9134632116037151 2.8609273132555768 15.7172209194722932 V
atom 9.2157001509300294 5.5560458727159618 15.7198510256651218 V
atom 5.9950281152818707 6.7345438997815794 15.0028009961738853 O
atom 8.2951582649672968 1.6855911586337484 16.4375545906656271 O
atom 5.5310370494470815 4.0386568200725241 15.0000000000000000 O
atom 7.8315567135631756 4.3799849397497139 16.4391412947658360 O
atom 6.9126479801661471 8.2493639511197898 15.7185482186793983 V
atom 9.2159650244205746 0.1673904226049650 15.7208689664690340 V
atom 5.9953316732995772 1.3462317771794257 15.0043082603060043 O
atom 8.2950160444235337 7.0740529087635711 16.4387574363997757 O
atom 5.5303054129348901 9.4260696771440866 15.0009545869681737 O
atom 7.8329939626798719 9.7680118273591887 16.4387319657408781 O
atom 2.3018705097312377 4.3227275946403463 18.1178571987044279 V
atom 9.2183457401204549 1.6279637049864857 18.1164584687485544 V
atom 2.3065476375675771 0.3913890081924498 20.5101032621798467 V
atom 4.6011666626664933 3.0864144390669286 20.5079399376702369 V
atom 1.3815702385232176 4.2621697924432054 19.7943021229304676 O
atom 3.6887625773745025 9.9930518305351530 21.2234404645430530 O
atom 3.2207612209916143 0.4490526861006716 18.8331699129155439 O
atom 0.9202970316180095 5.4976726315045088 17.3986295510941318 O
atom 3.6853398950137572 3.1449741502682218 18.8359025958156963 O
atom 1.3842672947430850 2.8034280710412283 17.3974110927604180 O
atom 0.9202840115253366 1.5706608150786781 19.7927155488486548 O
atom 3.2271535547326611 1.9137349360810367 21.2266647269171713 O
atom 2.3033390168992671 9.7112308663053142 18.1179481824093713 V
atom 9.2176234454492612 7.0158483043903077 18.1161786726928042 V
atom 2.3052365086935982 5.7806553662942468 20.5106152117907641 V
atom 4.6026618793178722 8.4753625750940689 20.5081546980020732 V
atom 1.3815235786505304 9.6512760623428484 19.7945691806570707 O
atom 3.6873904983184760 4.6042171397618006 21.2234466081731625 O
atom 3.2207888834955694 5.8375068457368915 18.8326445546647960 O
atom 0.9197029464574001 0.1085702213404500 17.3985968718517086 O
atom 3.6865941919925227 8.5345632002166880 18.8362433738090189 O
atom 1.3847138049105863 8.1923592242603931 17.3980001076827513 O
atom 0.9195439884736366 6.9577490916732341 19.7927864782957741 O
atom 3.2275642427553835 7.3016710844258403 21.2261243947411486 O
atom 6.9111814653601913 4.3222040499373682 18.1177773409534595 V
atom 4.6162828861192535 1.6278935925528530 18.1169156362529975 V
atom 6.9150756167278065 0.3909142298316131 20.5102007588342374 V
atom 9.2168570950728679 3.0857009694406496 20.5089671196522616 V
atom 5.9951856066421305 4.2645108919374310 19.7921625819955338 O
atom 8.2965855823366130 9.9945532692239389 21.2266618952365818 O
atom 7.8349374487704440 0.4509892802910309 18.8315924052941526 O
atom 5.5281792235599374 5.4988398596968686 17.4021125366262730 O
atom 8.2955025893200141 3.1441934553496846 18.8337553252614285 O
atom 5.9889159066698188 2.8004546021639944 17.3993244268957952 O
atom 5.5296630688333961 1.5684369634573743 19.7904537240800309 O
atom 7.8313980797839911 1.9105181650646410 21.2284386989992200 O
atom 6.9126781478428523 9.7109181270424987 18.1173713752841721 V
atom 4.6157511509593210 7.0155413465609948 18.1168654574335619 V
atom 6.9141469302859742 5.7799714178601809 20.5107912125721796 V
atom 9.2178674353367995 8.4746122989123656 20.5090671646840121 V
atom 5.9947277239725691 9.6539563043130627 19.7921125683347370 O
atom 8.2959669747647169 4.6057944309207048 21.2266171064155671 O
atom 7.8344178290377711 5.8398939283719260 18.8312260026255061 O
atom 5.5279419594778805 0.1098126408554629 17.4012750371972871 O
atom 8.2967359645822398 8.5339652432191144 18.8336602500604116 O
atom 5.9894497605058437 8.1896765303397849 17.4001786021738845 O
atom 5.5285894124562436 6.9556565917444502 19.7910921522633814 O
atom 7.8326676915459590 7.2977953843354957 21.2287439071559163 O
atom 2.3003582536191374 1.8531106131730981 22.9060350032026676 V
atom 9.2182597649328706 9.9353026664579094 22.9067607930417196 V
atom 2.3038425146196566 8.6989506855304448 25.2969386652780130 V
atom 4.5982085276812468 0.6163166676085590 25.2988100428983174 V
atom 1.3786275257452982 1.7928147865117696 24.5834620923592269 O
atom 3.6877618295246277 7.5224691295300792 26.0132625270819702 O
atom 3.2207273920034019 8.7568978160113957 23.6232901513293996 O
atom 0.9192833129311312 3.0273401086002982 22.1887191638807266 O
atom 3.6846905721733223 0.6757292939719459 23.6243321171945482 O
atom 1.3834452020074068 0.3333025915699255 22.1871397833778232 O
atom 0.9200790375971651 9.8760817690134832 24.5821580376327731 O
atom 3.2270758152475039 10.2206441731774529 26.0164856062368059 O
atom 2.3014029331074628 7.2412169057765849 22.9055972644556860 V
atom 9.2161038227737766 4.5461158585822039 22.9063934064334589 V
atom 2.3023634048578363 3.3099051437129536 25.2981306412958631 V
atom 4.5985629587108070 6.0053097736910592 25.2994866583365194 V
atom 1.3815517326204616 7.1813863720810689 24.5850347900697130 O
atom 3.6862497263890797 2.1338101284039328 26.0142232724017504 O
atom 3.2210793583869939 3.3674799965602387 23.6234804121359261 O
atom 0.9197164231831580 8.4153688399798643 22.1890544002328696 O
atom 3.6864141204676608 6.0654287443149499 23.6252877774625460 O
atom 1.3831414735335339 5.7230785614371555 22.1868044605906292 O
atom 0.9183127334212638 4.4864946223917439 24.5825366703198895 O
atom 3.2260319960217183 4.8315100018367119 26.0157040308385135 O
atom 6.9094141664338187 1.8524899005787354 22.9058398973646220 V
atom 4.6155967326086715 9.9349210005581732 22.9075967508031155 V
atom 6.9134431862875445 8.6982460186920747 25.2964727903985889 V
atom 9.2141358729488410 0.6162987224138246 25.2991028965914211 V
atom 5.9934638373006823 1.7947967494794415 24.5820528671001810 O
atom 8.2951382396511253 7.5229098640702450 26.0168064615919263 O
atom 7.8350693404345426 8.7583985998796141 23.6216015472210472 O
atom 5.5275650883689256 3.0285199816697186 22.1918661195537581 O
atom 8.2943086537429540 0.6743132355923186 23.6221043247294702 O
atom 5.9876230231746010 0.3302338202800348 22.1889096880776790 O
atom 5.5310170241309109 9.8759755255090234 24.5792518709262993 O
atom 7.8315366882470059 10.2173036451862131 26.0183931656921317 O
atom 6.9101294049228406 7.2403418800339177 22.9059146400997307 V
atom 4.6132791948887695 4.5455672083513834 22.9070423379630128 V
atom 6.9110837021849578 3.3096168008176505 25.2978000896057011 V
atom 9.2159449991044031 6.0047091280414637 25.3001208373953332 V
atom 5.9953116479834074 7.1835504826159235 24.5835601312323107 O
atom 8.2934517664423453 2.1343057584614336 26.0180093073260750 O
atom 7.8344172380690447 3.3698773268686697 23.6215602920526564 O
atom 5.5276314320132034 8.4161419214079540 22.1927029108506346 O
atom 8.2959873452569752 6.0634645081639178 23.6234861775104221 O
atom 5.9884232235527959 5.7192699041849675 22.1893625299008121 O
atom 5.5287411349537008 4.4863225268419473 24.5802064578944766 O
atom 7.8314296846986826 4.8282646770570512 26.0179838366671774 O
atom 2.3018504844150671 10.1600463000768446 27.6971090696307272 V
atom 9.2183257148042834 7.4652824104229856 27.6957103396748536 V
atom 3.2207411956754437 6.2863713915371697 28.4124217838418431 O
atom 0.9187327536368204 0.5579254812023693 26.9778814220204239 O
atom 3.6853198696975866 8.9822928557047188 28.4151544667420026 O
atom 1.3842472694269143 8.6407467764777284 26.9766629636867208 O
atom 2.3017747389180783 4.7714837160031767 27.6972000533356706 V
atom 9.2160591674680710 2.0761011540881711 27.6954305436191035 V
atom 3.2192246055143796 0.8977596954347534 28.4118964255911024 O
atom 0.9196829211412295 5.9458889267769477 26.9778487427780007 O
atom 3.6850299140113330 3.5948160499145483 28.4154952447353111 O
atom 1.3831495269293972 3.2526120739582556 26.9772519786090541 O
atom 6.9111614400440216 10.1595227553738656 27.6970292118797587 V
atom 4.6162628608030838 7.4652122979893516 27.6961675071792968 V
atom 7.8349174234542742 6.2883079857275295 28.4108442762204447 O
atom 5.5266149455787490 0.5590927093947303 26.9813644075525687 O
atom 8.2954825640038425 8.9815121607861794 28.4130071961877277 O
atom 5.9888958813536499 8.6377733076004919 26.9785762978220873 O
atom 6.9111138698616630 4.7711709767403612 27.6966232462104713 V
atom 4.6141868729781326 2.0757941962588582 27.6961173283598612 V
atom 7.8328535510565827 0.9001467780697875 28.4104778735518124 O
atom 5.5279219341617116 5.9471313462919611 26.9805269081235863 O
atom 8.2951716866010514 3.5942180929169765 28.4129121209867108 O
atom 5.9878854825246535 3.2499293800376470 26.9794304731001731 O
