#===============================================================================
# Created using the Atomic Simulation Environment (ASE)

# Mon Mar 23 14:01:47 2026

#=======================================================
lattice_vector 9.2314623421363340 0.0000000000000000 0.0000000000000000 
lattice_vector 0.0003972008493561 9.2315018135911977 0.0000000000000000 
lattice_vector 0.0000000000000000 0.0000000000000000 43.9476148299796776 
atom 0.0000395610600712 0.0000140890291975 17.7894531849922046 V
atom 1.3830064678100387 1.3831737470360543 17.7893086773447777 O
atom 3.2324743768759565 3.2326566691499776 17.7893126926923451 O
atom 9.2316726033302015 9.2312585225328334 15.0000497650423270 V
atom 2.3078056599164332 2.3079219442253343 16.3947707550107467 V
atom 1.3832187772194595 1.3833852375424467 15.0002515673006762 O
atom 3.2322991586248624 3.2325120779934062 15.0002564627257371 O
atom 0.9252503802449344 3.6908110380099992 16.3949852799614888 O
atom 3.6904706250069688 0.9252811881498805 16.3952547900235217 O
atom 1.3832859382780571 5.9989258221082524 17.7894749223358168 O
atom 3.2327436546646870 7.8482842344408308 17.7894729076967693 O
atom 0.0002425580143944 4.6158445907660388 15.0000102899838481 V
atom 2.3081125390846853 6.9236134287112296 16.3949711500047535 V
atom 1.3833852388389731 5.9991927050096798 15.0000507722986143 O
atom 3.2325997381008360 7.8482199525743948 15.0000466077188221 O
atom 0.9248831282909523 8.3069109970801449 16.3960105849889928 O
atom 3.6911932422858298 5.5404183337243467 16.3957862350266872 O
atom 5.9992156827454881 1.3833548267261075 17.7890484922746310 O
atom 7.8486059358880276 3.2325624005108904 17.7890553676578307 O
atom 4.6161385567874742 9.2314691282871628 15.0000000000000000 V
atom 6.9238082716222173 2.3079503384097890 16.3950147899782479 V
atom 5.9994118981295168 1.3833764176327454 15.0005397322510028 O
atom 7.8484352658011680 3.2323296993103137 15.0005455476994101 O
atom 5.5405495701059158 3.6912155073858286 16.3958207749688825 O
atom 8.3070955485244440 0.9244613589998943 16.3960444950065494 O
atom 4.6158816718979132 4.6157345177113003 17.7894596250048025 V
atom 5.9991578058428114 5.9987643490546771 17.7892042373363388 O
atom 7.8490835378759467 7.8483852113189023 17.7892041426202177 O
atom 4.6160393404176991 4.6159063793597923 15.0000636549705781 V
atom 6.9240229187995821 6.9235501748625810 16.3950396149913828 V
atom 5.9996986522308315 5.9992990625156386 15.0003747572244279 O
atom 7.8483548065403292 7.8476312820922329 15.0003721327742312 O
atom 5.5413104756004987 8.3062748620367906 16.3953400199755279 O
atom 8.3067685297897818 5.5407211070078484 16.3950745700138967 O
atom 0.0000439815243607 0.0000178988777078 23.3684934549914090 V
atom 2.3078078650757656 2.3079205691476727 19.1842703450106669 V
atom 1.3830108882743284 1.3831775568845646 23.3683489473439820 O
atom 3.2324787973402462 3.2326604789984876 23.3683529626915458 O
atom 0.9250228855384838 3.6908180278327976 19.1840672699857215 O
atom 3.6907046702139144 0.9252871179858136 19.1837526599973600 O
atom 9.2316770237944894 9.2312623323813430 20.5790900350415278 V
atom 2.3078100803807224 2.3079257540738443 21.9738110250099439 V
atom 1.3832231976837492 1.3833890473909574 20.5792918372998770 O
atom 3.2323035790891521 3.2325158878419162 20.5792967327249343 O
atom 0.9252548007092242 3.6908148478585097 21.9740255499606896 O
atom 3.6904750454712585 0.9252849979983910 21.9742950600227225 O
atom 0.0003225918625578 4.6157821440164115 17.7895342899812761 V
atom 2.3081096240435346 6.9236048037036158 19.1840638900059552 V
atom 1.3832903587423466 5.9989296319567629 23.3685151923350176 O
atom 3.2327480751289768 7.8482880442893412 23.3685131776959700 O
atom 0.9248182938430624 8.3069408931925075 19.1829513049931677 O
atom 3.6912631266244311 5.5403894269848442 19.1831977550219221 O
atom 0.0002469784786840 4.6158484006145493 20.5790505599830489 V
atom 2.3081169595489750 6.9236172385597392 21.9740114200039578 V
atom 1.3833896593032631 5.9991965148581912 20.5790910422978186 O
atom 3.2326041585651262 7.8482237624229061 20.5790868777180194 O
atom 0.9248875487552418 8.3069148069286562 21.9750508549881935 O
atom 3.6911976627501195 5.5404221435728571 21.9748265050258880 O
atom 4.6156915628061137 0.0000452307395489 17.7895256599977998 V
atom 6.9238113269846009 2.3079605232727149 19.1840971899769386 V
atom 5.9992201032097778 1.3833586365746176 23.3680887622738283 O
atom 7.8486103563523173 3.2325662103593999 23.3680956376570315 O
atom 5.5405058065011268 3.6912824730859772 19.1831783149671011 O
atom 8.3071257218599754 0.9243884930630284 19.1829318350104607 O
atom 4.6161429772517639 9.2314729381356724 20.5790402699992043 V
atom 6.9238126920865071 2.3079541482582995 21.9740550599774522 V
atom 5.9994163185938056 1.3833802274812554 20.5795800022502036 O
atom 7.8484396862654577 3.2323335091588237 20.5795858176986108 O
atom 5.5405539905702064 3.6912193172343386 21.9748610449680868 O
atom 8.3070999689887319 0.9244651688484047 21.9750847650057501 O
atom 4.6158860923622038 4.6157383275598107 23.3684998950039997 V
atom 6.9240234939932011 6.9235531897657845 19.1839893549910556 V
atom 5.9991622263071012 5.9987681589031867 23.3682445073355360 O
atom 7.8490879583402355 7.8483890211674145 23.3682444126194220 O
atom 5.5413322454278049 8.3064963964233431 19.1836735999513408 O
atom 8.3067632202837114 5.5405058720336458 19.1839841600357275 O
atom 4.6160437608819880 4.6159101892083028 20.5791039249697789 V
atom 6.9240273392638718 6.9235539847110923 21.9740798849905836 V
atom 5.9997030726951204 5.9993028723641491 20.5794150272236323 O
atom 7.8483592270046190 7.8476350919407434 20.5794124027734355 O
atom 5.5413148960647884 8.3062786718853019 21.9743802899747322 O
atom 8.3067729502540697 5.5407249168563597 21.9741148400131010 O
atom 0.0000484019886503 0.0000217087262182 28.9475337249906097 V
atom 2.3078122855400554 2.3079243789961832 24.7633106150098712 V
atom 1.3830153087386179 1.3831813667330752 28.9473892173431828 O
atom 3.2324832178045360 3.2326642888469985 28.9473932326907430 O
atom 0.9250273060027733 3.6908218376813084 24.7631075399849223 O
atom 3.6907090906782041 0.9252909278343240 24.7627929299965608 O
atom 9.2316814442587809 9.2312661422298525 26.1581303050407286 V
atom 2.3078145008450122 2.3079295639223552 27.5528512950091482 V
atom 1.3832276181480387 1.3833928572394676 26.1583321072990778 O
atom 3.2323079995534418 3.2325196976904267 26.1583370027241386 O
atom 0.9252592211735137 3.6908186577070201 27.5530658199598903 O
atom 3.6904794659355473 0.9252888078469012 27.5533353300219233 O
atom 0.0003270123268474 4.6157859538649220 23.3685745599804804 V
atom 2.3081140445078243 6.9236086135521253 24.7631041600051560 V
atom 1.3832947792066366 5.9989334418052724 28.9475554623342184 O
atom 3.2327524955932661 7.8482918541378517 28.9475534476951708 O
atom 0.9248227143073521 8.3069447030410171 24.7619915749923720 O
atom 3.6912675470887204 5.5403932368333546 24.7622380250211265 O
atom 0.0002513989429736 4.6158522104630597 26.1580908299822497 V
atom 2.3081213800132643 6.9236210484082488 27.5530516900031586 V
atom 1.3833940797675524 5.9992003247067007 26.1581313122970158 O
atom 3.2326085790294159 7.8482275722714157 26.1581271477172201 O
atom 0.9248919692195317 8.3069186167771658 27.5540911249873943 O
atom 3.6912020832144088 5.5404259534213693 27.5538667750250887 O
atom 4.6156959832704025 0.0000490405880592 23.3685659299970006 V
atom 6.9238157474488906 2.3079643331212254 24.7631374599761394 V
atom 5.9992245236740676 1.3833624464231282 28.9471290322730326 O
atom 7.8486147768166070 3.2325700202079113 28.9471359076562322 O
atom 5.5405102269654156 3.6912862829344877 24.7622185849663019 O
atom 8.3071301423242634 0.9243923029115386 24.7619721050096580 O
atom 4.6161473977160536 9.2314767479841819 26.1580805399984015 V
atom 6.9238171125507968 2.3079579581068095 27.5530953299766495 V
atom 5.9994207390580945 1.3833840373297661 26.1586202722494043 O
atom 7.8484441067297466 3.2323373190073341 26.1586260876978116 O
atom 5.5405584110344952 3.6912231270828495 27.5539013149672840 O
atom 8.3071043894530252 0.9244689786969149 27.5541250350049509 O
atom 4.6158905128264927 4.6157421374083212 28.9475401650032005 V
atom 6.9240279144574908 6.9235569996142949 24.7630296249902528 V
atom 5.9991666467713909 5.9987719687516972 28.9472847773347404 O
atom 7.8490923788045253 7.8483928310159250 28.9472846826186228 O
atom 5.5413366658920955 8.3065002062718545 24.7627138699505416 O
atom 8.3067676407480011 5.5405096818821562 24.7630244300349283 O
atom 4.6160481813462777 4.6159139990568132 26.1581441949689797 V
atom 6.9240317597281607 6.9235577945596019 27.5531201549897844 V
atom 5.9997074931594110 5.9993066822126595 26.1584552972228295 O
atom 7.8483636474689087 7.8476389017892538 26.1584526727726328 O
atom 5.5413193165290773 8.3062824817338115 27.5534205599739295 O
atom 8.3067773707183594 5.5407287267048693 27.5531551100123018 O
atom 0.0003314327911370 4.6157897637134324 28.9476148299796812 V
atom 4.6157004037346923 0.0000528504365696 28.9476061999962013 V
