#===============================================================================
# Created using the Atomic Simulation Environment (ASE)

# Mon Mar 23 14:01:41 2026

#=======================================================
lattice_vector 9.2181867428585846 0.0000000000000000 0.0000000000000000 
lattice_vector 0.0015442526650186 10.7770658557386358 0.0000000000000000 
lattice_vector 0.0000000000000000 0.0000000000000000 31.4388322810485903 
atom 2.3018504844150671 10.1600463000768446 15.7204461059440064 V
atom 9.2183257148042834 7.4652824104229856 15.7190473759881328 V
atom 3.2207411956754437 6.2863713915371697 16.4357588201551224 O
atom 0.9187327536368204 0.5579254812023693 15.0012184583337032 O
atom 3.6853198696975866 8.9822928557047188 16.4384915030552818 O
atom 1.3842472694269143 8.6407467764777284 15.0000000000000000 O
atom 2.3017747389180783 4.7714837160031767 15.7205370896489498 V
atom 9.2160591674680710 2.0761011540881711 15.7187675799323827 V
atom 3.2192246055143796 0.8977596954347534 16.4352334619043816 O
atom 0.9196829211412295 5.9458889267769477 15.0011857790912799 O
atom 3.6850299140113330 3.5948160499145483 16.4388322810485903 O
atom 1.3831495269293972 3.2526120739582556 15.0005890149223333 O
atom 6.9111614400440216 10.1595227553738656 15.7203662481930380 V
atom 4.6162628608030838 7.4652122979893516 15.7195045434925760 V
atom 7.8349174234542742 6.2883079857275295 16.4341813125337239 O
atom 5.5266149455787490 0.5590927093947303 15.0047014438658479 O
atom 8.2954825640038425 8.9815121607861794 16.4363442325010070 O
atom 5.9888958813536499 8.6377733076004919 15.0019133341353665 O
atom 6.9111138698616630 4.7711709767403612 15.7199602825237505 V
atom 4.6141868729781326 2.0757941962588582 15.7194543646731404 V
atom 7.8328535510565827 0.9001467780697875 16.4338149098650916 O
atom 5.5279219341617116 5.9471313462919611 15.0038639444368656 O
atom 8.2951716866010514 3.5942180929169765 16.4362491572999900 O
atom 5.9878854825246535 3.2499293800376470 15.0027675094134523 O
