#===============================================================================
# Created using the Atomic Simulation Environment (ASE)

# Mon Mar 23 14:01:39 2026

#=======================================================
lattice_vector 12.3188787347632243 0.0000000000000000 0.0000000000000000 
lattice_vector -1.5101125036326633 6.2644276927716032 0.0000000000000000 
lattice_vector 0.0000000000000000 0.0000000000000000 33.3254591661603641 
atom 4.9231748911967754 1.8648665696268909 15.0000030341739965 V
atom 10.3275473813703424 4.9970852345253460 15.0000000000000000 V
atom 4.6739147749512009 6.1904369640133350 15.2517488719456509 O
atom 6.5934014162860262 2.7749101222841834 15.5995224951611107 O
atom -0.7304278054006988 3.0582843919006995 15.2517663980219069 O
atom -0.3211011030715125 5.9071644661554945 15.5995233822294175 O
atom 4.5659142536894191 5.9108383482377471 17.1503212877926501 V
atom 6.3366213018477273 2.8734019251518692 17.4798084174775639 V
atom 2.0317706444407118 4.6321190111250719 18.2027296972899180 V
atom 11.4803828163252604 2.7786345380689750 17.1503134500365917 V
atom -0.5778724460122096 6.0056535832052944 17.4798118820858051 V
atom 8.9462855752775852 1.4999408167214658 18.2027385195340585 V
atom 5.5507688255007848 4.5287083745499519 17.3570803714734687 O
atom 2.8176001928783769 2.9768410843872188 18.3254526398511182 O
atom 4.8151585896591476 1.5852451952981788 16.8985687027435496 O
atom 7.2783560039486366 0.9982422823399836 17.6351787696092543 O
atom 2.6001539860372844 0.2428470729774091 18.0473608054925450 O
atom 2.8956626781884776 5.0008067602601018 16.5507948045968121 O
atom 0.1463896901921331 1.3965266225933963 17.3570840679168512 O
atom 8.2220019835480507 6.1090632041210906 18.3254591661603641 O
atom 10.2195431105003998 4.7174924577314918 16.8985716832960335 O
atom 0.3638597369373678 4.1304988551091748 17.6351818213670199 O
atom 8.0045356135464729 3.3750884026767349 18.0473624038015501 O
atom 9.8101725202582966 1.8686226458884883 16.5508015595411919 O
