#===============================================================================
# Created using the Atomic Simulation Environment (ASE)

# Mon Mar 23 14:01:47 2026

#=======================================================
lattice_vector 9.2315018221363143 0.0000000000000000 0.0000000000000000 
lattice_vector 0.0000038100387047 5.5790402700009523 0.0000000000000000 
lattice_vector 0.0000000000000000 0.0000000000000000 52.6202692486876060 
atom 0.0001500900104293 2.7895738540247170 15.9247538963182720 V
atom 0.9247383001472007 1.3934149217508414 15.0005611186022669 O
atom 0.9248149748244456 4.1855678517248478 15.0005331501957855 O
atom 5.5408556592476828 1.3944672463315306 15.0000000000000000 O
atom 5.5410747044888407 4.1845979263157309 15.0000075099116650 O
atom 0.0004074798433236 5.5789772741531687 15.9249781759017104 V
atom 2.3084094433887512 1.3947559925474593 18.2326460711129492 V
atom 1.3836266410405953 5.5788338621899021 17.3078855687214208 O
atom 3.2331891379013404 5.5788393428167087 19.1572738989668636 O
atom 3.6912474041507912 1.3945518218881976 16.8498015915343622 O
atom 0.9258354949612171 1.3942394032570540 19.6156023655039995 O
atom 0.0005472891610907 2.7895811681565941 25.1562162299066294 V
atom 2.3084146284102363 4.1842966725476156 18.2326460760283560 V
atom 1.3838381406817599 2.7897767523148800 17.3081000788142312 O
atom 3.2330445392058440 2.7897831127121560 19.1571008967198395 O
atom 3.6912442341550467 4.1845101020460387 16.8500312963443832 O
atom 0.9258333650938061 4.1847818030996073 19.6153705298926475 O
atom 4.6161717326971345 0.0000181092081837 15.9250626054773505 V
atom 6.9240936866558851 1.3945495376244801 18.2327492326882030 V
atom 5.9993787238649201 5.5790001072450144 17.3079664385826995 O
atom 7.8488167105058775 5.5789995578771370 19.1573445815108876 O
atom 8.3073702564346963 1.3934358565761822 16.8493983842946768 O
atom 5.5409378237168116 1.3936844985667536 19.6159622498361692 O
atom 4.6162379860418179 2.7895343791491691 15.9249847790956274 V
atom 6.9241061218276192 4.1844970676274178 18.2327543571698030 V
atom 5.9996456110386722 2.7895759572873553 17.3080679377345703 O
atom 7.8487524224472516 2.7895732577860413 19.1572028777888370 O
atom 8.3073441731506801 4.1855354066252026 16.8494654281353355 O
atom 5.5409705374881053 4.1853132485179758 19.6158945727333851 O
atom 0.0006334076838800 0.0000131361610206 20.5406301719764848 V
atom 2.3086480088048589 1.3945864947954045 22.8486495271656409 V
atom 1.3840063408744510 5.5785773345644403 21.9240947717973249 O
atom 3.2332934860650351 5.5785856751653666 23.7734054579645253 O
atom 3.6919104382974965 1.3936665237388104 21.4652844889440324 O
atom 0.9251354992978635 1.3934222358827180 24.2320234521906208 O
atom 0.0005593038215073 2.7895277462045045 20.5406821786154730 V
atom 2.3086416338491835 4.1845443647961202 22.8486486820448498 V
atom 1.3840279402235649 2.7900685746971510 21.9242931956010487 O
atom 3.2330607775213069 2.7900758550726072 23.7732370072398851 O
atom 3.6918472845191164 4.1853492537770958 21.4653304638668345 O
atom 0.9252121739751086 4.1855751658567240 24.2319954837841429 O
atom 4.6163265086015981 5.5789873711622491 20.5406216833472364 V
atom 6.9242406801543579 1.3944786598202719 22.8486631006435488 V
atom 5.9994158564405273 5.5787330794229542 21.9238383090354496 O
atom 7.8491163131500521 5.5787344503488061 23.7736844563158414 O
atom 8.3071243929217182 1.3941618092205081 21.4659123501576445 O
atom 5.5412528583983462 1.3944745604634077 24.2314623335883574 O
atom 4.6164983770338841 2.7895914012538201 20.5407815545240418 V
atom 6.9242414752651120 4.1845691898219739 22.8486647352779038 V
atom 5.9999505931718176 2.7899035997404176 21.9243813420189930 O
atom 7.8483623525691888 2.7899024399263443 23.7729579670249507 O
atom 8.3069066676373993 4.1848684992292826 21.4658927990723178 O
atom 5.5414719036395033 4.1846052404476080 24.2314698435000189 O
atom 0.0008046789939864 5.5789845882850457 25.1564405094900678 V
atom 2.3088066425394143 1.3947633066793359 27.4641084047013102 V
atom 1.3840238401912583 5.5788411763217791 26.5393479023097711 O
atom 3.2335863370520035 5.5788466569485857 28.3887362325552211 O
atom 3.6916446033014543 1.3945591360200742 26.0812639251227161 O
atom 0.9262326941118798 1.3942467173889306 28.8470646990923605 O
atom 0.0009444883117540 2.7895884822884707 34.3876785634949869 V
atom 2.3088118275608993 4.1843039866794927 27.4641084096167170 V
atom 1.3842353398324228 2.7897840664467566 26.5395624124025886 O
atom 3.2334417383565075 2.7897904268440326 28.3885632303081969 O
atom 3.6916414333057088 4.1845174161779148 26.0814936299327407 O
atom 0.9262305642444688 4.1847891172314835 28.8468328634810085 O
atom 4.6165689318477972 0.0000254233400604 25.1565249390657115 V
atom 6.9244908858065477 1.3945568517563567 27.4642115662765640 V
atom 5.9997759230155827 5.5790074213768897 26.5394287721710569 O
atom 7.8492139096565401 5.5790068720090131 28.3888069150992486 O
atom 8.3077674555853598 1.3934431707080588 26.0808607178830307 O
atom 5.5413350228674751 1.3936918126986304 28.8474245834245231 O
atom 4.6166351851924814 2.7895416932810457 25.1564471126839884 V
atom 6.9245033209782818 4.1845043817592948 27.4642166907581675 V
atom 6.0000428101893348 2.7895832714192319 26.5395302713229277 O
atom 7.8491496215979142 2.7895805719179179 28.3886652113771980 O
atom 8.3077413723013436 4.1855427207570788 26.0809277617236930 O
atom 5.5413677366387679 4.1853205626498529 28.8473569063217461 O
atom 0.0010306068345428 0.0000204502928972 29.7720925055648458 V
atom 2.3090452079555219 1.3945938089272809 32.0801118607540019 V
atom 1.3844035400251140 5.5785846486963173 31.1555571053856859 O
atom 3.2336906852156981 5.5785929892972428 33.0048677915528827 O
atom 3.6923076374481592 1.3936738378706870 30.6967468225323863 O
atom 0.9255326984485264 1.3934295500145946 33.4634857857789711 O
atom 0.0009565029721707 2.7895350603363807 29.7721445122038268 V
atom 2.3090388329998466 4.1845516789279964 32.0801110156331930 V
atom 1.3844251393742280 2.7900758888290285 31.1557555291894097 O
atom 3.2334579766719695 2.7900831692044843 33.0046993408282390 O
atom 3.6922444836697794 4.1853565679089728 30.6967927974551920 O
atom 0.9256093731257713 4.1855824799886010 33.4634578173725004 O
atom 4.6167237077522616 5.5789946852941261 29.7720840169355974 V
atom 6.9246378793050214 1.3944859739521485 32.0801254342319027 V
atom 5.9998130555911899 5.5787403935548312 31.1553006426238035 O
atom 7.8495135123007147 5.5787417644806832 33.0051467899041882 O
atom 8.3075215920723817 1.3941691233523847 30.6973746837460020 O
atom 5.5416500575490089 1.3944818745952841 33.4629246671767078 O
atom 4.6168955761845476 2.7895987153856963 29.7722438881124027 V
atom 6.9246386744157755 4.1845765039538501 32.0801270688662470 V
atom 6.0003477923224802 2.7899109138722942 31.1558436756073540 O
atom 7.8487595517198514 2.7899097540582209 33.0044203006133046 O
atom 8.3073038667880628 4.1848758133611605 30.6973551326606788 O
atom 5.5418691027901668 4.1846125545794841 33.4629321770883763 O
atom 0.0012018781446493 5.5789919024169219 34.3879028430784217 V
atom 2.3092038416900773 1.3947706208112125 36.6955707382896605 V
atom 1.3844210393419207 5.5788484904536562 35.7708102358981250 O
atom 3.2339835362026665 5.5788539710804628 37.6201985661435714 O
atom 3.6920418024521164 1.3945664501519510 35.3127262587110664 O
atom 2.3092090267115619 4.1843113008113697 36.6955707432050673 V
atom 1.3846325389830851 2.7897913805786332 35.7710247459909425 O
atom 3.2338389375071697 2.7897977409759092 37.6200255638965473 O
atom 3.6920386324563719 4.1845247303097919 35.3129559635210910 O
atom 4.6169661309984606 0.0000327374719370 34.3879872726540725 V
atom 6.9248880849572103 1.3945641658882335 36.6956738998649143 V
atom 6.0001731221662462 5.5790147355087667 35.7708911057594037 O
atom 7.8496111088072036 5.5790141861408902 37.6202692486876060 O
atom 8.3081646547360215 1.3934504848399354 35.3123230514713811 O
atom 4.6170323843431440 2.7895490074129219 34.3879094462723458 V
atom 6.9249005201289444 4.1845116958911719 36.6956790243465178 V
atom 6.0004400093399983 2.7895905855511085 35.7709926049112852 O
atom 7.8495468207485777 2.7895878860497945 37.6201275449655554 O
atom 8.3081385714520053 4.1855500348889558 35.3123900953120398 O
