#===============================================================================
# Created using the Atomic Simulation Environment (ASE)

# Mon Mar 23 14:01:40 2026

#=======================================================
lattice_vector 15.1536015195045284 0.0000000000000000 0.0000000000000000 
lattice_vector -0.0000014388224574 3.7155747600000235 0.0000000000000000 
lattice_vector 0.0000000000000000 0.0000000000000000 42.8344961150838088 
atom 6.3849207239103656 3.7155742366754567 15.2557038050793139 V
atom 4.5294216002301537 3.7155742621366104 15.0000000000000000 O
atom 0.1052220444123805 1.8577867664688617 15.0086619318961354 O
atom 5.7136628731961991 1.8577864183105761 17.8962570247379738 V
atom 2.1321962867518223 3.7155736346709496 20.0969669618582998 V
atom 8.5416164783843787 1.8577866165219978 16.2860948134078569 V
atom 3.5569305875887105 3.7155740484636617 16.8658680665037402 V
atom 0.2632153029321533 3.7155740793163621 15.4755967207075606 V
atom 11.8353574410168321 1.8577865256746380 17.6763235998765715 V
atom 13.9920867058742768 3.7155736755223181 18.7067065147752167 V
atom 9.0074111676735988 1.8577863374620029 19.2864958326511839 V
atom 5.1752637997647710 1.8577861861072273 19.5189392327493394 O
atom 2.6705683396894035 3.7155738668783660 18.4742510992646025 O
atom 6.5429707607490162 1.8577867895196665 15.7226665157430503 O
atom 5.5555843366045004 3.7155738654663333 17.4292938054719357 O
atom 7.5691256505568507 1.8577864028481945 18.1519698015258442 O
atom 0.2766971630716071 3.7155736601321037 19.8412631567789859 O
atom 3.9363466535436484 1.8577866541906205 16.9915599063643192 O
atom 8.1622314667007689 3.7155740107988651 16.1603728166569809 O
atom 14.8784550315430675 3.7155738471114206 17.0982928175264526 O
atom 12.3737503299424905 1.8577867578792862 16.0536307094268906 O
atom 11.9934370679937174 3.7155738485197154 18.1432803158427802 O
atom 11.0060991267583574 1.8577861644643550 19.8499250886751142 O
atom 2.1187213157750473 3.7155740738536389 15.7313134145702804 O
atom 9.9798826632915869 1.8577865511365004 17.4206147037780141 O
atom 9.3868177776298314 3.7155737031890799 19.4121867028804047 O
atom 13.6126999711979995 1.8577863098002618 18.5809755291742960 O
atom 1.4609384360376518 1.8577858163060692 22.7375201815169596 V
atom 13.0330733690977993 3.7155730326664425 24.9382301186372857 V
atom 4.2888920412258340 1.8577860145174907 21.1273579701868428 V
atom 14.4578076699346951 3.7155734464591545 21.7071312232827225 V
atom 11.1640923852781366 3.7155734773118554 20.3168598774865465 V
atom 7.5826330038582919 1.8577859236701311 22.5175867566555503 V
atom 9.7393622687157393 3.7155730735178114 23.5479696715542062 V
atom 4.7546867305150586 1.8577857354574963 24.1277589894301698 V
atom 0.9225393626062203 1.8577855841027207 24.3602023895283182 O
atom 13.5714454220353886 3.7155732648738593 23.3155142560435849 O
atom 2.2902463235904693 1.8577861875151596 20.5639296725220362 O
atom 1.3028598994459570 3.7155732634618266 22.2705569622509216 O
atom 3.3164012133983025 1.8577858008436874 22.9932329583048265 O
atom 11.1775742454175919 3.7155730581275965 24.6825263135579682 O
atom 14.8372237358896299 1.8577860521861138 21.8328230631433016 O
atom 3.9095070295422185 3.7155734087943579 21.0016359734359668 O
atom 10.6257305943845175 3.7155732451069134 21.9395559743054349 O
atom 8.1210258927839494 1.8577861558747795 20.8948938662058765 O
atom 7.7407126308351746 3.7155732465152087 22.9845434726217661 O
atom 6.7533746895998039 1.8577855624598480 24.6911882454541001 O
atom 13.0195983981210315 3.7155734718491322 20.5725765713492663 O
atom 5.7271582261330369 1.8577859491319937 22.2618778605569965 O
atom 5.1340933404712876 3.7155731011845727 24.2534498596593870 O
atom 9.3599755340394548 1.8577857077957549 23.4222386859532818 O
atom 12.3618155183836294 1.8577852143015621 27.5787833382959491 V
atom 0.0361676040672832 1.8577854125129840 25.9686211269658251 V
atom 10.2050832327761469 3.7155728444546474 26.5483943800617084 V
atom 6.9113679481195911 3.7155728753073478 25.1581230342655289 V
atom 3.3299085666997410 1.8577853216656244 27.3588499134345398 V
atom 13.1911234059364588 1.8577855855106529 25.4051928293010185 O
atom 12.2037369817919270 3.7155726614573203 27.1118201190299004 O
atom 14.2172782957442880 1.8577851988391803 27.8344961150838088 O
atom 10.5844992987310889 1.8577854501816069 26.6740862199222875 O
atom 14.8103841118882027 3.7155728067898508 25.8428991302149527 O
atom 6.3730061572259729 3.7155726431024063 26.7808191310844208 O
atom 3.8683014556254065 1.8577855538702723 25.7361570229848624 O
atom 3.4879881936766308 3.7155726445107016 27.8258066294007520 O
atom 8.7668739609624886 3.7155728698446246 25.4138397281282522 O
atom 1.4744337889744998 1.8577853471274870 27.1031410173359788 O
