#===============================================================================
# Created using the Atomic Simulation Environment (ASE)

# Mon Mar 23 14:01:47 2026

#=======================================================
lattice_vector 9.2315018221363143 0.0000000000000000 0.0000000000000000 
lattice_vector 0.0000038100387047 5.5790402700009523 0.0000000000000000 
lattice_vector 0.0000000000000000 0.0000000000000000 34.1573445815108983 
atom 0.0009444883117540 2.7895884822884707 15.9247538963182720 V
atom 0.9255326984485264 1.3934295500145946 15.0005611186022634 O
atom 0.9256093731257713 4.1855824799886010 15.0005331501957926 O
atom 5.5416500575490089 1.3944818745952841 15.0000000000000000 O
atom 5.5418691027901668 4.1846125545794841 15.0000075099116614 O
atom 0.0012018781446493 5.5789919024169219 15.9249781759017139 V
atom 2.3092038416900773 1.3947706208112125 18.2326460711129528 V
atom 1.3844210393419207 5.5788484904536562 17.3078855687214173 O
atom 3.2339835362026665 5.5788539710804628 19.1572738989668636 O
atom 3.6920418024521164 1.3945664501519510 16.8498015915343586 O
atom 2.3092090267115619 4.1843113008113697 18.2326460760283595 V
atom 1.3846325389830851 2.7897913805786332 17.3081000788142347 O
atom 3.2338389375071697 2.7897977409759092 19.1571008967198395 O
atom 3.6920386324563719 4.1845247303097919 16.8500312963443832 O
atom 4.6169661309984606 0.0000327374719370 15.9250626054773576 V
atom 6.9248880849572103 1.3945641658882335 18.2327492326882066 V
atom 6.0001731221662462 5.5790147355087667 17.3079664385826959 O
atom 7.8496111088072036 5.5790141861408902 19.1573445815108983 O
atom 8.3081646547360215 1.3934504848399354 16.8493983842946733 O
atom 4.6170323843431440 2.7895490074129219 15.9249847790956380 V
atom 6.9249005201289444 4.1845116958911719 18.2327543571698030 V
atom 6.0004400093399983 2.7895905855511085 17.3080679377345774 O
atom 7.8495468207485777 2.7895878860497945 19.1572028777888406 O
atom 8.3081385714520053 4.1855500348889558 16.8494654281353320 O
