#===============================================================================
# Created using the Atomic Simulation Environment (ASE)

# Mon Mar 23 14:01:43 2026

#=======================================================
lattice_vector 10.7779019647855687 0.0000000000000000 0.0000000000000000 
lattice_vector -0.0013379047791915 9.2181866457684922 0.0000000000000000 
lattice_vector 0.0000000000000000 0.0000000000000000 43.4080809991201875 
atom 0.3952282211780508 2.3050364270996870 15.7199444870219764 V
atom 3.0857965982549902 4.6047231066827150 15.7165532230924043 V
atom 1.9131180727123351 1.3849564489723614 16.4344727600904505 O
atom 9.9955881130166322 0.9232920288950424 16.4345818836326316 O
atom 1.5730064051939763 3.6886767667621680 15.0022691650469824 O
atom 4.2622533330671928 3.2308807322939308 15.0036989310915203 O
atom 8.7035424583248329 2.3061465044367928 20.5092142535688140 V
atom 9.9376566427969504 0.0024232821386831 18.1127840637143791 V
atom 1.8536782891187229 2.3086141019282347 18.1123838751913624 V
atom 0.6161149866891710 4.6058598798773707 20.5062751085285058 V
atom 10.2213126547284894 1.3845513418863435 21.2243591617863316 O
atom 3.0262197385315170 3.6909382858725279 17.3934878107683204 O
atom 0.3361317645668521 3.2239462334291313 17.3938621964935933 O
atom 7.5261379647234268 0.9238837865309941 21.2233151827057398 O
atom 9.8810450513488437 3.6895725939091584 19.7926184426562060 O
atom 8.7599277280043104 1.3875294663911306 18.8292940131444624 O
atom 0.6763953590016039 0.9227506991848212 18.8295721495952648 O
atom 1.7923645790026110 3.2309329467843599 19.7921753003642209 O
atom 0.3947282126689952 6.9143473587059798 15.7194425670984188 V
atom 3.0877045371266219 0.0022270246684642 15.7163898809124305 V
atom 1.9094738924144075 5.9985713367766458 16.4355728991191299 O
atom 9.9974800002273376 5.5311745439530844 16.4372156282235551 O
atom 1.5707866423824561 8.2988391874538561 15.0005911532122127 O
atom 4.2646360827526735 7.8351256516656269 15.0016529590141658 O
atom 8.7025041471954605 6.9154855332301075 20.5086719319182720 V
atom 9.9377377327003895 4.6187377908976179 18.1128260121948514 V
atom 1.8534792588293429 6.9175245431769641 18.1118566561614784 V
atom 0.6179379077904378 0.0028789091312972 20.5060264766646725 V
atom 10.2172312890201731 5.9977549434374158 21.2256154052904833 O
atom 3.0276458497595109 8.2995150178406210 17.3963427939893052 O
atom 0.3331073122940681 7.8375747886026375 17.3953336496226854 O
atom 7.5272800251502714 5.5321230138433464 21.2256468896969821 O
atom 9.8783541584471752 8.2997140245054339 19.7909030847768221 O
atom 8.7624251611877728 5.9922658329568073 18.8279081229211371 O
atom 0.6751795580442953 5.5317959952536304 18.8269358177340109 O
atom 1.7958007102526210 7.8360369427895362 19.7899312106806065 O
atom 5.7827746280684114 2.3043061061138821 15.7195088340214113 V
atom 8.4759564515879422 4.6025472861176784 15.7169241905784460 V
atom 7.3014175528817269 1.3827957806048621 16.4347200949440904 O
atom 4.6072596200471896 0.9230605395428931 16.4343864905575288 O
atom 6.9606058562928492 3.6888093867558216 15.0022796191413050 O
atom 9.6515074257828743 3.2300409231181866 15.0035367129198676 O
atom 3.3128989848060759 2.3049923139794588 20.5081834459888981 V
atom 4.5491644006466903 0.0016858650264478 18.1131793566197032 V
atom 7.2411555727616355 2.3065229231720576 18.1106374320906625 V
atom 6.0066648853397071 4.6025433302887127 20.5068977230391667 V
atom 4.8331152313611048 1.3853617442250949 21.2247296797544749 O
atom 8.4164380103938026 3.6905798368612048 17.3935411040127477 O
atom 5.7262282022406197 3.2250190135709902 17.3942805022415001 O
atom 2.1381066232413688 0.9231352830488481 21.2233464384917241 O
atom 4.4912383696082747 3.6901745371871497 19.7930088330504290 O
atom 3.3699749043286760 1.3867391285915878 18.8294444363401752 O
atom 6.0660897379578671 0.9223016910130492 18.8284017792519833 O
atom 7.1814062909401439 3.2301828522016502 19.7918985476747693 O
atom 5.7822167598123198 6.9133619865055991 15.7188677318956209 V
atom 8.4768929211424489 0.0002879759704904 15.7170424623602187 V
atom 7.2985868900542519 5.9976317299303874 16.4358357579158465 O
atom 4.6088469950975153 5.5313425939048697 16.4368774639395596 O
atom 6.9586058066606657 8.2984272265937751 15.0000000000000000 O
atom 9.6540655952148953 7.8345022159003177 15.0014419733371511 O
atom 3.3129132081502881 6.9137188364003617 20.5075511952369993 V
atom 4.5493227582432390 4.6170480515947272 18.1129891432456631 V
atom 7.2403250385247464 6.9152431484986137 18.1102296578272259 V
atom 6.0081715733868322 0.0017387980429503 20.5066545354688685 V
atom 4.8301430860933596 5.9991212768124340 21.2259772433606102 O
atom 8.4189071505241255 8.2977822838044766 17.3957168354962590 O
atom 5.7227533086623650 7.8383564375053458 17.3955311838044437 O
atom 2.1403262681658224 5.5310506625652947 21.2257057345768274 O
atom 4.4898683623722713 8.2997476116871081 19.7904373343082156 O
atom 3.3733256727168803 5.9920214134379757 18.8272317727018716 O
atom 6.0634284060065964 5.5327297548454650 18.8271808359749855 O
atom 7.1842515381861194 7.8355810023368742 19.7900590320254679 O
atom 6.2337660185142676 2.3058637926989727 25.2984533365469062 V
atom 7.4679258780311093 0.0043313788923245 22.9027429505827271 V
atom 10.1617790010535813 2.3111110226603953 22.9007517995300702 V
atom 8.9243343955912025 4.6055504722820002 25.2950620726173199 V
atom 7.7516558700485509 1.3857838145716468 26.0129816096153803 O
atom 0.5563938028472120 3.6919519005236907 22.1830076225164063 O
atom 8.6447823676103894 3.2251044425790920 22.1834274125132467 O
atom 5.0562239455672779 0.9241193944943277 26.0130907331575543 O
atom 7.4115442025301919 3.6895041323614528 24.5807780145719050 O
atom 6.2899046039615989 1.3882687158614637 23.6179245422911990 O
atom 8.9838898643349854 0.9246764261053635 23.6200780521572469 O
atom 10.1007911304034064 3.2317080978932164 24.5822077806164430 O
atom 4.9982924753475952 0.0032506477379684 27.6912929132393160 V
atom 7.6922160864549394 2.3094414675275203 27.6908927247162850 V
atom 8.8647575358677333 3.6917656514718136 26.9719966602932431 O
atom 6.1746695619030652 3.2247735990284170 26.9723710460185160 O
atom 3.8205635605549602 1.3883568319904158 28.4078028626693850 O
atom 6.5149331563378201 0.9235780647841066 28.4080809991201875 O
atom 6.2332660100052095 6.9151747243052650 25.2979514166233486 V
atom 7.4676943635304713 4.6204552827673604 22.9028901654338313 V
atom 10.1614143856773804 6.9196389974403436 22.9003745078515308 V
atom 8.9262423344628363 0.0030543902677496 25.2948987304373603 V
atom 7.7480116897506210 5.9993987023759301 26.0140817486440525 O
atom 0.5579000563368921 8.2997751726313673 22.1858185325501935 O
atom 8.6418230270220739 7.8392802894451377 22.1844256248640690 O
atom 5.0581158327779843 5.5320019095523696 26.0157244777484919 O
atom 7.4093244397186711 8.2996665530531413 24.5791000027371354 O
atom 6.2922996474179627 5.9929177238971070 23.6161586864942876 O
atom 8.9822298311799003 5.5340552910283778 23.6170648796764127 O
atom 10.1031738800888871 7.8359530172649112 24.5801618085390885 O
atom 4.9983735652510362 4.6195651564969040 27.6913348617197812 V
atom 7.6920170561655556 6.9183519087762502 27.6903655056864011 V
atom 8.8661836470957276 8.3003423834399062 26.9748516435142420 O
atom 6.1716451096302825 7.8384021542019227 26.9738424991476151 O
atom 3.8230609937384199 5.9930931985560933 28.4064169724460669 O
atom 6.5137173553805061 5.5326233608529165 28.4054446672589336 O
atom 0.8434104606190569 2.3051334717131673 25.2980176835463340 V
atom 2.0795089568269458 0.0034833675337024 22.9031833222795740 V
atom 4.7701790323093958 2.3076434015342153 22.8998011525556819 V
atom 3.5365922841385902 4.6033746517169645 25.2954330401033758 V
atom 2.3620533854323735 1.3836231462041477 26.0132289444690130 O
atom 5.9458441398506290 3.6917333641371992 22.1824672504587994 O
atom 3.2559716153813412 3.2243085202607311 22.1842342058773383 O
atom 10.4457974173834049 0.9238879051421786 26.0128953400824585 O
atom 2.0212416888434959 3.6896367523551072 24.5807884686662277 O
atom 0.9011604079784267 1.3882287921284271 23.6177477480990916 O
atom 3.5955878149774683 0.9237094326771156 23.6184196436275400 O
atom 4.7121432583335201 3.2308682887174722 24.5820455624447973 O
atom 10.3877021979829056 0.0025132306257331 27.6916882061446401 V
atom 2.3017914053122830 2.3073502887713428 27.6891462816155922 V
atom 3.4770738429444483 3.6914072024604900 26.9720499535376703 O
atom 0.7868640347912633 3.2258463791702758 26.9727893517664228 O
atom 9.2085127016648922 1.3875664941908734 28.4079532858650978 O
atom 1.1267255705085140 0.9231290566123346 28.4069106287769060 O
atom 0.8428525923629637 6.9141893521048843 25.2973765814205507 V
atom 2.0797569847721915 4.6190071626790230 22.9032272404922352 V
atom 4.7694189072253907 6.9172440114298208 22.8989613336964339 V
atom 3.5375287536930946 0.0011153415697758 25.2955513118851485 V
atom 2.3592227226048994 5.9984590955296726 26.0143446074407692 O
atom 5.9481232389468142 8.2991101535734551 22.1844832316641103 O
atom 3.2531132510625107 7.8386501024362785 22.1847941580302361 O
atom 10.4473847924337271 5.5321699595041549 26.0153863134644894 O
atom 2.0192416392113124 8.2992545921930603 24.5785088495249298 O
atom 0.9034717208142534 5.9924069972471150 23.6158314519861889 O
atom 3.5923843273516201 5.5346470028290771 23.6169932563577731 O
atom 4.7147014277655401 7.8353295814996029 24.5799508228620738 O
atom 10.3878605555794543 4.6178754171940142 27.6914979927705858 V
atom 2.3009608710753930 6.9160705140978997 27.6887385073521486 V
atom 3.4795429830747717 8.2986096494037636 26.9742256850211817 O
atom 0.7833891412130117 7.8391838031046301 26.9740400333293664 O
atom 9.2118634700530961 5.9928487790372609 28.4057406222267943 O
atom 1.1240642385572406 5.5335571204447511 28.4056896854999152 O
