#===============================================================================
# Created using the Atomic Simulation Environment (ASE)

# Mon Mar 23 14:01:47 2026

#=======================================================
lattice_vector 9.2314623421363340 0.0000000000000000 0.0000000000000000 
lattice_vector 0.0003972008493561 9.2315018135911977 0.0000000000000000 
lattice_vector 0.0000000000000000 0.0000000000000000 30.0004857977066450 
atom 0.0000484019886503 0.0000217087262182 15.0004046927175771 V
atom 1.3830153087386179 1.3831813667330752 15.0002601850701502 O
atom 3.2324832178045360 3.2326642888469985 15.0002642004177105 O
atom 1.3832947792066366 5.9989334418052724 15.0004264300611858 O
atom 3.2327524955932661 7.8482918541378517 15.0004244154221382 O
atom 5.9992245236740676 1.3833624464231282 15.0000000000000000 O
atom 7.8486147768166070 3.2325700202079113 15.0000068753831997 O
atom 4.6158905128264927 4.6157421374083212 15.0004111327301679 V
atom 5.9991666467713909 5.9987719687516972 15.0001557450617078 O
atom 7.8490923788045253 7.8483928310159250 15.0001556503455902 O
atom 0.0003314327911370 4.6157897637134324 15.0004857977066486 V
atom 4.6157004037346923 0.0000528504365696 15.0004771677231687 V
