#===============================================================================
# Created using the Atomic Simulation Environment (ASE)

# Mon Mar 23 14:01:37 2026

#=======================================================
lattice_vector 3.7155747600003020 0.0000000000000000 0.0000000000000000 
lattice_vector 0.0000010448242668 6.4438726005089801 0.0000000000000000 
lattice_vector 0.0000000000000000 0.0000000000000000 52.3852228084202167 
atom 1.8577804273010454 4.6545622026978242 15.4269423647247734 V
atom 1.8577795304132103 1.5785041204014429 16.4889266462613051 V
atom 1.8577804035878300 6.2290027781571116 16.0933566388935745 O
atom 3.7155679356711353 4.4080597450324994 15.0000000000000000 O
atom 1.8577796933276156 3.6221397041504897 16.9897075188270108 O
atom 3.7155670716033260 1.7344295463440069 16.1209243049173239 O
atom 1.8577756040312527 1.0976021536191287 26.8118000856994385 V
atom 3.7155642072817754 5.1146280875075982 25.5734444701634231 V
atom 1.8577757519676843 4.4654166718317265 27.8737843672359773 V
atom 3.7155640693591163 1.7468392187608279 24.5114340958788119 V
atom 3.7155653756730382 2.8760660807563387 21.1193460242821658 V
atom 1.8577781640946862 0.4492283371625900 19.8810059220208970 V
atom 3.7155655235927449 6.2438603762044069 22.1813667349594397 V
atom 1.8577790709784681 3.5252891097874302 18.8190337626719852 V
atom 1.8577755803180369 2.6720427290784157 27.4782143598682538 O
atom 3.7155642310095223 3.5401800600116249 24.9069876847590592 O
atom 1.8577766989226892 5.3611489718746919 26.0003650874455516 O
atom 3.7155631124013433 0.8510996959538035 26.3848577209746651 O
atom 1.8577748700578229 0.0651796550717933 28.3745652398016830 O
atom 3.7155649512680515 6.1470813137393145 24.0106579301800309 O
atom 1.8577765281608014 1.5908706413288263 24.8794398657442173 O
atom 3.7155632931578002 4.6213420977742921 27.5057820258919961 O
atom 3.7155653519437930 4.4504924857015418 21.7857974748296357 O
atom 1.8577792326358618 5.3186564180784091 19.2145799514249447 O
atom 3.7155654257247290 0.6957242397310579 20.3079458949879168 O
atom 1.8577781240071263 2.6295296519177609 20.6924854108258103 O
atom 3.7155646516825254 1.8436179912310395 22.6821462462079424 O
atom 1.8577789080722433 1.4816616710703152 18.3182343131944023 O
atom 3.7155662897836539 3.3693250949224733 19.1870328693338195 O
atom 1.8577783047848833 6.3997811355338996 21.8133560858346272 O
atom 3.7155593840119829 1.5576680384289032 36.9583021911381024 V
atom 3.7155602909135901 4.6337517701911137 35.8962918168534699 V
atom 3.7155615972275116 5.7629786321866243 32.5042037452568522 V
atom 1.8577743856491604 3.3361408885928769 31.2658636429955621 V
atom 3.7155607003229520 2.6869003271257101 33.5662244559341048 V
atom 1.8577752925329420 6.4122016612177140 30.2038914836466645 V
atom 3.7155604525639960 6.4270926114419096 36.2918454057337243 O
atom 1.8577718756528963 1.8041889227959966 37.3852228084202167 O
atom 3.7155601279982586 2.5901212646606186 35.3955156511546960 O
atom 1.8577727497152756 4.4777831927591105 36.2642975867189037 O
atom 3.7155605286739997 0.8935324366228468 33.1706551958043079 O
atom 1.8577744093660691 1.7616963689997138 30.5994376723996169 O
atom 3.7155616472792032 3.5826367911613426 31.6928036159625819 O
atom 1.8577743455616003 5.5164422033480456 32.0773431318004754 O
atom 3.7155608732369991 4.7305305426613247 34.0670039671826146 O
atom 1.8577751296267175 4.3685742225006008 29.7030920341690745 O
atom 3.7155625113381276 6.2562376463527585 30.5718905903084917 O
atom 1.8577734815150904 2.8428210864552041 33.1982138068092922 O
