#===============================================================================
# Created using the Atomic Simulation Environment (ASE)

# Mon Mar 23 14:01:46 2026

#=======================================================
lattice_vector 10.7863573876396668 0.0000000000000000 0.0000000000000000 
lattice_vector 2.8859864345801114 10.3931385144755009 0.0000000000000000 
lattice_vector 0.0000000000000000 0.0000000000000000 32.1226173588738959 
atom 6.2691071443055577 4.7657456553591402 17.1215568009819101 V
atom 6.1991378010434524 4.7125678986241759 15.2114236169239305 O
atom 7.7819942852494988 5.9158713644308083 16.9107601773075515 O
atom 5.0857610711601637 6.3227272787764592 17.1214240483196747 O
atom 7.4529217223799265 3.2092553444792911 17.1213143002735286 O
atom 3.5723800197577993 2.7155739269895398 16.0611780481037769 V
atom 7.7119213984251793 5.8625077987705989 15.0010125803854102 V
atom 6.5285559172075063 7.4192632223749477 15.0012989681661466 O
atom 8.8950194363643238 4.3056722372614793 15.0014217071915681 O
atom 5.0156558730160556 7.9123259807526916 16.0614180532703941 V
atom 6.2691338760952426 0.6659411476599012 15.0008552725724726 V
atom 5.0858248716581889 2.2237902889642243 15.0000000000000000 O
atom 10.3393348115523942 9.5021484739258106 15.0001984806078212 O
atom 7.7120787588056103 9.9621524474443994 17.1217487129880901 V
atom 7.6421514745923051 9.9092305004178503 15.2118307679407287 O
atom 6.3388088755936458 0.7190541380033070 16.9108353520838364 O
atom 3.6417232214373771 1.1259680260572087 17.1225401304697158 O
atom 8.8953613752435388 8.4045955592998158 17.1223458360087193 O
atom 8.9657057971326068 2.7158114198255738 16.0613427604163519 V
atom 2.3190759268996253 5.8625518325634696 15.0010072736624238 V
atom 11.9220119725623093 7.4203156245528996 15.0002862420351555 O
atom 3.5035828927881121 4.3053832692323413 15.0000330893386149 O
atom 11.6623813047602045 4.7656052636097428 17.1218971902666581 V
atom 11.5925069094753379 4.7122935206293883 15.2123994280592996 O
atom 2.3886246163060592 5.9152314658125400 16.9112898093009463 O
atom 10.4781078812573867 6.3226293251064813 17.1224828008903103 O
atom 2.0593723207250805 3.2076538702972348 17.1226173588738959 O
atom 13.1056690421107813 9.9622524013536573 17.1214201839989428 V
atom 13.0355533586151964 9.9089831839341667 15.2113723712842344 O
atom 0.9464599722377849 0.7191634882001601 16.9109795100162899 O
atom 9.0364750352373022 1.1261581760523878 17.1212658518396310 O
atom 3.5027267215973152 8.4052303079326851 17.1213049770184611 O
atom 10.4087985120256210 7.9124214620255167 16.0615080206701606 V
atom 0.8758564694514872 0.6656555566154266 15.0012926848081634 V
atom 10.4786694483671088 2.2222685278861061 15.0014966252226678 O
atom 4.9452422406557330 9.5019486495471526 15.0013109666231372 O
