#===============================================================================
# Created using the Atomic Simulation Environment (ASE)

# Mon Mar 23 14:01:48 2026

#=======================================================
lattice_vector 10.7863573876396668 0.0000000000000000 0.0000000000000000 
lattice_vector 0.0003366819931270 9.2315018159967526 0.0000000000000000 
lattice_vector 0.0000000000000000 0.0000000000000000 38.5952716128334430 
atom 5.0151205406825499 0.0002245734418991 15.7163666813722926 V
atom 7.7115847164320499 2.3081333808308511 15.7163308791930518 V
atom 9.2240944652820680 3.2327081295163071 15.0009980547473560 O
atom 6.5282192352143769 3.6910061460037502 15.0013830165606912 O
atom 9.2244586281806349 7.8484160025460872 15.0008711989374817 O
atom 6.5273729740243569 8.3071061189333797 15.0019678352342751 O
atom 2.3187392449064919 2.3081700545165718 15.7163059357169743 V
atom 3.8317795526049134 3.2327565402778946 15.0006773702613856 O
atom 1.1353179029295057 3.6914756454748834 15.0000000000000000 O
atom 10.4082413560183049 0.0001797049749568 15.7164099301685738 V
atom 2.3189749724779780 6.9237627203385310 15.7162206661863806 V
atom 3.8321097248247642 7.8485793583910324 15.0009490053829921 O
atom 1.1357674001846165 8.3066895867749242 15.0007486371335901 O
atom 2.1294707880955639 0.0003336259784721 20.4911667638688400 V
atom 6.2687704623124301 2.3081846267096013 18.1037133345402523 V
atom 6.1988011190503256 1.3834005655587838 16.4315258166786151 O
atom 7.7816576032563747 3.2329053353095683 17.3880905468186064 O
atom 5.0854243891670254 3.6910657461919056 17.3882892626347285 O
atom 7.4525850403867917 0.9255675024751417 18.8185783808553388 O
atom 3.5720433377646685 0.0000236240990725 18.1037506083535966 V
atom 4.8259349638450635 2.3082424333674241 20.4911309616896062 V
atom 4.7559203474606182 1.3836684985262862 18.8194330873547031 O
atom 6.3384447126950798 3.2328171820528802 19.7757981372439033 O
atom 3.6425694826273953 3.6911151985403237 19.7761830990572420 O
atom 8.8946827543711944 0.9255089678404176 16.4319333285788964 O
atom 5.0153191910229289 4.6159926321592328 15.7164797643725258 V
atom 6.2691338760952409 6.9238688597924121 18.1035899992037663 V
atom 6.1989526852363186 5.9991526459251210 16.4317099252256966 O
atom 7.7818035650223321 7.8485329056604369 17.3882642254268731 O
atom 5.0858248716581747 8.3071885869398479 17.3871256169498132 O
atom 7.4533483769722810 5.5406698064604480 18.8182896109687192 O
atom 3.5724297087945374 4.6161115091091363 18.1038362435466915 V
atom 7.7117420768124774 6.9238248715788879 15.7165583928569461 V
atom 4.7561650400121955 5.9994759630288392 18.8192446133588689 O
atom 6.3388088755936494 7.8485250550826589 19.7756712814340290 O
atom 3.6417232214373683 8.3072151714699540 19.7767679177308224 O
atom 8.8950246932504147 5.5406461308332409 16.4326592150264332 O
atom 8.9653691151394685 0.0003102418524547 18.1037878005103963 V
atom 10.2194468799591771 2.3082791070531457 20.4911060182135252 V
atom 10.1496986441443742 1.3836361722561630 18.8189504348050747 O
atom 0.9461298000179273 3.2328655928144676 19.7754774527579329 O
atom 9.0360255379821908 3.6915846980114568 19.7748000824965473 O
atom 3.5032462107949742 0.9246143439499602 16.4308326877846227 O
atom 7.5225916034313158 0.0002887575115295 20.4912100126651211 V
atom 0.8756872351274049 2.3082163090936096 18.1040801736534931 V
atom 0.8058128398425380 1.3836051632413016 16.4325186059030983 O
atom 2.3882879343129262 3.2325802873383913 17.3888549577725584 O
atom 10.4777711992642502 3.6914651523054332 17.3892746694967748 O
atom 2.0590356387319533 0.9247436904138829 18.8204715303368957 O
atom 8.9655643442436084 4.6159995286810105 18.1037268941328477 V
atom 10.2196826075306628 6.9238717728751045 20.4910207486829350 V
atom 10.1495669240350832 5.9990456956957541 18.8189510780801257 O
atom 0.9464599722377828 7.8486884109276058 19.7757490878795394 O
atom 9.0364750352372969 8.3067986393114985 19.7755487196301374 O
atom 3.5023900396041969 5.5407317373458778 16.4314430880636912 O
atom 10.4084618300324969 4.6161187732163382 15.7165158093471291 V
atom 0.8758564694514778 6.9238161474070754 18.1041097232777233 V
atom 0.8061419569525445 5.9995278072562224 16.4324230047384034 O
atom 2.3883071390326305 7.8478818647553421 17.3885622129807231 O
atom 10.4786694483671052 8.3065245057330053 17.3891540744886228 O
atom 2.0592558060756203 5.5410034151186780 18.8193695462351762 O
atom 3.3831207097254534 2.3082936792461743 22.8785134170367996 V
atom 3.3131513664633347 1.3835096180953561 21.2063258991751660 O
atom 4.8960078506693927 3.2330143878461417 22.1628906293151573 O
atom 2.1997746365800386 3.6911747987284782 22.1630893451312758 O
atom 4.5669352877998151 0.9256765550117149 23.5933784633518862 O
atom 0.6863935851776820 0.0001326766356452 22.8785506908501439 V
atom 1.8702705948736271 1.3837775510628587 23.5942331698512540 O
atom 6.0090330017842097 0.9256180203769906 21.2067334110754473 O
atom 2.1296694384359429 4.6161016846958063 20.4912798468690767 V
atom 3.3834841235082593 6.9239779123289846 22.8783900817003172 V
atom 3.3133029326493322 5.9992616984616944 21.2065100077222510 O
atom 4.8961538124353456 7.8486419581970095 22.1630643079234204 O
atom 2.2001751190711984 8.3072976394764186 22.1619256994463640 O
atom 4.5676986243852946 5.5407788589970224 23.5930896934652701 O
atom 0.6867799562075511 4.6162205616457088 22.8786363260432424 V
atom 4.8260923242254927 6.9239339241154605 20.4913584753534934 V
atom 1.8705152874252098 5.9995850155654118 23.5940446958554162 O
atom 6.0093749406634291 5.5407551833698134 21.2074592975229805 O
atom 6.0797193625524883 0.0004192943890277 22.8785878830069471 V
atom 7.2640488915573869 1.3837452247927355 23.5937505173016291 O
atom 0.6175964582079879 0.9247233964865332 21.2056327702811700 O
atom 8.7763948701800896 2.3083253616301826 22.8788802561500439 V
atom 8.7065204748952230 1.3837142157778743 21.2073186883996456 O
atom 10.2889955693656123 3.2326893398749639 22.1636550402691057 O
atom 7.5921214466772735 3.6915742048420062 22.1640747519933257 O
atom 9.9597432737846354 0.9248527429504559 23.5952716128334430 O
atom 6.0799145916566220 4.6161085812175831 22.8785269766293915 V
atom 7.2639171714480986 5.9991547482323266 23.5937511605766730 O
atom 0.6167402870172107 5.5408407898824512 21.2062431705602386 O
atom 7.5228120774455096 4.6162278257529108 20.4913158918436764 V
atom 8.7765641045041587 6.9239251999436480 22.8789098057742706 V
atom 8.7068495920052342 5.9996368597927958 21.2072230872349579 O
atom 10.2890147740853166 7.8479909172919147 22.1633622954772740 O
atom 7.5930196957801241 8.3066335582695778 22.1639541569851701 O
atom 9.9599634411283056 5.5411124676552515 23.5941696287317271 O
