#===============================================================================
# Created using the Atomic Simulation Environment (ASE)

# Mon Mar 23 14:01:40 2026

#=======================================================
lattice_vector 15.1536015195045284 0.0000000000000000 0.0000000000000000 
lattice_vector -0.0000014388224574 3.7155747600000235 0.0000000000000000 
lattice_vector 0.0000000000000000 0.0000000000000000 41.7808654056569182 
atom 5.7136628731961991 1.8577864183105761 16.8426263153110831 V
atom 2.1321962867518223 3.7155736346709496 19.0433362524314092 V
atom 8.5416164783843787 1.8577866165219978 15.2324641039809663 V
atom 3.5569305875887105 3.7155740484636617 15.8122373570768495 V
atom 11.8353574410168321 1.8577865256746380 16.6226928904496809 V
atom 13.9920867058742768 3.7155736755223181 17.6530758053483261 V
atom 9.0074111676735988 1.8577863374620029 18.2328651232242933 V
atom 5.1752637997647710 1.8577861861072273 18.4653085233224488 O
atom 2.6705683396894035 3.7155738668783660 17.4206203898377119 O
atom 5.5555843366045004 3.7155738654663333 16.3756630960450451 O
atom 7.5691256505568507 1.8577864028481945 17.0983390920989535 O
atom 0.2766971630716071 3.7155736601321037 18.7876324473520953 O
atom 3.9363466535436484 1.8577866541906205 15.9379291969374286 O
atom 8.1622314667007689 3.7155740107988651 15.1067421072300903 O
atom 14.8784550315430675 3.7155738471114206 16.0446621080995619 O
atom 12.3737503299424905 1.8577867578792862 15.0000000000000000 O
atom 11.9934370679937174 3.7155738485197154 17.0896496064158896 O
atom 11.0060991267583574 1.8577861644643550 18.7962943792482235 O
atom 9.9798826632915869 1.8577865511365004 16.3669839943511235 O
atom 9.3868177776298314 3.7155737031890799 18.3585559934535141 O
atom 13.6126999711979995 1.8577863098002618 17.5273448197474053 O
atom 1.4609384360376518 1.8577858163060692 21.6838894720900690 V
atom 13.0330733690977993 3.7155730326664425 23.8845994092103950 V
atom 4.2888920412258340 1.8577860145174907 20.0737272607599522 V
atom 14.4578076699346951 3.7155734464591545 20.6535005138558319 V
atom 11.1640923852781366 3.7155734773118554 19.2632291680596559 V
atom 7.5826330038582919 1.8577859236701311 21.4639560472286597 V
atom 9.7393622687157393 3.7155730735178114 22.4943389621273155 V
atom 4.7546867305150586 1.8577857354574963 23.0741282800032792 V
atom 0.9225393626062203 1.8577855841027207 23.3065716801014275 O
atom 13.5714454220353886 3.7155732648738593 22.2618835466166942 O
atom 2.2902463235904693 1.8577861875151596 19.5102989630951456 O
atom 1.3028598994459570 3.7155732634618266 21.2169262528240310 O
atom 3.3164012133983025 1.8577858008436874 21.9396022488779359 O
atom 11.1775742454175919 3.7155730581275965 23.6288956041310776 O
atom 14.8372237358896299 1.8577860521861138 20.7791923537164109 O
atom 3.9095070295422185 3.7155734087943579 19.9480052640090761 O
atom 10.6257305943845175 3.7155732451069134 20.8859252648785443 O
atom 8.1210258927839494 1.8577861558747795 19.8412631567789859 O
atom 7.7407126308351746 3.7155732465152087 21.9309127631948755 O
atom 6.7533746895998039 1.8577855624598480 23.6375575360272094 O
atom 13.0195983981210315 3.7155734718491322 19.5189458619223757 O
atom 5.7271582261330369 1.8577859491319937 21.2082471511301058 O
atom 5.1340933404712876 3.7155731011845727 23.1998191502324964 O
atom 9.3599755340394548 1.8577857077957549 22.3686079765263912 O
atom 12.3618155183836294 1.8577852143015621 26.5251526288690584 V
atom 0.0361676040672832 1.8577854125129840 24.9149904175389345 V
atom 10.2050832327761469 3.7155728444546474 25.4947636706348177 V
atom 6.9113679481195911 3.7155728753073478 24.1044923248386382 V
atom 3.3299085666997410 1.8577853216656244 26.3052192040076491 V
atom 13.1911234059364588 1.8577855855106529 24.3515621198741279 O
atom 12.2037369817919270 3.7155726614573203 26.0581894096030098 O
atom 14.2172782957442880 1.8577851988391803 26.7808654056569182 O
atom 10.5844992987310889 1.8577854501816069 25.6204555104953968 O
atom 14.8103841118882027 3.7155728067898508 24.7892684207880620 O
atom 6.3730061572259729 3.7155726431024063 25.7271884216575302 O
atom 3.8683014556254065 1.8577855538702723 24.6825263135579718 O
atom 3.4879881936766308 3.7155726445107016 26.7721759199738614 O
atom 8.7668739609624886 3.7155728698446246 24.3602090187013616 O
atom 1.4744337889744998 1.8577853471274870 26.0495103079090882 O
