#===============================================================================
# Created using the Atomic Simulation Environment (ASE)

# Mon Mar 23 14:01:40 2026

#=======================================================
lattice_vector 15.1536015195045284 0.0000000000000000 0.0000000000000000 
lattice_vector -0.0000014388224574 3.7155747600000235 0.0000000000000000 
lattice_vector 0.0000000000000000 0.0000000000000000 34.5189818590402240 
atom 13.0330733690977993 3.7155730326664425 16.6227158625937008 V
atom 9.7393622687157393 3.7155730735178114 15.2324554155106213 V
atom 4.7546867305150586 1.8577857354574963 15.8122447333865850 V
atom 0.9225393626062203 1.8577855841027207 16.0446881334847333 O
atom 13.5714454220353886 3.7155732648738593 15.0000000000000000 O
atom 11.1775742454175919 3.7155730581275965 16.3670120575143834 O
atom 6.7533746895998039 1.8577855624598480 16.3756739894105152 O
atom 5.1340933404712876 3.7155731011845727 15.9379356036158022 O
atom 9.3599755340394548 1.8577857077957549 15.1067244299096970 O
atom 12.3618155183836294 1.8577852143015621 19.2632690822523642 V
atom 0.0361676040672832 1.8577854125129840 17.6531068709222403 V
atom 10.2050832327761469 3.7155728444546474 18.2328801240181235 V
atom 6.9113679481195911 3.7155728753073478 16.8426087782219440 V
atom 3.3299085666997410 1.8577853216656244 19.0433356573909549 V
atom 13.1911234059364588 1.8577855855106529 17.0896785732574337 O
atom 12.2037369817919270 3.7155726614573203 18.7963058629863156 O
atom 14.2172782957442880 1.8577851988391803 19.5189818590402240 O
atom 10.5844992987310889 1.8577854501816069 18.3585719638787026 O
atom 14.8103841118882027 3.7155728067898508 17.5273848741713678 O
atom 6.3730061572259729 3.7155726431024063 18.4653048750408360 O
atom 3.8683014556254065 1.8577855538702723 17.4206427669412776 O
atom 3.4879881936766308 3.7155726445107016 19.5102923733571672 O
atom 8.7668739609624886 3.7155728698446246 17.0983254720846674 O
atom 1.4744337889744998 1.8577853471274870 18.7876267612923940 O
