#===============================================================================
# Created using the Atomic Simulation Environment (ASE)

# Mon Mar 23 14:01:48 2026

#=======================================================
lattice_vector 13.0550062955565522 0.0000000000000000 0.0000000000000000 
lattice_vector -0.0000004316329117 5.5790402700022366 0.0000000000000000 
lattice_vector 0.0000000000000000 0.0000000000000000 42.4076358183934801 
atom 13.0549894515925278 2.7894601114963007 16.3075479011713682 V
atom 3.2636716023635728 4.1844862562754743 16.3077944252154623 V
atom 3.2636006443779868 0.0000363181568426 15.0000000000000000 O
atom 1.3073705926832015 4.1855988413035101 16.3077798059996795 O
atom 5.2197897966674720 4.1853523912568829 16.3077969401453089 O
atom 3.2636679962474875 1.3945387262644060 16.3078054945809718 V
atom 3.2634821396444740 2.7894604679224271 15.0002618377665868 O
atom 1.3074380083533121 1.3934992912781619 16.3078074198873608 O
atom 5.2197203731444786 1.3937236412785918 16.3077708706154283 O
atom 9.7912574102286136 0.0004627477923623 15.0004080649629685 O
atom 11.7477031016111617 4.1856183112093284 16.3078535168742320 O
atom 9.7913808847380395 2.7889715076538111 15.0005649889936095 O
atom 6.5274240285212715 0.0000502512655708 16.3078036086263083 V
atom 13.0549676084866171 0.0000566911910248 16.3078871463136608 V
atom 13.0547922775549505 4.1842763966012884 19.5716606277115233 V
atom 13.0547850511695636 0.0001991585120077 18.2638339942524226 O
atom 13.0547125728902085 0.0001924147761996 20.8793872092670370 O
atom 11.0991594695451958 4.1844794715915210 19.5716939085229740 O
atom 1.9553111748533150 4.1847940813720976 19.5718930992573732 O
atom 6.5274583866379423 2.7894533021035297 22.8353319116999565 V
atom 13.0547901775918884 1.3947357165980709 19.5716629505339341 V
atom 13.0547856231336858 2.7892562682419948 18.2641365754374760 O
atom 13.0546909216125844 2.7892486449771852 20.8791639787302152 O
atom 11.0993257030909831 1.3945211914493483 19.5718527423460955 O
atom 1.9551503085739612 1.3942516815191957 19.5717263162559476 O
atom 9.7912492183676800 5.5790124514328756 19.5718509795138473 V
atom 9.7911468329655484 4.1844794468827029 22.8355784357440506 V
atom 9.7910758749799598 0.0000295087640715 21.5277840105285918 O
atom 3.2636090027494826 0.0000356045070024 17.6154579679094496 O
atom 7.8348458232851685 4.1855920319107387 22.8355638165282677 O
atom 11.7472650272694406 4.1853455818641114 22.8355809506738936 O
atom 9.7911489012978663 2.7894961814395254 19.5718414510384555 V
atom 9.7911432268494600 1.3945319168716350 22.8355895051095601 V
atom 9.7909573702464421 2.7894536585296561 21.5280458482951715 O
atom 3.2635526959969172 2.7894619046370024 17.6153136578179854 O
atom 7.8349132389552816 1.3934924818853909 22.8355914304159491 O
atom 11.7471956037464516 1.3937168318858209 22.8355548811440165 O
atom 3.2636204957222854 5.5790210815267098 19.5717451890075225 V
atom 9.7912189438989685 4.1844529561010830 16.3079894170461088 V
atom 3.2637263452740299 0.0004559383995911 21.5281920754915532 O
atom 9.7913247274936754 0.0004531442812932 17.6157116715801898 O
atom 7.8349178989075794 4.1853718311470711 16.3079547653215613 O
atom 5.2201720366565825 4.1856115018165569 22.8356375274028238 O
atom 3.2637112318495842 2.7895064715414950 19.5717282151077505 V
atom 9.7912244170714917 1.3944950861057881 16.3079829643157304 V
atom 3.2638498197834598 2.7889646982610401 21.5283489995221977 O
atom 9.7913685968609272 2.7889629645357252 17.6154293548512193 O
atom 7.8349966283709005 1.3936891011586472 16.3079412684186806 O
atom 11.7476306727618471 1.3934653811779980 16.3078866104925986 O
atom 13.0548992591232444 0.0000434418727997 22.8355876191548965 V
atom 6.5275748996556775 4.1845573864972936 19.5717791255287850 V
atom 6.5275519261643744 0.0003035984752533 18.2638773193559061 O
atom 6.5277056292302422 0.0003009643636844 20.8798518078648883 O
atom 4.5719760184175167 4.1848731413994091 19.5719110337675914 O
atom 8.4832816783992318 4.1845625816312539 19.5716078814580605 O
atom 6.5274139869525545 2.7894462210552091 16.3080395311360391 V
atom 6.5275770564838247 1.3944668564958598 19.5717794962528764 V
atom 6.5275562448106745 2.7891330777923007 18.2646407642607045 O
atom 6.5277234716263699 2.7891329753017793 20.8788063180910974 O
atom 4.5721177089939742 1.3941664515509287 19.5717419036714233 O
atom 8.4831336666216650 1.3944319014866557 19.5717667356679250 O
atom 6.5274365435320423 0.0000498817982536 22.8356711568422490 V
atom 6.5272612126003704 4.1842695872085169 26.0994446382401080 V
atom 6.5272539862149772 0.0001923491192365 24.7916180047810109 O
atom 6.5271815079356275 0.0001856053834284 27.4071712197956217 O
atom 4.5716284045906166 4.1844726621987505 26.0994779190515587 O
atom 8.4827864054552968 4.1847872719793262 26.0996771097859650 O
atom 6.5272591126373056 1.3947289072052997 26.0994469610625188 V
atom 6.5272545581791075 2.7892494588492243 24.7919205859660643 O
atom 6.5271598566580069 2.7892418355844142 27.4069479892588035 O
atom 4.5717946381363994 1.3945143820565771 26.0996367528746802 O
atom 8.4826255391759364 1.3942448721264245 26.0995103267845323 O
atom 3.2637181534130977 5.5790056420401042 26.0996349900424391 V
atom 9.7910842333514498 0.0000287951142312 24.1432419784380343 O
atom 3.2636178363432791 2.7894893720467544 26.0996254615670438 V
atom 9.7910279265988898 2.7894550952442319 24.1430976683465737 O
atom 9.7910957263242615 5.5790142721339384 26.0995291995361072 V
atom 3.2636878789443831 4.1844461467083125 22.8357734275746935 V
atom 3.2637936625390958 0.0004463348885220 24.1434956821087781 O
atom 1.3073868339530026 4.1853650217542997 22.8357387758501460 O
atom 9.7911864624515577 2.7894996621487245 26.0995122256363388 V
atom 3.2636933521169058 1.3944882767130169 22.8357669748443186 V
atom 3.2638375319063542 2.7889561551429547 24.1432133653798076 O
atom 1.3074655634163213 1.3936822917658760 22.8357252789472689 O
atom 5.2200996078072706 1.3934585717852268 22.8356706210211868 O
atom 0.0000438347010978 4.1845505771045222 26.0995631360573697 V
atom 0.0000208612098006 0.0002967890824822 24.7916613298844943 O
atom 0.0001745642756619 0.0002941549709132 27.4076358183934801 O
atom 11.0994512490194897 4.1848663320066386 26.0996950442961761 O
atom 1.9557506134446487 4.1845557722384825 26.0993918919866488 O
atom 13.0548892175545266 2.7894394116624386 22.8358235416646309 V
atom 0.0000459915292365 1.3944600471030886 26.0995635067814717 V
atom 0.0000251798560916 2.7891262683995302 24.7924247747892892 O
atom 0.0001924066717931 2.7891261659090083 27.4065903286196928 O
atom 11.0995929395959472 1.3941596421581575 26.0995259142000080 O
atom 1.9556026016670851 1.3944250920938845 26.0995507461965062 O
