#===============================================================================
# Created using the Atomic Simulation Environment (ASE)

# Mon Mar 23 14:01:39 2026

#=======================================================
lattice_vector 12.3188787347632243 0.0000000000000000 0.0000000000000000 
lattice_vector -1.5101125036326633 6.2644276927716032 0.0000000000000000 
lattice_vector 0.0000000000000000 0.0000000000000000 30.2780983606678191 
atom 2.0317706444407118 4.6321190111250719 15.1553688917973730 V
atom 8.9462855752775852 1.4999408167214658 15.1553777140415136 V
atom 2.8176001928783769 2.9768410843872188 15.2780918343585732 O
atom 2.6001539860372844 0.2428470729774091 15.0000000000000000 O
atom 8.2220019835480507 6.1090632041210906 15.2780983606678191 O
atom 8.0045356135464729 3.3750884026767349 15.0000015983090051 O
