#===============================================================================
# Created using the Atomic Simulation Environment (ASE)

# Mon Mar 23 14:01:37 2026

#=======================================================
lattice_vector 6.4438726005090654 0.0000000000000000 0.0000000000000000 
lattice_vector -3.5569600490794309 11.3848577209754627 0.0000000000000000 
lattice_vector 0.0000000000000000 0.0000000000000000 37.4311497108654763 
atom 3.5461147833081830 3.4653694830578794 15.0000000304248822 V
atom 0.4700364782471659 4.5273901937352230 15.0000000284149593 V
atom 1.5211483985053091 8.7308811797507246 15.0000000595144378 O
atom -1.1524818001832886 9.8518054846681462 15.0000000470583643 O
atom 5.1205411882533634 4.1318209336054048 15.0000000000000000 O
atom 2.5136666937827803 5.0281697049837524 15.0000000567601823 O
atom 1.7676511573965112 9.1578228515234219 16.8577874304249349 V
atom -0.6591958104498395 7.9194679289393921 15.0000001604405888 V
atom -1.3084069248999748 10.2198071330600300 16.8577874284148663 V
atom 2.4168879213124770 6.8574575546546983 15.0000001724505374 V
atom 3.5461153857599879 3.4653680971536462 18.7155747904248742 V
atom 1.1192773409403967 2.2270286878443666 16.8577875104405699 V
atom 0.4700370806989703 4.5273888078309898 18.7155747884149548 V
atom 4.1953381135653451 1.1650565284953822 16.8577875224506677 V
atom 3.3420917328557729 9.8242371256922834 16.8577873999999142 O
atom -2.2336438379457908 7.2530111435349696 15.0000001908654923 O
atom -0.4126746248568689 8.3463878532694338 16.8577875313509864 O
atom 1.5211490009571134 8.7308797938464924 18.7155748195144334 O
atom 0.7352286588490723 10.7205880056257712 16.8577874467600886 O
atom 0.3732574157819809 6.3566813889558942 15.0000001541053223 O
atom 2.2609196451063527 7.2254626315680195 16.8577875538071140 O
atom -1.1524811977314844 9.8518040987639139 18.7155748070583599 O
atom 5.1205417907051682 4.1318195477011717 18.7155747599999955 O
atom -0.4551671786527405 1.5606027172483603 16.8577875408655586 O
atom 1.3657729422829399 2.6539693537635309 15.0000001313510722 O
atom 3.2995786556955311 3.0385081766493673 16.8577874195146862 O
atom 2.5136672962345847 5.0281683190795201 18.7155748167601814 O
atom 2.1517106748482284 0.6642570790177689 16.8577875041053780 O
atom 4.0393737974744601 1.5330563281093539 15.0000001438072239 O
atom 0.6259575388025846 4.1593788516582677 16.8577874070584350 O
atom 1.7676517598483152 9.1578214656191896 20.5733621904249304 V
atom -0.6591952079980350 7.9194665430351590 18.7155749204405879 V
atom -1.3084063224481706 10.2198057471557959 20.5733621884148619 V
atom 2.4168885237642810 6.8574561687504652 18.7155749324505329 V
atom 3.5461159882117919 3.4653667112494140 22.4311495504248732 V
atom 1.1192779433922007 2.2270273019401343 20.5733622704405690 V
atom 0.4700376831507746 4.5273874219267567 22.4311495484149503 V
atom 4.1953387160171483 1.1650551425911495 20.5733622824506668 V
atom 3.3420923353075773 9.8242357397880475 20.5733621599999097 O
atom -2.2336432354939864 7.2530097576307355 18.7155749508654878 O
atom -0.4126740224050643 8.3463864673651997 20.5733622913509890 O
atom 1.5211496034089174 8.7308784079422583 22.4311495795144253 O
atom 0.7352292613008776 10.7205866197215354 20.5733622067600805 O
atom 0.3732580182337859 6.3566800030516628 18.7155749141053178 O
atom 2.2609202475581571 7.2254612456637854 20.5733623138071096 O
atom -1.1524805952796802 9.8518027128596817 22.4311495670583554 O
atom 5.1205423931569714 4.1318181617969394 22.4311495199999911 O
atom -0.4551665762009364 1.5606013313441276 20.5733623008655542 O
atom 1.3657735447347445 2.6539679678592982 18.7155748913510678 O
atom 3.2995792581473347 3.0385067907451346 20.5733621795146817 O
atom 2.5136678986863892 5.0281669331752870 22.4311495767601734 O
atom 2.1517112773000329 0.6642556931135363 20.5733622641053771 O
atom 4.0393743999262641 1.5330549422051210 18.7155749038072194 O
atom 0.6259581412543891 4.1593774657540354 20.5733621670584306 O
atom -0.6591946055462304 7.9194651571309258 22.4311496804405799 V
atom 2.4168891262160845 6.8574547828462347 22.4311496924505249 V
atom -2.2336426330421819 7.2530083717265033 22.4311497108654798 O
atom 0.3732586206855896 6.3566786171474305 22.4311496741053134 O
atom 1.3657741471865485 2.6539665819550655 22.4311496513510633 O
atom 4.0393750023780681 1.5330535563008885 22.4311496638072185 O
