#===============================================================================
# Created using the Atomic Simulation Environment (ASE)

# Mon Mar 23 14:01:41 2026

#=======================================================
lattice_vector 9.2181867428585846 0.0000000000000000 0.0000000000000000 
lattice_vector 0.0015442526650186 10.7770658557386358 0.0000000000000000 
lattice_vector 0.0000000000000000 0.0000000000000000 55.3871945259972733 
atom 2.3019425569164969 0.9555390580387384 15.7192305426120313 V
atom 0.0016573253716458 9.0377311113235486 15.7199563324510905 V
atom 2.3054268179170170 7.8013791303960840 18.1101342046873768 V
atom 4.6013370836436263 10.4958109682128349 18.1120055823076882 V
atom 1.3802118290426579 0.8952432313774074 17.3966576317685977 O
atom 3.6893461328219872 6.6248975743957192 18.8264580664913375 O
atom 3.2223116953007622 7.8593262608770367 16.4364856907387633 O
atom 0.9208676162284911 2.1297685534659374 15.0019147032900975 O
atom 3.6878191281357005 10.5552235945762209 16.4375276566039084 O
atom 1.3865737579697854 10.2127968921742021 15.0003353227871870 O
atom 0.9216633408945251 8.9785102138791224 17.3953535770421404 O
atom 3.2286601185448638 9.3230726180430903 18.8296811456461768 O
atom 2.3029872364048218 6.3436453506422232 15.7187928038650533 V
atom 9.2176881260711347 3.6485443034478422 15.7195889458428297 V
atom 2.3039477081551962 2.4123335885785933 18.1113261807052233 V
atom 4.6001472620081660 5.1077382185566984 18.1126821977458832 V
atom 1.3831360359178213 6.2838148169467063 17.3982303294790768 O
atom 3.6878340296864391 1.2362385732695704 18.8274188118111141 O
atom 3.2226636616843538 2.4699084414258796 16.4366759515452969 O
atom 0.9213007264805181 7.5177972848455044 15.0022499396422369 O
atom 3.6879984237650207 5.1678571891805891 16.4384833168719098 O
atom 1.3847257768308940 4.8255070063027965 15.0000000000000000 O
atom 0.9198970367186238 3.5889230672573826 17.3957322097292604 O
atom 3.2276162993190782 3.9339384467023528 18.8288995702478843 O
atom 6.9109984697311804 0.9549183454443757 15.7190354367739857 V
atom 4.6171810359060323 9.0373494454238124 15.7207922902124828 V
atom 6.9150274895849035 7.8006744635577157 18.1096683298079562 V
atom 9.2172644289112178 10.4957930230181002 18.1122984360007848 V
atom 5.9950481405980414 0.8972251943450817 17.3952484065095447 O
atom 8.2967225429484852 6.6253383089358842 18.8300020010012972 O
atom 7.8366536437319017 7.8608270447452551 16.4347970866304145 O
atom 5.5291493916662855 2.1309484265353573 15.0050616589631218 O
atom 8.2974372097053326 10.5538075361965920 16.4352998641388339 O
atom 5.9907515791369805 10.2097281208843071 15.0021052274870428 O
atom 5.5326013274282708 8.9784039703746608 17.3924474103356665 O
atom 7.8331209915443649 9.3197320900518541 18.8315887051014990 O
atom 6.9117137082202023 6.3427703248995568 15.7191101795090944 V
atom 4.6148634981861303 3.6479956532170235 15.7202378773723694 V
atom 6.9126680054823186 2.4120452456832906 18.1109956290150649 V
atom 9.2175293024017648 5.1071375729071020 18.1133163768047005 V
atom 5.9968959512807665 6.2859789274815654 17.3967556706416673 O
atom 8.2950360697397034 1.2367342033270725 18.8312048467354387 O
atom 7.8360015413664046 2.4723057717343107 16.4347558314620201 O
atom 5.5292157353105633 7.5185703662735941 15.0058984502599948 O
atom 8.2975716485543369 5.1658929530295561 16.4366817169197859 O
atom 5.9900075268501558 4.8216983490506058 15.0025580693101794 O
atom 5.5303254382510616 3.5887509717075869 17.3934019973038367 O
atom 7.8330139879960443 3.9306931219226899 18.8311793760765447 O
atom 2.3034347877124270 9.2624747449424838 20.5103046090400909 V
atom 0.0017232752430598 6.5677108552886265 20.5089058790842209 V
atom 2.3081119155487664 5.3311361584945853 22.9025506725155097 V
atom 4.6027309406476826 8.0261615893690657 22.9003873480058999 V
atom 1.3831345165044067 9.2019169427453420 22.1867495332661306 O
atom 3.6887826026906740 4.1557331250986564 23.6158878748787231 O
atom 3.2223254989728041 5.3887998364028089 21.2256173232512069 O
atom 0.9218613095991989 10.4374197818066463 19.7910769614297948 O
atom 3.6869041729949457 8.0847213005703598 21.2283500061513593 O
atom 1.3858315727242740 7.7431752213433693 19.7898585030960845 O
atom 0.9218482895065261 6.5104079653808151 22.1851629591843142 O
atom 3.2287178327138495 6.8534820863831722 23.6191121372528308 O
atom 2.3033590422154377 3.8739121608688163 20.5103955927450343 V
atom 9.2176434707654291 1.1785295989538105 20.5086260830284672 V
atom 2.3068007866747871 10.7204025165963852 22.9030626221264271 V
atom 4.6026819046340428 2.6380438696575732 22.9006021083377362 V
atom 1.3815436039667008 3.8139573569063492 22.1870165909927408 O
atom 3.6889547762996657 9.5439642900639399 23.6158940185088291 O
atom 3.2208089088117400 0.0001881403003930 21.2250919650004590 O
atom 0.9212672244385895 5.0483173716425869 19.7910442821873680 O
atom 3.6866142173086924 2.6972444947801888 21.2286907841446784 O
atom 1.3847338302267571 2.3550405188238956 19.7904475180184107 O
atom 0.9195640137898071 1.1204303862367369 22.1852338886314442 O
atom 3.2275842680715541 1.4643523789893420 23.6185718050768081 O
atom 6.9127457433413797 9.2619512002395048 20.5102247512891154 V
atom 4.6178471641004437 6.5676407428549890 20.5093630465886605 V
atom 6.9166398947089958 5.3306613801337512 22.9026481691699004 V
atom 9.2184213730540563 8.0254481197427872 22.9014145299879246 V
atom 5.9967498846233198 9.2042580422395712 22.1846099923312039 O
atom 8.2966056076527828 4.1572345637874406 23.6191093055722519 O
atom 7.8365017267516333 5.3907364305931704 21.2240398156298085 O
atom 5.5297435015411267 10.4385870099990061 19.7945599469619324 O
atom 8.2970668673012025 8.0839406056518222 21.2262027355970950 O
atom 5.9904801846510098 7.7402017524661320 19.7917718372314582 O
atom 5.5312273468145863 6.5081841137595129 22.1829011344156939 O
atom 7.8329623577651795 6.8502653153667792 23.6208861093348759 O
atom 6.9126981731590229 3.8735994216060008 20.5098187856198351 V
atom 4.6157711762754916 1.1782226411244983 20.5093128677692285 V
atom 6.9157112082671643 10.7197185681623193 22.9032386229078426 V
atom 9.2178874606529710 2.6372935934758672 22.9015145750196716 V
atom 5.9947477492887398 3.8166375988765622 22.1845599786703964 O
atom 8.2975312527459035 9.5455415812228441 23.6190645167512301 O
atom 7.8344378543539417 0.0025752229354297 21.2236734129611690 O
atom 5.5295062374590698 5.0495597911575993 19.7937224475329501 O
atom 8.2967559898984113 2.6966465377826174 21.2261076603960710 O
atom 5.9894697858220134 2.3523578249032875 19.7926260125095439 O
atom 5.5286094377724142 1.1183378863079532 22.1835395625990444 O
atom 7.8326877168621296 1.4604766788989985 23.6211913174915793 O
atom 2.3019225316003262 6.7928577634752365 25.2984824135383306 V
atom 9.2182797902490403 4.0979839610214110 25.2992082033773897 V
atom 2.3038625399358272 2.8616319800939465 27.6893860756136725 V
atom 4.5997728056624361 5.5560638179106956 27.6912574532339875 V
atom 1.3801918037264878 6.7325619368139069 26.9759095026948970 O
atom 3.6877818548407979 1.6851504240935813 28.4057099374176403 O
atom 3.2207474173195725 2.9195791105748983 26.0157375616650590 O
atom 0.9208475909123203 7.9670872589024349 24.5811665742163896 O
atom 3.6862548501545120 5.6154764442740843 26.0167795275302076 O
atom 1.3850094799885961 5.2730497418720645 24.5795871937134827 O
atom 0.9200990629133358 4.0387630635769849 26.9746054479684361 O
atom 3.2270958405636740 4.3833254677409537 28.4089330165724725 O
atom 2.3014229584236325 1.4038982003400864 25.2980446747913561 V
atom 9.2176681007549650 9.4858630088843405 25.2988408167691290 V
atom 2.3039276828390252 8.2496522940150925 27.6905780516315225 V
atom 4.5985829840269767 0.1679910682545607 27.6919340686721860 V
atom 1.3815717579366322 1.3440676666445683 26.9774822004053760 O
atom 3.6878140043702690 7.0735572787060681 28.4066706827374169 O
atom 3.2226436363681823 8.3072271468623775 26.0159278224715962 O
atom 0.9197364484993289 2.5780501345433664 24.5815018105685326 O
atom 3.6864341457838319 0.2281100388784520 26.0177351877982090 O
atom 1.3847057515147234 10.6628257117392948 24.5792518709262993 O
atom 0.9198770114024531 9.4262417726938814 26.9749840806555596 O
atom 3.2275962740029076 9.7712571521388494 28.4081514411741836 O
atom 6.9109784444150080 6.7922370508808720 25.2982873077002850 V
atom 4.6156167579248430 4.0976022951216757 25.3000441611387785 V
atom 6.9134632116037151 2.8609273132555768 27.6889202007342554 V
atom 9.2157001509300294 5.5560458727159618 27.6915503069270841 V
atom 5.9950281152818707 6.7345438997815794 26.9745002774358476 O
atom 8.2951582649672968 1.6855911586337484 28.4092538719275893 O
atom 7.8350893657507124 2.9210798944431167 26.0140489575567138 O
atom 5.5291293663501140 7.9682671319718557 24.5843135298894211 O
atom 8.2958729317241424 5.6140603858944544 26.0145517350651296 O
atom 5.9891873011557903 5.2699809705821714 24.5813570984133420 O
atom 5.5310370494470815 4.0386568200725241 26.9716992812619623 O
atom 7.8315567135631756 4.3799849397497139 28.4108405760277982 O
atom 6.9101494302390121 1.4030231745974193 25.2983620504353901 V
atom 4.6148434728699579 9.4853143586535218 25.2994897482986687 V
atom 6.9126479801661471 8.2493639511197898 27.6902474999413606 V
atom 9.2159650244205746 0.1673904226049650 27.6925682477309962 V
atom 5.9953316732995772 1.3462317771794257 26.9760075415679665 O
atom 8.2950160444235337 7.0740529087635711 28.4104567176617380 O
atom 7.8359815160502340 8.3096244771708090 26.0140077023883229 O
atom 5.5276514573293740 2.5788232159714557 24.5851503211862905 O
atom 8.2960073705731450 0.2261458027274185 26.0159335878460851 O
atom 5.9899875015339852 10.6590170544871050 24.5818099402364751 O
atom 5.5303054129348901 9.4260696771440866 26.9726538682301360 O
atom 7.8329939626798719 9.7680118273591887 28.4104312470028404 O
atom 2.3018705097312377 4.3227275946403463 30.0895564799663902 V
atom 9.2183457401204549 1.6279637049864857 30.0881577500105166 V
atom 2.3065476375675771 0.3913890081924498 32.4818025434418090 V
atom 4.6011666626664933 3.0864144390669286 32.4796392189321992 V
atom 1.3815702385232176 4.2621697924432054 31.7660014041924299 O
atom 3.6887625773745025 9.9930518305351530 33.1951397458050153 O
atom 3.2207612209916143 0.4490526861006716 30.8048691941775061 O
atom 0.9202970316180095 5.4976726315045088 29.3703288323560940 O
atom 3.6853398950137572 3.1449741502682218 30.8076018770776585 O
atom 1.3842672947430850 2.8034280710412283 29.3691103740223802 O
atom 0.9202840115253366 1.5706608150786781 31.7644148301106171 O
atom 3.2271535547326611 1.9137349360810367 33.1983640081791336 O
atom 2.3033390168992671 9.7112308663053142 30.0896474636713336 V
atom 9.2176234454492612 7.0158483043903077 30.0878779539547665 V
atom 2.3052365086935982 5.7806553662942468 32.4823144930527263 V
atom 4.6026618793178722 8.4753625750940689 32.4798539792640355 V
atom 1.3815235786505304 9.6512760623428484 31.7662684619190330 O
atom 3.6873904983184760 4.6042171397618006 33.1951458894351248 O
atom 3.2207888834955694 5.8375068457368915 30.8043438359267583 O
atom 0.9197029464574001 0.1085702213404500 29.3702961531136708 O
atom 3.6865941919925227 8.5345632002166880 30.8079426550709812 O
atom 1.3847138049105863 8.1923592242603931 29.3696993889447135 O
atom 0.9195439884736366 6.9577490916732341 31.7644857595577363 O
atom 3.2275642427553835 7.3016710844258403 33.1978236760031109 O
atom 6.9111814653601913 4.3222040499373682 30.0894766222154217 V
atom 4.6162828861192535 1.6278935925528530 30.0886149175149598 V
atom 6.9150756167278065 0.3909142298316131 32.4819000400961997 V
atom 9.2168570950728679 3.0857009694406496 32.4806664009142239 V
atom 5.9951856066421305 4.2645108919374310 31.7638618632574961 O
atom 8.2965855823366130 9.9945532692239389 33.1983611764985440 O
atom 7.8349374487704440 0.4509892802910309 30.8032916865561148 O
atom 5.5281792235599374 5.4988398596968686 29.3738118178882353 O
atom 8.2955025893200141 3.1441934553496846 30.8054546065233907 O
atom 5.9889159066698188 2.8004546021639944 29.3710237081577574 O
atom 5.5296630688333961 1.5684369634573743 31.7621530053419932 O
atom 7.8313980797839911 1.9105181650646410 33.2001379802611822 O
atom 6.9126781478428523 9.7109181270424987 30.0890706565461343 V
atom 4.6157511509593210 7.0155413465609948 30.0885647386955242 V
atom 6.9141469302859742 5.7799714178601809 32.4824904938341419 V
atom 9.2178674353367995 8.4746122989123656 32.4807664459459744 V
atom 5.9947277239725691 9.6539563043130627 31.7638118495966992 O
atom 8.2959669747647169 4.6057944309207048 33.1983163876775293 O
atom 7.8344178290377711 5.8398939283719260 30.8029252838874683 O
atom 5.5279419594778805 0.1098126408554629 29.3729743184592493 O
atom 8.2967359645822398 8.5339652432191144 30.8053595313223738 O
atom 5.9894497605058437 8.1896765303397849 29.3718778834358467 O
atom 5.5285894124562436 6.9556565917444502 31.7627914335253436 O
atom 7.8326676915459590 7.2977953843354957 33.2004431884178786 O
atom 2.3003582536191374 1.8531106131730981 34.8777342844646299 V
atom 9.2182597649328706 9.9353026664579094 34.8784600743036819 V
atom 2.3038425146196566 8.6989506855304448 37.2686379465399753 V
atom 4.5982085276812468 0.6163166676085590 37.2705093241602796 V
atom 1.3786275257452982 1.7928147865117696 36.5551613736211891 O
atom 3.6877618295246277 7.5224691295300792 37.9849618083439324 O
atom 3.2207273920034019 8.7568978160113957 35.5949894325913618 O
atom 0.9192833129311312 3.0273401086002982 34.1604184451426889 O
atom 3.6846905721733223 0.6757292939719459 35.5960313984565104 O
atom 1.3834452020074068 0.3333025915699255 34.1588390646397855 O
atom 0.9200790375971651 9.8760817690134832 36.5538573188947353 O
atom 3.2270758152475039 10.2206441731774529 37.9881848874987682 O
atom 2.3014029331074628 7.2412169057765849 34.8772965457176483 V
atom 9.2161038227737766 4.5461158585822039 34.8780926876954211 V
atom 2.3023634048578363 3.3099051437129536 37.2698299225578253 V
atom 4.5985629587108070 6.0053097736910592 37.2711859395984817 V
atom 1.3815517326204616 7.1813863720810689 36.5567340713316753 O
atom 3.6862497263890797 2.1338101284039328 37.9859225536637126 O
atom 3.2210793583869939 3.3674799965602387 35.5951796933978883 O
atom 0.9197164231831580 8.4153688399798643 34.1607536814948318 O
atom 3.6864141204676608 6.0654287443149499 35.5969870587245083 O
atom 1.3831414735335339 5.7230785614371555 34.1585037418525914 O
atom 0.9183127334212638 4.4864946223917439 36.5542359515818518 O
atom 3.2260319960217183 4.8315100018367119 37.9874033121004757 O
atom 6.9094141664338187 1.8524899005787354 34.8775391786265843 V
atom 4.6155967326086715 9.9349210005581732 34.8792960320650778 V
atom 6.9134431862875445 8.6982460186920747 37.2681720716605511 V
atom 9.2141358729488410 0.6162987224138246 37.2708021778533833 V
atom 5.9934638373006823 1.7947967494794415 36.5537521483621433 O
atom 8.2951382396511253 7.5229098640702450 37.9885057428538886 O
atom 7.8350693404345426 8.7583985998796141 35.5933008284830095 O
atom 5.5275650883689256 3.0285199816697186 34.1635654008157204 O
atom 8.2943086537429540 0.6743132355923186 35.5938036059914324 O
atom 5.9876230231746010 0.3302338202800348 34.1606089693396413 O
atom 5.5310170241309109 9.8759755255090234 36.5509511521882615 O
atom 7.8315366882470059 10.2173036451862131 37.9900924469540939 O
atom 6.9101294049228406 7.2403418800339177 34.8776139213616929 V
atom 4.6132791948887695 4.5455672083513834 34.8787416192249751 V
atom 6.9110837021849578 3.3096168008176505 37.2694993708676634 V
atom 9.2159449991044031 6.0047091280414637 37.2718201186572955 V
atom 5.9953116479834074 7.1835504826159235 36.5552594124942729 O
atom 8.2934517664423453 2.1343057584614336 37.9897085885880372 O
atom 7.8344172380690447 3.3698773268686697 35.5932595733146186 O
atom 5.5276314320132034 8.4161419214079540 34.1644021921125969 O
atom 8.2959873452569752 6.0634645081639178 35.5951854587723844 O
atom 5.9884232235527959 5.7192699041849675 34.1610618111627744 O
atom 5.5287411349537008 4.4863225268419473 36.5519057391564388 O
atom 7.8314296846986826 4.8282646770570512 37.9896831179291397 O
atom 2.3018504844150671 10.1600463000768446 39.6688083508926894 V
atom 9.2183257148042834 7.4652824104229856 39.6674096209368159 V
atom 3.2207411956754437 6.2863713915371697 40.3841210651038054 O
atom 0.9187327536368204 0.5579254812023693 38.9495807032823862 O
atom 3.6853198696975866 8.9822928557047188 40.3868537480039649 O
atom 1.3842472694269143 8.6407467764777284 38.9483622449486830 O
atom 2.3017747389180783 4.7714837160031767 39.6688993345976328 V
atom 9.2160591674680710 2.0761011540881711 39.6671298248810658 V
atom 3.2192246055143796 0.8977596954347534 40.3835957068530647 O
atom 0.9196829211412295 5.9458889267769477 38.9495480240399630 O
atom 3.6850299140113330 3.5948160499145483 40.3871945259972733 O
atom 1.3831495269293972 3.2526120739582556 38.9489512598710164 O
atom 6.9111614400440216 10.1595227553738656 39.6687284931417210 V
atom 4.6162628608030838 7.4652122979893516 39.6678667884412590 V
atom 7.8349174234542742 6.2883079857275295 40.3825435574824070 O
atom 5.5266149455787490 0.5590927093947303 38.9530636888145310 O
atom 8.2954825640038425 8.9815121607861794 40.3847064774496900 O
atom 5.9888958813536499 8.6377733076004919 38.9502755790840496 O
atom 6.9111138698616630 4.7711709767403612 39.6683225274724336 V
atom 4.6141868729781326 2.0757941962588582 39.6678166096218234 V
atom 7.8328535510565827 0.9001467780697875 40.3821771548137747 O
atom 5.5279219341617116 5.9471313462919611 38.9522261893855486 O
atom 8.2951716866010514 3.5942180929169765 40.3846114022486731 O
atom 5.9878854825246535 3.2499293800376470 38.9511297543621353 O
