#===============================================================================
# Created using the Atomic Simulation Environment (ASE)

# Mon Mar 23 14:01:45 2026

#=======================================================
lattice_vector 18.4059850900857853 0.0000000000000000 0.0000000000000000 
lattice_vector -0.0015568314247998 9.2181866113943300 0.0000000000000000 
lattice_vector 0.0000000000000000 0.0000000000000000 41.2249635136912431 
atom 8.2783826530814437 3.6888086870226142 15.0001903505217946 O
atom 0.9245525516554387 0.9214233824380623 15.0032788038662979 O
atom 5.5246006015397695 0.9204970598517203 15.0034315580806528 O
atom 6.9029688401878424 6.9153328755638110 15.0035683158085860 V
atom 8.2779075418526844 8.2973851489535217 15.0037185180121533 O
atom 5.5247271742452488 5.5295425709422492 15.0008957530304308 O
atom 16.1046564800934924 2.3050381864248770 15.0007645474896236 V
atom 17.4818218550746813 3.6891901063268207 15.0001405679092592 O
atom 14.7277396135331085 0.9210421463774642 15.0030443314366799 O
atom 16.1042372305506412 6.9146388530263501 15.0000000000000000 V
atom 17.4825118006603333 8.2965666986837654 15.0033960993968840 O
atom 12.8817000007599862 8.2965043483766614 15.0031087203096192 O
atom 14.7255391154120741 5.5319798270342275 15.0005074711482358 O
atom 16.1061818790773081 2.3030464138118600 17.8106784321062896 V
atom 0.0009080030932461 0.0017234286175096 16.4070151209149344 V
atom 2.3021795708056474 2.3085007565526072 17.8073752420860316 V
atom -0.0006076182552670 4.6027309036702775 19.2081330431824213 V
atom 17.0305401532154121 1.3829022415290433 19.2106726834524046 O
atom 3.6768701636738115 3.6894036306867539 17.8047622720436216 O
atom 1.3800394112785990 3.2225586155752493 16.4054577016122458 O
atom 14.7288168840398370 0.9212402970218917 17.8080232085957419 O
atom 17.4853293512110461 3.6867487388352802 17.8108625217263956 O
atom 17.0287113779830506 1.3855989889311027 16.4047841116243482 O
atom 0.9220783319998231 0.9220040296508736 17.8085429665728974 O
atom 1.3750265183829093 3.2289501027952654 19.2115379570195586 O
atom 2.3015208627644266 2.3037477719043040 15.0063205710783976 V
atom 13.8060498172499493 0.0002241115459814 19.2108589038091857 V
atom 6.9030716053385941 2.3064224055976119 15.0037739849418372 V
atom 4.6004010013049195 4.6034589179703529 16.4041124008326555 V
atom 3.2254561308469016 1.3820883611189603 16.4067789972307772 O
atom 17.4818647106061924 3.6887987570366563 20.6090305852985054 O
atom 15.1845669521435536 3.2218091519468235 19.2093882229144910 O
atom 10.1280346091801885 0.9214134524521044 20.6121190386430158 O
atom 3.6798712318964619 3.6872357521151087 15.0072830441378109 O
atom 12.4274264215541113 1.3852684021208674 19.2099144403076707 O
atom 14.7280826590645102 0.9204871298657624 20.6122717928573742 O
atom 5.9765064721909997 3.2285936680534220 16.4063458624030609 O
atom 16.1058089184537323 6.9123573721878602 17.8103377670468852 V
atom 0.0004261980797878 4.6178473019367043 16.4073690053487056 V
atom 2.3018574037114736 6.9170287470270839 17.8072113994639842 V
atom 0.0013135016566456 0.0002348520321082 19.2086388309449063 V
atom 17.0266484088238919 5.9965170181797314 19.2100641431766235 O
atom 3.6764864572814453 8.2972266365598681 17.8082944537660168 O
atom 1.3767854838463007 7.8367343596128123 16.4051185581848031 O
atom 14.7288546731301508 5.5291225610607588 17.8116047939210809 O
atom 17.4840998575798601 8.2969112912434841 17.8086226674931147 O
atom 17.0314685285699525 5.9902481321733312 16.4048703828852069 O
atom 0.9220216588516068 5.5313831431237794 17.8054542151544091 O
atom 1.3779189622518098 7.8331951820055954 19.2113786027490256 O
atom 2.3007092578384118 6.9130868315140397 15.0056652745534507 V
atom 13.8058897241006786 4.6165385987120917 19.2112855933375499 V
atom 16.1064508977125875 6.9153229455778549 20.6124085505853003 V
atom 4.6022939294222365 0.0004779851765938 16.4045010778724247 V
atom 3.2211098458687775 5.9952918382009370 16.4060762147547479 O
atom 17.4813895993774260 8.2973752189675629 20.6125587527888641 O
atom 15.1810111736656168 7.8354375627612516 19.2094192643753168 O
atom 0.9241072124382125 5.5296623859665059 15.0062122884858518 O
atom 3.6782588660533220 8.2973773181443544 15.0047661207539242 O
atom 12.4300732662113536 5.9900048704036317 19.2103784627369976 O
atom 14.7282092317699984 5.5295326409562904 20.6097359878071487 O
atom 5.9804014833646555 7.8336978403357804 16.4065655778644270 O
atom 11.5034682005750373 2.3023210974050730 15.0051553023962256 V
atom 4.6028759460485853 0.0008704130732738 19.2120891435414336 V
atom 6.9021534475324611 2.3050282564389195 20.6096047822663380 V
atom 13.8044757695731715 4.6005600143888676 16.4046586372466265 V
atom 12.4281141763130361 1.3807465170250826 16.4061245644447737 O
atom 8.2793188225136412 3.6891801763408631 20.6089808026859771 O
atom 5.9814803646019898 3.2217576572294577 19.2106396731081723 O
atom 10.1277091056957076 0.9210137892630167 15.0037601680327732 O
atom 12.8824287745468293 3.6868863241478036 15.0057480019306482 O
atom 3.2247359018384980 1.3855541155530027 19.2091608696709706 O
atom 5.5252365809720771 0.9210322163915061 20.6118845662133978 O
atom 15.1796138685117459 3.2281152725936857 16.4071369937949285 O
atom 6.9023531230524400 2.3025887086145214 17.8089795970235194 V
atom 9.2029380071971403 9.2176782356593190 16.4070150091031692 V
atom 11.5044631573109690 2.3043264167075765 17.8059357035313113 V
atom 9.2031835183468420 4.6001373472073803 19.2098960106237087 V
atom 7.8276477851841735 1.3828937652028424 19.2119077226000670 O
atom 12.8811781297594639 3.6884452671682117 17.8053154488805561 O
atom 10.5835863169453344 3.2228868592576685 16.4059214838766856 O
atom 5.5270626496273190 0.9206699103714948 17.8082041375483477 O
atom 8.2806783736559293 3.6878326968751218 17.8115912622023274 O
atom 7.8247516540109139 1.3844830170198248 16.4051013527559597 O
atom 10.1275855156851868 0.9200431888665677 17.8072391021318914 O
atom 10.5784690331923912 3.2278386327205784 19.2105768138939759 O
atom 11.5031182744118059 6.9113770168533843 15.0046656570804124 V
atom 4.6028574153709911 4.6163941863019033 19.2126043302115015 V
atom 6.9017341979896081 6.9146289230403921 20.6088402347767179 V
atom 13.8038639364655804 9.2164873221554213 16.4048993646640291 V
atom 12.4249089783918070 5.9955823530783938 16.4059527286292344 O
atom 8.2800087680992807 8.2965567686978066 20.6122363341736019 O
atom 5.9785407269473225 7.8360991750011371 19.2099788506393665 O
atom 10.1275611457524466 5.5292956054328606 15.0070613994381041 O
atom 3.6791969681989376 8.2964944183907043 20.6119489550863371 O
atom 3.2274998636325738 5.9897324691792990 19.2090750675838393 O
atom 5.5230360828510419 5.5319698970482705 20.6093477059249501 O
atom 15.1826814760454702 7.8325767293381290 16.4070273010090446 O
atom 6.9024871267319527 6.9113152687882673 17.8087952027428358 V
atom 9.2045215862842760 4.6148538095774301 16.4072835889591140 V
atom 11.5037589866431116 6.9130466608362688 17.8055033806538923 V
atom 9.2032466457866278 9.2175194641127174 19.2101249327790065 V
atom 7.8242531794179930 5.9966531730598511 19.2117748105430195 O
atom 12.8819472289624830 8.2956475028174488 17.8088062791022175 O
atom 10.5797607999785921 7.8362241586524846 16.4055295712719875 O
atom 5.5275231401066867 5.5285850626876956 17.8117219336050496 O
atom 8.2806395033070554 8.2974059808387128 17.8090306101738989 O
atom 7.8285574098161632 5.9897654754593459 16.4053034940665512 O
atom 10.1257410854103220 5.5304713446499667 17.8051597752210746 O
atom 10.5816489215176155 7.8332369241186051 19.2108345288968039 O
atom 6.9036788465162697 2.3030364838259021 23.4195186668830040 V
atom 9.2043900606180014 0.0017134986315517 22.0158553556916488 V
atom 11.5056616283303939 2.3084908265666488 23.4162154768627460 V
atom 9.2028744392694772 4.6027209736843204 24.8169732779591428 V
atom 7.8280371206543684 1.3828923115430856 24.8195129182291225 O
atom 12.8803522211985655 3.6893937007007964 23.4136025068203395 O
atom 10.5835214688033439 3.2225486855892909 22.0142979363889602 O
atom 5.5263138514787924 0.9212303670359339 23.4168634433724563 O
atom 8.2828263186499989 3.6867388088493218 23.4197027565031100 O
atom 7.8262083454220148 1.3855890589451449 22.0136243464010626 O
atom 10.1255603895245603 0.9219940996649157 23.4173832013496082 O
atom 10.5785085759076463 3.2289401728093070 24.8203781917962729 O
atom 11.5050029202891722 2.3037378419183461 20.6151608058551119 V
atom 4.6035467846889011 0.0002141815600235 24.8196991385859036 V
atom 16.1065536628633375 2.3064124756116544 20.6126142197185551 V
atom 13.8038830588296602 4.6034489879843967 22.0129526356093699 V
atom 12.4289381883716477 1.3820784311330023 22.0156192320074915 O
atom 8.2793616780451451 3.6887888270506979 26.2178708200752233 O
atom 5.9820639195825160 3.2217992219608651 24.8182284576912124 O
atom 0.9255315766191442 0.9214035224661464 26.2209592734197336 O
atom 12.8833532894212119 3.6872258221291512 20.6161232789145288 O
atom 3.2249233889930755 1.3852584721349097 24.8187546750843921 O
atom 5.5255796265034709 0.9204771998798045 26.2211120276340885 O
atom 15.1799885297157413 3.2285837380674631 22.0151860971797753 O
atom 6.9033058858926895 6.9123474422019022 23.4191780018236031 V
atom 9.2039082556045244 4.6178373719507473 22.0162092401254199 V
atom 11.5053394612362272 6.9170188170411251 23.4160516342407021 V
atom 9.2047955591813828 0.0002249220461503 24.8174790657216242 V
atom 7.8241453762628561 5.9965070881937743 24.8189043779533414 O
atom 12.8799685148061904 8.2972167065739093 23.4171346885427347 O
atom 10.5802675413710539 7.8367244296268552 22.0139587929615175 O
atom 5.5263516405691018 5.5291126310748018 23.4204450286977917 O
atom 8.2815968250188146 8.2969013612575253 23.4174629022698291 O
atom 7.8289654960089141 5.9902382021873741 22.0137106176619213 O
atom 10.1255037163763610 5.5313732131378224 23.4142944499311234 O
atom 10.5814010197765551 7.8331852520196383 24.8202188375257435 O
atom 11.5041913153631565 6.9130769015280826 20.6145055093301650 V
atom 4.6033866915396393 4.6165286687261347 24.8201258281142678 V
atom 6.9039478651515447 6.9153130155918978 26.2212487853620182 V
atom 13.8057759869469816 0.0004680551906359 22.0133413126491426 V
atom 12.4245919033935230 5.9952819082149791 22.0149164495314622 O
atom 8.2788865668163876 8.2973652889816059 26.2213989875655855 O
atom 5.9785081411045784 7.8354276327752954 24.8182594991520311 O
atom 10.1275892699629608 5.5296524559805489 20.6150525232625661 O
atom 12.8817409235780662 8.2973673881583974 20.6136063555306386 O
atom 3.2275702336503183 5.9899949404176738 24.8192186975137119 O
atom 5.5257061992089538 5.5295227109703333 26.2185762225838701 O
atom 15.1838835408894059 7.8336879103498225 22.0154058126411449 O
atom 2.3009651680139886 2.3023111674191150 20.6139955371729435 V
atom 13.8063580035733313 0.0008604830873160 24.8209293783181550 V
atom 16.1056355050571973 2.3050183264529616 26.2184450170430559 V
atom 4.6019727370121357 4.6005500844029106 22.0134988720233444 V
atom 3.2256111437519830 1.3807365870391251 22.0149647992214916 O
atom 17.4828008800383934 3.6891702463549048 26.2178210374626914 O
atom 15.1849624221267430 3.2217477272435002 24.8194799078848867 O
atom 0.9252060731346561 0.9210038592770589 20.6126004028094840 O
atom 3.6799257419857896 3.6868763941618452 20.6145882367073625 O
atom 12.4282179593632431 1.3855441855670450 24.8180011044476885 O
atom 14.7287186384968134 0.9210222864055484 26.2207248009901157 O
atom 5.9771108359507004 3.2281053426077273 22.0159772285716464 O
atom 16.1058351805771771 2.3025787786285634 23.4178198318002337 V
atom 0.0004349746360910 9.2176683056733619 22.0158552438798907 V
atom 2.3019601247499262 2.3043164867216186 23.4147759383080256 V
atom 0.0006804857858024 4.6001274172214233 24.8187362454004266 V
atom 17.0311298427089106 1.3828838352168846 24.8207479573767813 O
atom 3.6786750971984321 3.6884353371822538 23.4141556836572704 O
atom 1.3810832843842988 3.2228769292717101 22.0147617186533964 O
atom 14.7305447071520508 0.9206599803855369 23.4170443723250621 O
atom 17.4841604311806798 3.6878227668891639 23.4204314969790452 O
atom 17.0282337115356590 1.3844730870338671 22.0139415875326776 O
atom 0.9250824831241458 0.9200332588806097 23.4160793369086022 O
atom 1.3759660006313592 3.2278287027346200 24.8194170486706938 O
atom 2.3006152418507630 6.9113670868674273 20.6135058918571268 V
atom 13.8063394728957363 4.6163842563159454 24.8214445649882229 V
atom 16.1052162555143354 6.9146189930544359 26.2176804695534322 V
atom 4.6013609039045402 9.2164773921694625 22.0137395994407470 V
atom 3.2224059458307623 5.9955724230924359 22.0147929634059487 O
atom 17.4834908256240453 8.2965468387118495 26.2210765689503198 O
atom 15.1820227844720677 7.8360892450151791 24.8188190854160844 O
atom 0.9250581131914069 5.5292856754469026 20.6159016342148220 O
atom 12.8826790257236912 8.2964844884047455 26.2207891898630585 O
atom 12.4309819211573274 5.9897225391933420 24.8179153023605501 O
atom 14.7265181403757879 5.5319599670623134 26.2181879407016680 O
atom 5.9801784434844407 7.8325667993521710 22.0158675357857589 O
atom 16.1059691842566970 6.9113053388023111 23.4176354375195501 V
atom 0.0020185537232392 4.6148438795914730 22.0161238237358283 V
atom 2.3012559540820763 6.9130367308503118 23.4143436154306066 V
atom 0.0007436132255877 9.2175095341267586 24.8189651675557243 V
atom 17.0277352369427284 5.9966432430738941 24.8206150453197338 O
atom 3.6794441964014477 8.2956375728314935 23.4176465138789318 O
atom 1.3772577674175486 7.8362142286665284 22.0143698060487090 O
atom 14.7310051976314327 5.5285751327017385 23.4205621683817675 O
atom 17.4841215608318059 8.2973960508527540 23.4178708449506168 O
atom 17.0320394673409119 5.9897555454733888 22.0141437288432726 O
atom 0.9232380528492942 5.5304614146640088 23.4140000099977925 O
atom 1.3791458889565793 7.8332269941326462 24.8196747636735147 O
atom 2.3024998877281324 2.3037279119323886 26.2240010406318298 V
atom 6.9040506303022999 2.3064025456256965 26.2214544544952730 V
atom 3.6808502568601718 3.6872158921431928 26.2249635136912431 O
atom 2.3016882828021177 6.9130669715421247 26.2233457441068829 V
atom 0.9250862374019179 5.5296425259945909 26.2238927580392875 O
atom 3.6792378910170274 8.2973574581724385 26.2224465903073565 O
atom 11.5044472255387422 2.3023012374331571 26.2228357719496579 V
atom 10.1286881306594090 0.9209939292911010 26.2214406375862019 O
atom 12.8834077995105432 3.6868664641758877 26.2234284714840733 O
atom 11.5040972993755162 6.9113571568814693 26.2223461266338447 V
atom 10.1285401707161533 5.5292757454609456 26.2247418689915435 O
