#===============================================================================
# Created using the Atomic Simulation Environment (ASE)

# Mon Mar 23 14:01:48 2026

#=======================================================
lattice_vector 13.0550062955565522 0.0000000000000000 0.0000000000000000 
lattice_vector -0.0000004316329117 5.5790402700022366 0.0000000000000000 
lattice_vector 0.0000000000000000 0.0000000000000000 35.8798518078648883 
atom 6.5274583866379423 2.7894533021035297 16.3075479011713647 V
atom 9.7911468329655484 4.1844794468827029 16.3077944252154587 V
atom 9.7910758749799598 0.0000295087640715 15.0000000000000000 O
atom 7.8348458232851685 4.1855920319107387 16.3077798059996759 O
atom 11.7472650272694406 4.1853455818641114 16.3077969401453018 O
atom 9.7911432268494600 1.3945319168716350 16.3078054945809683 V
atom 9.7909573702464421 2.7894536585296561 15.0002618377665797 O
atom 7.8349132389552816 1.3934924818853909 16.3078074198873573 O
atom 11.7471956037464516 1.3937168318858209 16.3077708706154247 O
atom 3.2637263452740299 0.0004559383995911 15.0004080649629614 O
atom 5.2201720366565825 4.1856115018165569 16.3078535168742320 O
atom 3.2638498197834598 2.7889646982610401 15.0005649889936059 O
atom 13.0548992591232444 0.0000434418727997 16.3078036086263047 V
atom 6.5274365435320423 0.0000498817982536 16.3078871463136572 V
atom 6.5272612126003704 4.1842695872085169 19.5716606277115162 V
atom 6.5272539862149772 0.0001923491192365 18.2638339942524190 O
atom 6.5271815079356275 0.0001856053834284 20.8793872092670298 O
atom 4.5716284045906166 4.1844726621987505 19.5716939085229669 O
atom 8.4827864054552968 4.1847872719793262 19.5718930992573732 O
atom 6.5272591126373056 1.3947289072052997 19.5716629505339270 V
atom 6.5272545581791075 2.7892494588492243 18.2641365754374725 O
atom 6.5271598566580069 2.7892418355844142 20.8791639787302117 O
atom 4.5717946381363994 1.3945143820565771 19.5718527423460884 O
atom 8.4826255391759364 1.3942448721264245 19.5717263162559405 O
atom 3.2637181534130977 5.5790056420401042 19.5718509795138473 V
atom 9.7910842333514498 0.0000287951142312 17.6154579679094425 O
atom 3.2636178363432791 2.7894893720467544 19.5718414510384520 V
atom 9.7910279265988898 2.7894550952442319 17.6153136578179819 O
atom 9.7910957263242615 5.5790142721339384 19.5717451890075154 V
atom 3.2636878789443831 4.1844461467083125 16.3079894170461017 V
atom 3.2637936625390958 0.0004463348885220 17.6157116715801862 O
atom 1.3073868339530026 4.1853650217542997 16.3079547653215542 O
atom 9.7911864624515577 2.7894996621487245 19.5717282151077470 V
atom 3.2636933521169058 1.3944882767130169 16.3079829643157268 V
atom 3.2638375319063542 2.7889561551429547 17.6154293548512157 O
atom 1.3074655634163213 1.3936822917658760 16.3079412684186771 O
atom 5.2200996078072706 1.3934585717852268 16.3078866104925950 O
atom 0.0000438347010978 4.1845505771045222 19.5717791255287779 V
atom 0.0000208612098006 0.0002967890824822 18.2638773193559025 O
atom 0.0001745642756619 0.0002941549709132 20.8798518078648883 O
atom 11.0994512490194897 4.1848663320066386 19.5719110337675843 O
atom 1.9557506134446487 4.1845557722384825 19.5716078814580570 O
atom 13.0548892175545266 2.7894394116624386 16.3080395311360391 V
atom 0.0000459915292365 1.3944600471030886 19.5717794962528799 V
atom 0.0000251798560916 2.7891262683995302 18.2646407642606974 O
atom 0.0001924066717931 2.7891261659090083 20.8788063180911010 O
atom 11.0995929395959472 1.3941596421581575 19.5717419036714162 O
atom 1.9556026016670851 1.3944250920938845 19.5717667356679144 O
