#===============================================================================
# Created using the Atomic Simulation Environment (ASE)

# Mon Mar 23 14:01:46 2026

#=======================================================
lattice_vector 10.7863573876396668 0.0000000000000000 0.0000000000000000 
lattice_vector 2.8859864345801114 10.3931385144755009 0.0000000000000000 
lattice_vector 0.0000000000000000 0.0000000000000000 36.3637400545058256 
atom 5.0154572226756775 3.8125607513189803 18.1818710791542699 V
atom 9.1547568968925468 6.9592802733438388 17.1215568009819137 V
atom 9.0847875536304326 6.9061025166088745 15.2114236169239376 O
atom 10.6676440378364834 8.1094059824155096 16.9107601773075586 O
atom 7.9714108237471430 8.5162618967611596 17.1214240483196782 O
atom 10.3385714749669066 5.4027899624639923 17.1213143002735286 O
atom 6.4580297723447844 4.9091085449742407 16.0611780481037840 V
atom 10.5975711510121684 8.0560424167552984 15.0010125803854137 V
atom 7.6419067820407331 5.8092917291182529 17.3325335390118980 O
atom 9.4142056697944909 9.6127978403596472 15.0012989681661537 O
atom 11.7806691889513075 6.4992068552461779 15.0014217071915681 O
atom 7.9013056256030394 10.1058605987373920 16.0614180532703941 V
atom 9.1547836286822282 2.8594757656446008 15.0008552725724797 V
atom 6.1989526852363230 0.6126824088272540 17.3321490322282230 O
atom 7.9714746242451691 4.4173249069489255 15.0000000000000000 O
atom 10.3389981295592648 1.3025445774350100 15.0001984806078283 O
atom 7.7117420768124783 1.7625485509535976 17.1217487129880936 V
atom 7.6418147925991828 1.7096266039270493 15.2118307679407323 O
atom 9.2244586281806349 2.9125887559880068 16.9108353520838364 O
atom 6.5273729740243569 3.3195026440419086 17.1225401304697158 O
atom 8.8950246932504164 0.2049916628090140 17.1223458360087193 O
atom 11.8513555497195817 4.9093460378102742 16.0613427604163554 V
atom 5.2047256794866090 8.0560864505481700 15.0010072736624345 V
atom 2.2493276910848219 5.8094847557901206 17.3320899861116118 O
atom 4.0213043375096182 9.6138502425376000 15.0002862420351590 O
atom 6.3892326453750909 6.4989178872170408 15.0000330893386185 O
atom 10.4085780380114361 3.8125010289553969 18.1818888801933980 V
atom 3.7616736697075179 6.9591398815944459 17.1218971902666546 V
atom 3.6917992744226553 6.9058281386140878 15.2123994280593067 O
atom 5.2742743688930434 8.1087660837972404 16.9112898093009463 O
atom 2.5774002462046983 8.5161639430911809 17.1224828008903103 O
atom 4.9450220733120700 5.4011884882819361 17.1226173588739030 O
atom 11.8515507788237198 9.0091212344210057 18.1818217000686531 V
atom 2.3189749724779816 1.7626485048628555 17.1214201839989428 V
atom 2.2488592889824024 1.7093792874433662 15.2113723712842379 O
atom 3.8321097248247642 2.9126981061848598 16.9109795100162899 O
atom 1.1357674001846292 3.3196927940370871 17.1212658518396346 O
atom 3.5023900396041978 0.2056264114418839 17.1213049770184682 O
atom 13.2944482646126101 10.1059560800102162 16.0615080206701641 V
atom 3.7615062220384661 2.8591901746001249 15.0012926848081705 V
atom 0.8061419569525550 0.6126880326800376 17.3329547597181808 O
atom 2.5779618133144271 4.4158031458708056 15.0014966252226714 O
atom 4.9449055586626116 1.3023447530563521 15.0013109666231443 O
atom 6.2691071443055577 4.7657456553591402 21.3626794966138398 V
atom 6.1991378010434524 4.7125678986241759 19.4525463125558602 O
atom 7.7819942852494988 5.9158713644308083 21.1518828729394812 O
atom 5.0857610711601637 6.3227272787764592 21.3625467439516044 O
atom 7.4529217223799265 3.2092553444792911 21.3624369959054583 O
atom 3.5723800197577993 2.7155739269895398 20.3023007437357066 V
atom 7.7119213984251793 5.8625077987705989 19.2421352760173399 V
atom 9.2244311472751974 7.0123706488446063 19.0315291468189827 O
atom 6.5285559172075063 7.4192632223749477 19.2424216637980763 O
atom 8.8950194363643238 4.3056722372614793 19.2425444028234978 O
atom 5.0156558730160556 7.9123259807526916 20.3025407489023237 V
atom 6.2691338760952426 0.6659411476599012 19.2419779682044023 V
atom 7.7818035650223321 1.8158800740634868 19.0314191263280641 O
atom 5.0858248716581889 2.2237902889642243 19.2411226956319297 O
atom 10.3393348115523942 9.5021484739258106 19.2413211762397509 O
atom 6.4584161433746479 9.0091704605256027 18.1819702722774146 V
atom 7.7120787588056103 9.9621524474443994 21.3628714086200198 V
atom 7.6421514745923051 9.9092305004178503 19.4529534635726584 O
atom 6.3388088755936458 0.7190541380033070 21.1519580477157660 O
atom 3.6417232214373771 1.1259680260572087 21.3636628261016455 O
atom 8.8953613752435388 8.4045955592998158 21.3634685316406490 O
atom 8.9657057971326068 2.7158114198255738 20.3024654560482816 V
atom 2.3190759268996253 5.8625518325634696 19.2421299692943535 V
atom 3.8321162345980437 7.0125609766326491 19.0312665492666682 O
atom 11.9220119725623093 7.4203156245528996 19.2414089376670852 O
atom 3.5035828927881121 4.3053832692323413 19.2411557849705446 O
atom 11.6623813047602045 4.7656052636097428 21.3630198858985878 V
atom 11.5925069094753379 4.7122935206293883 19.4535221236912292 O
atom 2.3886246163060592 5.9152314658125400 21.1524125049328759 O
atom 10.4781078812573867 6.3226293251064813 21.3636054965222399 O
atom 2.0593723207250805 3.2076538702972348 21.3637400545058256 O
atom 13.1056690421107813 9.9622524013536573 21.3625428796308725 V
atom 13.0355533586151964 9.9089831839341667 19.4524950669161640 O
atom 0.9464599722377849 0.7191634882001601 21.1521022056482195 O
atom 9.0364750352373022 1.1261581760523878 21.3623885474715607 O
atom 3.5027267215973152 8.4052303079326851 21.3624276726503908 O
atom 10.4087985120256210 7.9124214620255167 20.3026307163020903 V
atom 0.8758564694514872 0.6656555566154266 19.2424153804400930 V
atom 2.3883071390326283 1.8151649055620429 19.0313847045777251 O
atom 10.4786694483671088 2.2222685278861061 19.2426193208545975 O
atom 4.9452422406557330 9.5019486495471526 19.2424336622550669 O
