#===============================================================================
# Created using the Atomic Simulation Environment (ASE)

# Mon Mar 23 14:01:40 2026

#=======================================================
lattice_vector 15.1536015195045284 0.0000000000000000 0.0000000000000000 
lattice_vector -0.0000014388224574 3.7155747600000235 0.0000000000000000 
lattice_vector 0.0000000000000000 0.0000000000000000 32.0983390920989464 
atom 12.3618155183836294 1.8577852143015621 16.8426263153110867 V
atom 0.0361676040672832 1.8577854125129840 15.2324641039809627 V
atom 10.2050832327761469 3.7155728444546474 15.8122373570768460 V
atom 3.3299085666997410 1.8577853216656244 16.6226928904496773 V
atom 12.2037369817919270 3.7155726614573203 16.3756630960450380 O
atom 14.2172782957442880 1.8577851988391803 17.0983390920989464 O
atom 10.5844992987310889 1.8577854501816069 15.9379291969374250 O
atom 14.8103841118882027 3.7155728067898508 15.1067421072300903 O
atom 6.3730061572259729 3.7155726431024063 16.0446621080995584 O
atom 3.8683014556254065 1.8577855538702723 15.0000000000000000 O
atom 3.4879881936766308 3.7155726445107016 17.0896496064158896 O
atom 1.4744337889744998 1.8577853471274870 16.3669839943511164 O
