#===============================================================================
# Created using the Atomic Simulation Environment (ASE)

# Mon Mar 23 14:01:42 2026

#=======================================================
lattice_vector 10.7779019647855687 0.0000000000000000 0.0000000000000000 
lattice_vector -0.0013379047791915 9.2181866457684922 0.0000000000000000 
lattice_vector 0.0000000000000000 0.0000000000000000 62.5650986981700399 
atom 10.2739565560767581 2.3033816959011166 15.7199444870219818 V
atom 2.1866229683681291 4.6030683754841437 15.7165532230923990 V
atom 1.0139444428254740 1.3833017177737907 16.4344727600904541 O
atom 9.0964144831297702 0.9216372976964716 16.4345818836326245 O
atom 0.6738327753071156 3.6870220355635968 15.0022691650469824 O
atom 3.3630797031803308 3.2292260010953604 15.0036989310915203 O
atom 7.8043688284379718 2.3044917732382220 20.5092142535688176 V
atom 9.0384830129100884 0.0007685509401123 18.1127840637143862 V
atom 0.9545046592318626 2.3069593707296634 18.1123838751913588 V
atom 10.4948433215878776 4.6042051486788012 20.5062751085285058 V
atom 9.3221390248416274 1.3828966106877729 21.2243591617863387 O
atom 2.1270461086446568 3.6892835546739575 17.3934878107683168 O
atom 10.2148600994655592 3.2222915022305609 17.3938621964935933 O
atom 6.6269643348365639 0.9222290553324236 21.2233151827057398 O
atom 8.9818714214619870 3.6879178627105880 19.7926184426562060 O
atom 7.8607540981174528 1.3858747351925598 18.8292940131444588 O
atom 10.5551236939003115 0.9210959679862505 18.8295721495952613 O
atom 0.8931909491157517 3.2292782155857895 19.7921753003642280 O
atom 10.2734565475677027 6.9126926275074094 15.7194425670984206 V
atom 2.1885309072397612 0.0005722934698935 15.7163898809124358 V
atom 1.0103002625275461 5.9969166055780736 16.4355728991191299 O
atom 9.0983063703404756 5.5295198127545140 16.4372156282235586 O
atom 0.6716130124955944 8.2971844562552839 15.0005911532122127 O
atom 3.3654624528658132 7.8334709204670556 15.0016529590141694 O
atom 7.8033305173086012 6.9138308020315362 20.5086719319182720 V
atom 9.0385641028135293 4.6170830596990466 18.1128260121948550 V
atom 0.9543056289424823 6.9158698119783937 18.1118566561614749 V
atom 10.4966662426891446 0.0012241779327265 20.5060264766646760 V
atom 9.3180576591333129 5.9961002122388436 21.2256154052904868 O
atom 2.1284722198726502 8.2978602866420506 17.3963427939893087 O
atom 10.2118356471927765 7.8359200574040653 17.3953336496226854 O
atom 6.6281063952634094 5.5304682826447751 21.2256468896969821 O
atom 8.9791805285603132 8.2980592933068635 19.7909030847768221 O
atom 7.8632515313009108 5.9906111017582360 18.8279081229211371 O
atom 10.5539078929430001 5.5301412640550600 18.8269358177340109 O
atom 0.8966270803657618 7.8343822115909658 19.7899312106806029 O
atom 4.8836009981815520 2.3026513749153112 15.7195088340214095 V
atom 7.5767828217010829 4.6008925549191089 15.7169241905784496 V
atom 6.4022439229948649 1.3811410494062915 16.4347200949440868 O
atom 3.7080859901603294 0.9214058083443224 16.4343864905575359 O
atom 6.0614322264059899 3.6871546555572512 15.0022796191413033 O
atom 8.7523337958960123 3.2283861919196162 15.0035367129198676 O
atom 2.4137253549192144 2.3033375827808880 20.5081834459888981 V
atom 3.6499907707598291 0.0000311338278750 18.1131793566197068 V
atom 6.3419819428747743 2.3048681919734868 18.1106374320906625 V
atom 5.1074912554528460 4.6008885990901423 20.5068977230391702 V
atom 3.9339416014742428 1.3837070130265241 21.2247296797544749 O
atom 7.5172643805069397 3.6889251056626340 17.3935411040127477 O
atom 4.8270545723537577 3.2233642823724198 17.3942805022414966 O
atom 1.2389329933545095 0.9214805518502772 21.2233464384917241 O
atom 3.5920647397214140 3.6885198059885793 19.7930088330504290 O
atom 2.4708012744418153 1.3850843973930171 18.8294444363401752 O
atom 5.1669161080710060 0.9206469598144784 18.8284017792519869 O
atom 6.2822326610532846 3.2285281210030790 19.7918985476747658 O
atom 4.8830431299254577 6.9117072553070287 15.7188677318956245 V
atom 7.5763813864763963 9.2168198905404104 15.7170424623602205 V
atom 6.3994132601673916 5.9959769987318161 16.4358357579158429 O
atom 3.7096733652106537 5.5296878627062993 16.4368774639395667 O
atom 6.0594321767738055 8.2967724953952047 15.0000000000000000 O
atom 8.7548919653280333 7.8328474847017473 15.0014419733371511 O
atom 2.4137395782634274 6.9120641052017904 20.5075511952369993 V
atom 3.6501491283563778 4.6153933203961568 18.1129891432456631 V
atom 6.3411514086378853 6.9135884173000433 18.1102296578272259 V
atom 5.1089979434999719 0.0000840668443796 20.5066545354688721 V
atom 3.9309694562064981 5.9974665456138627 21.2259772433606102 O
atom 7.5197335206372644 8.2961275526059062 17.3957168354962590 O
atom 4.8235796787755039 7.8367017063067745 17.3955311838044473 O
atom 1.2411526382789611 5.5293959313667242 21.2257057345768274 O
atom 3.5906947324854110 8.2980928804885377 19.7904373343082192 O
atom 2.4741520428300183 5.9903666822394035 18.8272317727018681 O
atom 5.1642547761197335 5.5310750236468955 18.8271808359749890 O
atom 6.2850779082992601 7.8339262711383029 19.7900590320254679 O
atom 5.3345923886274056 2.3042090615004018 25.2984533365469062 V
atom 6.5687522481442500 0.0026766476937538 22.9027429505827307 V
atom 9.2626053711667176 2.3094562914618240 22.9007517995300702 V
atom 8.0251607657043440 4.6038957410834298 25.2950620726173270 V
atom 6.8524822401616881 1.3841290833730759 26.0129816096153803 O
atom 10.4351221377459176 3.6902971693251203 22.1830076225164134 O
atom 7.7456087377235274 3.2234497113805212 22.1834274125132538 O
atom 4.1570503156804168 0.9224646632957569 26.0130907331575543 O
atom 6.5123705726433307 3.6878494011628828 24.5807780145719086 O
atom 5.3907309740747378 1.3866139846628927 23.6179245422912061 O
atom 8.0847162344481234 0.9230216949067928 23.6200780521572469 O
atom 9.2016175005165444 3.2300533666946456 24.5822077806164465 O
atom 2.8650046609886162 2.3053191388375076 30.0877231030937438 V
atom 4.0991188454607359 0.0015959165393977 27.6912929132393089 V
atom 6.7930424565680774 2.3077867363289490 27.6908927247162850 V
atom 5.5554791541385233 4.6050325142780864 30.0847839580534284 V
atom 4.3827748573922740 1.3837239762870583 30.8028680113112614 O
atom 7.9655839059808713 3.6901109202732432 26.9719966602932431 O
atom 5.2754959320162058 3.2231188678298461 26.9723710460185231 O
atom 1.6876001673872110 0.9230564209317089 30.8018240322306625 O
atom 4.0425072540126319 3.6887452283098736 29.3711272921811357 O
atom 2.9213899306680995 1.3867021007918452 28.4078028626693850 O
atom 5.6157595264509590 0.9219233335855358 28.4080809991201875 O
atom 6.7317287464519655 3.2301055811850747 29.3706841498891578 O
atom 5.3340923801183493 6.9135199931066955 25.2979514166233486 V
atom 6.5685207336436102 4.6188005515687900 22.9028901654338313 V
atom 9.2622407557905184 6.9179842662417732 22.9003745078515273 V
atom 8.0270687045759743 0.0013996590691789 25.2948987304373638 V
atom 6.8488380598637608 5.9977439711773597 26.0140817486440596 O
atom 10.4366283912356010 8.2981204414327951 22.1858185325501935 O
atom 7.7426493971352146 7.8376255582465673 22.1844256248640725 O
atom 4.1589422028911232 5.5303471783537992 26.0157244777484848 O
atom 6.5101508098318090 8.2980118218545709 24.5791000027371425 O
atom 5.3931260175311007 5.9912629926985375 23.6161586864942947 O
atom 8.0830562012930383 5.5324005598298083 23.6170648796764127 O
atom 9.2040002502020286 7.8342982860663408 24.5801618085390956 O
atom 2.8639663498592474 6.9146581676308214 30.0871807814431946 V
atom 4.0991999353641759 4.6179104252983336 27.6913348617197812 V
atom 6.7928434262786972 6.9166971775776789 27.6903655056864046 V
atom 5.5573020752397913 0.0020515435320118 30.0845353261896022 V
atom 4.3786934916839595 5.9969275778381306 30.8041242548154131 O
atom 7.9670100172088656 8.2986876522413358 26.9748516435142349 O
atom 5.2724714797434222 7.8367474230033514 26.9738424991476116 O
atom 1.6887422278140547 5.5312956482440603 30.8041557392219048 O
atom 4.0398163611109599 8.2988866589061487 29.3694119343017519 O
atom 2.9238873638515557 5.9914384673575221 28.4064169724460633 O
atom 5.6145437254936459 5.5309686296543443 28.4054446672589407 O
atom 6.7351648777019761 7.8352095771902519 29.3684400602055291 O
atom 10.7221387955177647 2.3034787405145969 25.2980176835463375 V
atom 1.1803353269400838 0.0018286363351317 22.9031833222795811 V
atom 3.8710054024225355 2.3059886703356440 22.8998011525556890 V
atom 2.6374186542517282 4.6017199205183941 25.2954330401033758 V
atom 1.4628797555455111 1.3819684150055769 26.0132289444690130 O
atom 5.0466705099637670 3.6900786329386288 22.1824672504587994 O
atom 2.3567979854944809 3.2226537890621603 22.1842342058773454 O
atom 9.5466237874965429 0.9222331739436078 26.0128953400824585 O
atom 1.1220680589566352 3.6879820211565360 24.5807884686662277 O
atom 0.0019867780915658 1.3865740609298565 23.6177477480990916 O
atom 2.6964141850906076 0.9220547014785447 23.6184196436275400 O
atom 3.8129696284466590 3.2292135575189014 24.5820455624447938 O
atom 8.2522631522554306 2.3041649483801732 30.0866922955138207 V
atom 9.4885285680960436 0.0008584994271604 27.6916882061446330 V
atom 1.4026177754254212 2.3056955575727729 27.6891462816155922 V
atom 0.1681270880034932 4.6017159646894275 30.0854065725640965 V
atom 9.7724793988104572 1.3845343786258095 30.8032385292794046 O
atom 2.5779002130575868 3.6897524712619196 26.9720499535376703 O
atom 10.6655923696899730 3.2241916479717050 26.9727893517664228 O
atom 7.0774707906907235 0.9223079174495626 30.8018552880166538 O
atom 9.4306025370576272 3.6893471715878645 29.3715176825753517 O
atom 8.3093390717780302 1.3859117629923028 28.4079532858651014 O
atom 0.2275519406216524 0.9214743254137638 28.4069106287769131 O
atom 1.3428684936039297 3.2293554866023646 29.3704073971996920 O
atom 10.7215809272616731 6.9125346209063130 25.2973765814205507 V
atom 1.1805833548853313 4.6173524314804526 22.9032272404922352 V
atom 3.8702452773385301 6.9155892802312486 22.8989613336964375 V
atom 2.6370172190270420 9.2176472561396974 25.2955513118851485 V
atom 1.4600490927180374 5.9968043643311013 26.0143446074407692 O
atom 5.0489496090599522 8.2974554223748846 22.1844832316641174 O
atom 2.3539396211756505 7.8369953712377081 22.1847941580302361 O
atom 9.5482111625468686 5.5305152283055845 26.0153863134644894 O
atom 1.1200680093244515 8.2975998609944899 24.5785088495249262 O
atom 0.0042980909273930 5.9907522660485455 23.6158314519861960 O
atom 2.6932106974647594 5.5329922716305067 23.6169932563577731 O
atom 3.8155277978786790 7.8336748503010316 24.5799508228620738 O
atom 8.2522773755996432 6.9128914708010765 30.0860600447619220 V
atom 9.4886869256925905 4.6162206859954429 27.6914979927705858 V
atom 1.4017872411885315 6.9144157828993285 27.6887385073521557 V
atom 0.1696337760506167 0.0009114324436649 30.0851633849937983 V
atom 9.7695072535427130 5.9982939112131497 30.8044860928855400 O
atom 2.5803693531879102 8.2969549182051914 26.9742256850211817 O
atom 10.6621174761117175 7.8375290719060597 26.9740400333293735 O
atom 7.0796904356151753 5.5302232969660086 30.8042145841017572 O
atom 9.4292325298216255 8.2989202460878229 29.3689461838331454 O
atom 8.3126898401662341 5.9911940478386905 28.4057406222267979 O
atom 0.2248906086703801 5.5319023892461807 28.4056896854999152 O
atom 1.3457137408499049 7.8347536367375890 29.3685678815503906 O
atom 0.3952282211780508 2.3050364270996870 34.8769621860718289 V
atom 1.6293880806948928 0.0035040132930392 32.4812518001076569 V
atom 4.3232412037173633 2.3102836570611096 32.4792606490549929 V
atom 3.0857965982549902 4.6047231066827150 34.8735709221422567 V
atom 1.9131180727123351 1.3849564489723614 35.5914904591403030 O
atom 5.4957579702965651 3.6911245349244055 31.7615164720413361 O
atom 2.8062445702741741 3.2242770769798064 31.7619362620381835 O
atom 9.9955881130166322 0.9232920288950424 35.5915995826824840 O
atom 1.5730064051939763 3.6886767667621680 34.1592868640968348 O
atom 0.4513668066253831 1.3874413502621781 33.1964333918161358 O
atom 3.1453520669987696 0.9238490605060782 33.1985869016821695 O
atom 4.2622533330671928 3.2308807322939308 34.1607166301413727 O
atom 8.7035424583248329 2.3061465044367928 39.6662319526186664 V
atom 9.9376566427969504 0.0024232821386831 37.2698017627642315 V
atom 1.8536782891187229 2.3086141019282347 37.2694015742412148 V
atom 0.6161149866891710 4.6058598798773707 39.6632928075783582 V
atom 10.2213126547284894 1.3845513418863435 40.3813768608361841 O
atom 3.0262197385315170 3.6909382858725279 36.5505055098181728 O
atom 0.3361317645668521 3.2239462334291313 36.5508798955434457 O
atom 7.5261379647234268 0.9238837865309941 40.3803328817555922 O
atom 9.8810450513488437 3.6895725939091584 38.9496361417060584 O
atom 8.7599277280043104 1.3875294663911306 37.9863117121943148 O
atom 0.6763953590016039 0.9227506991848212 37.9865898486451172 O
atom 1.7923645790026110 3.2309329467843599 38.9491929994140733 O
atom 0.3947282126689952 6.9143473587059798 34.8764602661482712 V
atom 1.6291565661942564 4.6196279171680752 32.4813990149587539 V
atom 4.3228765883411642 6.9188116318410584 32.4788833573764535 V
atom 3.0877045371266219 0.0022270246684642 34.8734075799622829 V
atom 1.9094738924144075 5.9985713367766458 35.5925905981689823 O
atom 5.4972642237862477 8.2989478070320821 31.7643273820751162 O
atom 2.8032852296858595 7.8384529238458533 31.7629344743889988 O
atom 9.9974800002273376 5.5311745439530844 35.5942333272734075 O
atom 1.5707866423824561 8.2988391874538561 34.1576088522620651 O
atom 0.4537618500817461 5.9920903582978218 33.1946675360192174 O
atom 3.1436920338436836 5.5332279254290926 33.1955737292013424 O
atom 4.2646360827526735 7.8351256516656269 34.1586706580640183 O
atom 8.7025041471954605 6.9154855332301075 39.6656896309681244 V
atom 9.9377377327003895 4.6187377908976179 37.2698437112447039 V
atom 1.8534792588293429 6.9175245431769641 37.2688743552113309 V
atom 0.6179379077904378 0.0028789091312972 39.6630441757145249 V
atom 10.2172312890201731 5.9977549434374158 40.3826331043403357 O
atom 3.0276458497595109 8.2995150178406210 36.5533604930391576 O
atom 0.3331073122940681 7.8375747886026375 36.5523513486725378 O
atom 7.5272800251502714 5.5321230138433464 40.3826645887468345 O
atom 9.8783541584471752 8.2997140245054339 38.9479207838266746 O
atom 8.7624251611877728 5.9922658329568073 37.9849258219709895 O
atom 0.6751795580442953 5.5317959952536304 37.9839535167838633 O
atom 1.7958007102526210 7.8360369427895362 38.9469489097304589 O
atom 5.7827746280684114 2.3043061061138821 34.8765265330712637 V
atom 7.0188731242762987 0.0026560019344170 32.4816921718045037 V
atom 9.7095431997587500 2.3068160359349297 32.4783100020806117 V
atom 8.4759564515879422 4.6025472861176784 34.8739418896282984 V
atom 7.3014175528817269 1.3827957806048621 35.5917377939939428 O
atom 0.1073063425144128 3.6909059985379140 31.7609760999837292 O
atom 8.1953357828306963 3.2234811546614459 31.7627430554022681 O
atom 4.6072596200471896 0.9230605395428931 35.5914041896073812 O
atom 6.9606058562928492 3.6888093867558216 34.1592973181911574 O
atom 5.8405245754277813 1.3874014265291419 33.1962565976240143 O
atom 8.5349519824268238 0.9228820670778302 33.1969284931524626 O
atom 9.6515074257828743 3.2300409231181866 34.1605544119697200 O
atom 3.3128989848060759 2.3049923139794588 39.6652011450387505 V
atom 4.5491644006466903 0.0016858650264478 37.2701970556695557 V
atom 7.2411555727616355 2.3065229231720576 37.2676551311405149 V
atom 6.0066648853397071 4.6025433302887127 39.6639154220890191 V
atom 4.8331152313611048 1.3853617442250949 40.3817473788043273 O
atom 8.4164380103938026 3.6905798368612048 36.5505588030626001 O
atom 5.7262282022406197 3.2250190135709902 36.5512982012913525 O
atom 2.1381066232413688 0.9231352830488481 40.3803641375415765 O
atom 4.4912383696082747 3.6901745371871497 38.9500265321002814 O
atom 3.3699749043286760 1.3867391285915878 37.9864621353900276 O
atom 6.0660897379578671 0.9223016910130492 37.9854194783018357 O
atom 7.1814062909401439 3.2301828522016502 38.9489162467246217 O
atom 5.7822167598123198 6.9133619865055991 34.8758854309454733 V
atom 7.0191211522215449 4.6181797970797387 32.4817360900171579 V
atom 9.7087830746747450 6.9164166458305338 32.4774701832213637 V
atom 8.4768929211424489 0.0002879759704904 34.8740601614100711 V
atom 7.2985868900542519 5.9976317299303874 35.5928534569656989 O
atom 0.1095854416105986 8.2982827879741698 31.7629920811890401 O
atom 8.1924774185118654 7.8378227368369942 31.7633030075551588 O
atom 4.6088469950975153 5.5313425939048697 35.5938951629894120 O
atom 6.9586058066606657 8.2984272265937751 34.1570176990498524 O
atom 5.8428358882636067 5.9915796316478307 33.1943403015111187 O
atom 8.5317484948009739 5.5338196372297928 33.1955021058827029 O
atom 9.6540655952148953 7.8345022159003177 34.1584596723870035 O
atom 3.3129132081502881 6.9137188364003617 39.6645688942868517 V
atom 4.5493227582432390 4.6170480515947272 37.2700068422955155 V
atom 7.2403250385247464 6.9152431484986137 37.2672473568770783 V
atom 6.0081715733868322 0.0017387980429503 39.6636722345187209 V
atom 4.8301430860933596 5.9991212768124340 40.3829949424104626 O
atom 8.4189071505241255 8.2977822838044766 36.5527345345461114 O
atom 5.7227533086623650 7.8383564375053458 36.5525488828542962 O
atom 2.1403262681658224 5.5310506625652947 40.3827234336266798 O
atom 4.4898683623722713 8.2997476116871081 38.9474550333580680 O
atom 3.3733256727168803 5.9920214134379757 37.9842494717517241 O
atom 6.0634284060065964 5.5327297548454650 37.9841985350248379 O
atom 7.1842515381861194 7.8355810023368742 38.9470767310753203 O
atom 6.2337660185142676 2.3058637926989727 44.4554710355967586 V
atom 7.4679258780311093 0.0043313788923245 42.0597606496325795 V
atom 10.1617790010535813 2.3111110226603953 42.0577694985799226 V
atom 8.9243343955912025 4.6055504722820002 44.4520797716671723 V
atom 7.7516558700485509 1.3857838145716468 45.1699993086652327 O
atom 0.5563938028472120 3.6919519005236907 41.3400253215662588 O
atom 8.6447823676103894 3.2251044425790920 41.3404451115630991 O
atom 5.0562239455672779 0.9241193944943277 45.1701084322074067 O
atom 7.4115442025301919 3.6895041323614528 43.7377957136217574 O
atom 6.2899046039615989 1.3882687158614637 42.7749422413410514 O
atom 8.9838898643349854 0.9246764261053635 42.7770957512070993 O
atom 10.1007911304034064 3.2317080978932164 43.7392254796662954 O
atom 4.9982924753475952 0.0032506477379684 46.8483106122891684 V
atom 7.6922160864549394 2.3094414675275203 46.8479104237661375 V
atom 8.8647575358677333 3.6917656514718136 46.1290143593430955 O
atom 6.1746695619030652 3.2247735990284170 46.1293887450683684 O
atom 3.8205635605549602 1.3883568319904158 47.5648205617192374 O
atom 6.5149331563378201 0.9235780647841066 47.5650986981700399 O
atom 6.2332660100052095 6.9151747243052650 44.4549691156732010 V
atom 7.4676943635304713 4.6204552827673604 42.0599078644836837 V
atom 10.1614143856773804 6.9196389974403436 42.0573922069013832 V
atom 8.9262423344628363 0.0030543902677496 44.4519164294872127 V
atom 7.7480116897506210 5.9993987023759301 45.1710994476939049 O
atom 0.5579000563368921 8.2997751726313673 41.3428362316000459 O
atom 8.6418230270220739 7.8392802894451377 41.3414433239139214 O
atom 5.0581158327779843 5.5320019095523696 45.1727421767983444 O
atom 7.4093244397186711 8.2996665530531413 43.7361177017869878 O
atom 6.2922996474179627 5.9929177238971070 42.7731763855441400 O
atom 8.9822298311799003 5.5340552910283778 42.7740825787262651 O
atom 10.1031738800888871 7.8359530172649112 43.7371795075889409 O
atom 4.9983735652510362 4.6195651564969040 46.8483525607696336 V
atom 7.6920170561655556 6.9183519087762502 46.8473832047362535 V
atom 8.8661836470957276 8.3003423834399062 46.1318693425640944 O
atom 6.1716451096302825 7.8384021542019227 46.1308601981974675 O
atom 3.8230609937384199 5.9930931985560933 47.5634346714959193 O
atom 6.5137173553805061 5.5326233608529165 47.5624623663087860 O
atom 0.8434104606190569 2.3051334717131673 44.4550353825961864 V
atom 2.0795089568269458 0.0034833675337024 42.0602010213294264 V
atom 4.7701790323093958 2.3076434015342153 42.0568188516055343 V
atom 3.5365922841385902 4.6033746517169645 44.4524507391532282 V
atom 2.3620533854323735 1.3836231462041477 45.1702466435188654 O
atom 5.9458441398506290 3.6917333641371992 41.3394849495086518 O
atom 3.2559716153813412 3.2243085202607311 41.3412519049271907 O
atom 10.4457974173834049 0.9238879051421786 45.1699130391323109 O
atom 2.0212416888434959 3.6896367523551072 43.7378061677160801 O
atom 0.9011604079784267 1.3882287921284271 42.7747654471489440 O
atom 3.5955878149774683 0.9237094326771156 42.7754373426773924 O
atom 4.7121432583335201 3.2308682887174722 43.7390632614946497 O
atom 10.3877021979829056 0.0025132306257331 46.8487059051944925 V
atom 2.3017914053122830 2.3073502887713428 46.8461639806654446 V
atom 3.4770738429444483 3.6914072024604900 46.1290676525875227 O
atom 0.7868640347912633 3.2258463791702758 46.1298070508162752 O
atom 9.2085127016648922 1.3875664941908734 47.5649709849149502 O
atom 1.1267255705085140 0.9231290566123346 47.5639283278267584 O
atom 0.8428525923629637 6.9141893521048843 44.4543942804704031 V
atom 2.0797569847721915 4.6190071626790230 42.0602449395420876 V
atom 4.7694189072253907 6.9172440114298208 42.0559790327462864 V
atom 3.5375287536930946 0.0011153415697758 44.4525690109350009 V
atom 2.3592227226048994 5.9984590955296726 45.1713623064906216 O
atom 5.9481232389468142 8.2991101535734551 41.3415009307139627 O
atom 3.2531132510625107 7.8386501024362785 41.3418118570800885 O
atom 10.4473847924337271 5.5321699595041549 45.1724040125143418 O
atom 2.0192416392113124 8.2992545921930603 43.7355265485747822 O
atom 0.9034717208142534 5.9924069972471150 42.7728491510360413 O
atom 3.5923843273516201 5.5346470028290771 42.7740109554076255 O
atom 4.7147014277655401 7.8353295814996029 43.7369685219119262 O
atom 10.3878605555794543 4.6178754171940142 46.8485156918204382 V
atom 2.3009608710753930 6.9160705140978997 46.8457562064020010 V
atom 3.4795429830747717 8.2986096494037636 46.1312433840710341 O
atom 0.7833891412130117 7.8391838031046301 46.1310577323792188 O
atom 9.2118634700530961 5.9928487790372609 47.5627583212766467 O
atom 1.1240642385572406 5.5335571204447511 47.5627073845497677 O
