#===============================================================================
# Created using the Atomic Simulation Environment (ASE)

# Mon Mar 23 14:01:48 2026

#=======================================================
lattice_vector 10.7863573876396668 0.0000000000000000 0.0000000000000000 
lattice_vector 0.0003366819931270 9.2315018159967526 0.0000000000000000 
lattice_vector 0.0000000000000000 0.0000000000000000 40.9829460783801807 
atom 5.0151205406825499 0.0002245734418991 18.1040411469190268 V
atom 9.1544202148994209 2.3080755741730279 15.7165877175904356 V
atom 10.6673073558433593 3.2327962827729957 15.0009649298687933 O
atom 7.9710741417540092 3.6909566936553322 15.0011636456849153 O
atom 10.3382347929737755 0.9254584499385689 16.4314527639055221 O
atom 6.4580297723447790 9.2314163875592499 15.7166249914037834 V
atom 7.7115847164320499 2.3081333808308511 18.1040053447397860 V
atom 7.6415701000476020 1.3835594459897129 16.4323074704048899 O
atom 9.2240944652820680 3.2327081295163071 17.3886725202940902 O
atom 6.5282192352143769 3.6910061460037502 17.3890574821074253 O
atom 9.1547836286822282 6.9237598072558395 15.7164643822539496 V
atom 10.6674533176093167 7.8484238531238635 15.0011386084770564 O
atom 7.9714746242451637 8.3070795344032735 15.0000000000000000 O
atom 10.3389981295592612 5.5405607539238746 16.4311639940189060 O
atom 6.4580794613815167 4.6160024565725637 15.7167106265968748 V
atom 7.6418147925991802 5.9993669104922658 16.4321189964090522 O
atom 9.2244586281806349 7.8484160025460872 17.3885456644842158 O
atom 6.5273729740243569 8.3071061189333797 17.3896423007810093 O
atom 1.0646614800867940 0.0002011893158818 15.7166621835605831 V
atom 2.3187392449064919 2.3081700545165718 18.1039804012637084 V
atom 2.2489910090916903 1.3835271197195897 16.4318248178552615 O
atom 3.8317795526049134 3.2327565402778946 17.3883518358081197 O
atom 1.1353179029295057 3.6914756454748834 17.3876744655467341 O
atom 10.4082413560183049 0.0001797049749568 18.1040843957153079 V
atom 3.7613369877143885 2.3081072565570366 15.7169545567036799 V
atom 5.2739376868999130 3.2324712348018187 15.0017293408227381 O
atom 2.5770635642115685 3.6913560997688601 15.0021490525469581 O
atom 4.9446853913189370 0.9246346378773100 16.4333459133870754 O
atom 1.0648567091909276 4.6158904761444353 15.7166012771830310 V
atom 2.3189749724779780 6.9237627203385310 18.1038951317331147 V
atom 2.2488592889824024 5.9989366431591815 16.4318254611303090 O
atom 3.8321097248247642 7.8485793583910324 17.3886234709297263 O
atom 1.1357674001846165 8.3066895867749242 17.3884231026803242 O
atom 3.7615062220384612 6.9237070948705028 15.7169841063279065 V
atom 5.2739568916196164 7.8477728122187687 15.0014365960309100 O
atom 2.5779618133144271 8.3064154531964327 15.0020284575388061 O
atom 4.9449055586626063 5.5408943625821045 16.4322439292853595 O
atom 2.1294707880955639 0.0003336259784721 22.8788412294155741 V
atom 6.2687704623124301 2.3081846267096013 20.4913878000869865 V
atom 6.1988011190503256 1.3834005655587838 18.8192002822253492 O
atom 7.7816576032563747 3.2329053353095683 19.7757650123653406 O
atom 5.0854243891670254 3.6910657461919056 19.7759637281814626 O
atom 7.4525850403867917 0.9255675024751417 21.2062528464020730 O
atom 3.5720433377646685 0.0000236240990725 20.4914250739003307 V
atom 4.8259349638450635 2.3082424333674241 22.8788054272363404 V
atom 4.7559203474606182 1.3836684985262862 21.2071075529014372 O
atom 6.3384447126950798 3.2328171820528802 22.1634726027906375 O
atom 3.6425694826273953 3.6911151985403237 22.1638575646039762 O
atom 8.8946827543711944 0.9255089678404176 18.8196077941256306 O
atom 5.0153191910229289 4.6159926321592328 18.1041542299192599 V
atom 6.2691338760952409 6.9238688597924121 20.4912644647505005 V
atom 6.1989526852363186 5.9991526459251210 18.8193843907724307 O
atom 7.7818035650223321 7.8485329056604369 19.7759386909736072 O
atom 5.0858248716581747 8.3071885869398479 19.7748000824965473 O
atom 7.4533483769722810 5.5406698064604480 21.2059640765154533 O
atom 3.5724297087945374 4.6161115091091363 20.4915107090934256 V
atom 7.7117420768124774 6.9238248715788879 18.1042328584036802 V
atom 4.7561650400121955 5.9994759630288392 21.2069190789056030 O
atom 6.3388088755936494 7.8485250550826589 22.1633457469807631 O
atom 3.6417232214373683 8.3072151714699540 22.1644423832775566 O
atom 8.8950246932504147 5.5406461308332409 18.8203336805731674 O
atom 8.9653691151394685 0.0003102418524547 20.4914622660571304 V
atom 10.2194468799591771 2.3082791070531457 22.8787804837602593 V
atom 10.1496986441443742 1.3836361722561630 21.2066249003518088 O
atom 0.9461298000179273 3.2328655928144676 22.1631519183046670 O
atom 9.0360255379821908 3.6915846980114568 22.1624745480432814 O
atom 3.5032462107949742 0.9246143439499602 18.8185071533313568 O
atom 7.5225916034313158 0.0002887575115295 22.8788844782118552 V
atom 0.8756872351274049 2.3082163090936096 20.4917546392002272 V
atom 0.8058128398425380 1.3836051632413016 18.8201930714498324 O
atom 2.3882879343129262 3.2325802873383913 19.7765294233192925 O
atom 10.4777711992642502 3.6914651523054332 19.7769491350435089 O
atom 2.0590356387319533 0.9247436904138829 21.2081459958836298 O
atom 8.9655643442436084 4.6159995286810105 20.4914013596795819 V
atom 10.2196826075306628 6.9238717728751045 22.8786952142296691 V
atom 10.1495669240350832 5.9990456956957541 21.2066255436268598 O
atom 0.9464599722377828 7.8486884109276058 22.1634235534262736 O
atom 9.0364750352372969 8.3067986393114985 22.1632231851768715 O
atom 3.5023900396041969 5.5407317373458778 18.8191175536104254 O
atom 10.4084618300324969 4.6161187732163382 18.1041902748938632 V
atom 0.8758564694514778 6.9238161474070754 20.4917841888244574 V
atom 0.8061419569525445 5.9995278072562224 18.8200974702851376 O
atom 2.3883071390326305 7.8478818647553421 19.7762366785274573 O
atom 10.4786694483671052 8.3065245057330053 19.7768285400353570 O
atom 2.0592558060756203 5.5410034151186780 21.2070440117819103 O
atom 3.3831207097254534 2.3082936792461743 25.2661878825835338 V
atom 3.3131513664633347 1.3835096180953561 23.5940003647219001 O
atom 4.8960078506693927 3.2330143878461417 24.5505650948618914 O
atom 2.1997746365800386 3.6911747987284782 24.5507638106780099 O
atom 4.5669352877998151 0.9256765550117149 25.9810529288986203 O
atom 0.6863935851776820 0.0001326766356452 25.2662251563968780 V
atom 1.8702705948736271 1.3837775510628587 25.9819076353979881 O
atom 6.0090330017842097 0.9256180203769906 23.5944078766221814 O
atom 2.1296694384359429 4.6161016846958063 22.8789543124158108 V
atom 3.3834841235082593 6.9239779123289846 25.2660645472470513 V
atom 3.3133029326493322 5.9992616984616944 23.5941844732689852 O
atom 4.8961538124353456 7.8486419581970095 24.5507387734701545 O
atom 2.2001751190711984 8.3072976394764186 24.5496001649930982 O
atom 4.5676986243852946 5.5407788589970224 25.9807641590120042 O
atom 0.6867799562075511 4.6162205616457088 25.2663107915899765 V
atom 4.8260923242254927 6.9239339241154605 22.8790329409002275 V
atom 1.8705152874252098 5.9995850155654118 25.9817191614021503 O
atom 6.0093749406634291 5.5407551833698134 23.5951337630697147 O
atom 6.0797193625524883 0.0004192943890277 25.2662623485536812 V
atom 7.2640488915573869 1.3837452247927355 25.9814249828483632 O
atom 0.6175964582079879 0.9247233964865332 23.5933072358279041 O
atom 8.7763948701800896 2.3083253616301826 25.2665547216967781 V
atom 8.7065204748952230 1.3837142157778743 23.5949931539463797 O
atom 10.2889955693656123 3.2326893398749639 24.5513295058158398 O
atom 7.5921214466772735 3.6915742048420062 24.5517492175400598 O
atom 9.9597432737846354 0.9248527429504559 25.9829460783801771 O
atom 6.0799145916566220 4.6161085812175831 25.2662014421761256 V
atom 7.2639171714480986 5.9991547482323266 25.9814256261234071 O
atom 0.6167402870172107 5.5408407898824512 23.5939176361069727 O
atom 7.5228120774455096 4.6162278257529108 22.8789903573904105 V
atom 8.7765641045041587 6.9239251999436480 25.2665842713210047 V
atom 8.7068495920052342 5.9996368597927958 23.5948975527816920 O
atom 10.2890147740853166 7.8479909172919147 24.5510367610240081 O
atom 7.5930196957801241 8.3066335582695778 24.5516286225319043 O
atom 9.9599634411283056 5.5411124676552515 25.9818440942784612 O
