#===============================================================================
# Created using the Atomic Simulation Environment (ASE)

# Mon Mar 23 14:01:39 2026

#=======================================================
lattice_vector 11.9275710066048966 0.0000000000000000 0.0000000000000000 
lattice_vector 1.9216468690445472 7.1858371422673297 0.0000000000000000 
lattice_vector 0.0000000000000000 0.0000000000000000 32.9788628633742462 
atom 7.7557072356029684 2.3595057085495492 15.0000000000000000 V
atom 10.1449826824338381 3.2633438842893141 16.6244532770855038 V
atom 5.8246901041032988 0.1174349570806536 16.3544182305194994 V
atom 2.2501940995936875 0.0607025098352449 16.3886897127824049 V
atom 1.7919138736829603 3.3201185142172931 16.5901562424806990 V
atom 4.1812194788581305 2.3027661944701201 15.0342757629676633 V
atom 10.3022193246494318 4.8294967277747505 15.6783519936793674 O
atom 8.0896860973624491 3.0097301405576844 16.7776595681310461 O
atom 7.8799929906896660 0.3710534874666735 16.2012090362087626 O
atom 5.9561373757940128 1.9149010728607296 15.2685823365399393 O
atom 9.7472264381269422 2.2692826836779738 15.0545029238518389 O
atom 4.3384535269466333 5.7901228763910844 17.2685001874674811 O
atom 1.6253310379980248 4.7765435856986862 15.7103407563830295 O
atom 2.1259201628371298 2.0491494470087299 15.1874838685439322 O
atom 4.0497754869724849 0.5052994668217258 16.1201120382553320 O
atom 11.9199352044122797 2.8755263192747567 16.8587310636586984 O
atom 0.2587062320687443 0.1509413452885991 16.3341772378761867 O
atom 3.7834551939228431 3.2299199009071340 16.6446444311734929 O
atom 8.2139981054542375 1.0212874229288027 17.9788628633742498 V
atom 11.7885110716357229 1.0780567658018165 17.9445690343229565 V
atom 7.5890945308056521 5.7371504854190860 17.3005006367004732 O
atom 10.0135383890519396 1.4658724181716400 17.7102924031641003 O
atom 6.2224624892784925 1.1115305372104942 17.9243478153425819 O
atom 1.9162756445057085 1.3316844352653221 17.7913543308468363 O
