#===============================================================================
# Created using the Atomic Simulation Environment (ASE)

# Mon Mar 23 14:01:45 2026

#=======================================================
lattice_vector 18.4059850900857853 0.0000000000000000 0.0000000000000000 
lattice_vector -0.0015568314247998 9.2181866113943300 0.0000000000000000 
lattice_vector 0.0000000000000000 0.0000000000000000 44.0290414764243394 
atom 6.9026998215525683 2.3030563437978175 15.0059161600626645 V
atom 11.5046826033666871 2.3085106865385647 15.0026129700424065 V
atom 9.2018954143057723 4.6027408336562354 16.4033707711387997 V
atom 7.8270580956906670 1.3829121715150010 16.4059104114087795 O
atom 12.8793731962348552 3.6894135606727114 15.0000000000000000 O
atom 5.5253348265150910 0.9212502270078496 15.0032609365521168 O
atom 8.2818472936863028 3.6867586688212377 15.0061002496827705 O
atom 10.1245813645608624 0.9220139596368315 15.0037806945292687 O
atom 10.5775295509439360 3.2289600327812225 16.4067756849759334 O
atom 4.6025677597251997 0.0002340415319393 16.4060966317655605 V
atom 8.2783826530814437 3.6888086870226142 17.8042683132548873 O
atom 5.9810848946188111 3.2218190819327810 16.4046259508708729 O
atom 0.9245525516554387 0.9214233824380623 17.8073567665993906 O
atom 3.2239443640293661 1.3852783321068252 16.4051521682640526 O
atom 5.5246006015397695 0.9204970598517203 17.8075095208137455 O
atom 6.9023268609289836 6.9123673021738181 15.0055754950032636 V
atom 11.5043604362725258 6.9170386770130410 15.0024491274203591 V
atom 9.2038165342176814 0.0002447820180661 16.4038765589012847 V
atom 7.8231663512991432 5.9965269481656902 16.4053018711330019 O
atom 12.8789894898424926 8.2972365665458252 15.0035321817223988 O
atom 5.5253726156054004 5.5291324910467159 15.0068425218774522 O
atom 8.2806178000551132 8.2969212212294412 15.0038603954494860 O
atom 10.1245246914126579 5.5313930731097392 15.0006919431107839 O
atom 10.5804219948128502 7.8332051119915524 16.4066163307053969 O
atom 4.6024076665759370 4.6165485286980505 16.4065233212939283 V
atom 6.9029688401878424 6.9153328755638110 17.8076462785416787 V
atom 8.2779075418526844 8.2973851489535217 17.8077964807452460 O
atom 5.9775291161408690 7.8354474927472095 16.4046569923316916 O
atom 3.2265912086866089 5.9900148003895906 16.4056161906933724 O
atom 5.5247271742452488 5.5295425709422492 17.8049737157635235 O
atom 13.8053789786096299 0.0008803430592317 16.4073268714978084 V
atom 16.1046564800934924 2.3050381864248770 17.8048425102227164 V
atom 17.4818218550746813 3.6891901063268207 17.8042185306423519 O
atom 15.1839833971630291 3.2217675872154152 16.4058774010645436 O
atom 12.4272389343995453 1.3855640455389606 16.4043985976273490 O
atom 14.7277396135331085 0.9210421463774642 17.8071222941697727 O
atom 16.1048561556134757 2.3025986386004793 15.0042173249798907 V
atom 2.3009810997862208 2.3043363466935340 15.0011734314876861 V
atom -0.0002985391779031 4.6001472771933392 16.4051337385800835 V
atom 17.0301508177452128 1.3829036951888005 16.4071454505564418 O
atom 3.6776960722347223 3.6884551971541697 15.0005531768369309 O
atom 14.7295656821883565 0.9206798403574529 15.0034418655047226 O
atom 17.4831814062169677 3.6878426268610789 15.0068289901587057 O
atom 0.9241034581604403 0.9200531188525255 15.0024768300882627 O
atom 1.3749869756676496 3.2278485627065354 16.4058145418503543 O
atom 13.8053604479320260 4.6164041162878613 16.4078420581678799 V
atom 16.1042372305506412 6.9146388530263501 17.8040779627330927 V
atom 17.4825118006603333 8.2965666986837654 17.8074740621299767 O
atom 15.1810437595083663 7.8361091049870950 16.4052165785957413 O
atom 12.8817000007599862 8.2965043483766614 17.8071866830427119 O
atom 12.4300028961936260 5.9897423991652579 16.4043127955402106 O
atom 14.7255391154120741 5.5319798270342275 17.8045854338813285 O
atom 16.1049901592929956 6.9113251987742261 15.0040329306992106 V
atom 2.3002769291183705 6.9130565908222268 15.0007411086102671 V
atom -0.0002354117381178 9.2175293940986744 16.4053626607353813 V
atom 17.0267562119790270 5.9966631030458108 16.4070125384993943 O
atom 3.6784651714377343 8.2956574328034076 15.0040440070585923 O
atom 14.7300261726677260 5.5285949926736535 15.0069596615614245 O
atom 17.4831425358680974 8.2974159108246717 15.0042683381302737 O
atom 0.9222590278855805 5.5304812746359255 15.0003975031774495 O
atom 1.3781668639928697 7.8332468541045621 16.4060722568531752 O
atom 16.1061818790773081 2.3030464138118600 20.6147563948393824 V
atom 0.0009080030932461 0.0017234286175096 19.2110930836480271 V
atom 2.3021795708056474 2.3085007565526072 20.6114532048191244 V
atom -0.0006076182552670 4.6027309036702775 22.0122110059155141 V
atom 17.0305401532154121 1.3829022415290433 22.0147506461854974 O
atom 3.6768701636738115 3.6894036306867539 20.6088402347767143 O
atom 1.3800394112785990 3.2225586155752493 19.2095356643453385 O
atom 14.7288168840398370 0.9212402970218917 20.6121011713288347 O
atom 17.4853293512110461 3.6867487388352802 20.6149404844594883 O
atom 17.0287113779830506 1.3855989889311027 19.2088620743574410 O
atom 0.9220783319998231 0.9220040296508736 20.6126209293059901 O
atom 1.3750265183829093 3.2289501027952654 22.0156159197526513 O
atom 2.3015208627644266 2.3037477719043040 17.8103985338114903 V
atom 13.8060498172499493 0.0002241115459814 22.0149368665422784 V
atom 6.9030716053385941 2.3064224055976119 17.8078519476749300 V
atom 4.6004010013049195 4.6034589179703529 19.2081903635657483 V
atom 3.2254561308469016 1.3820883611189603 19.2108569599638699 O
atom 17.4818647106061924 3.6887987570366563 23.4131085480315981 O
atom 15.1845669521435536 3.2218091519468235 22.0134661856475837 O
atom 10.1280346091801885 0.9214134524521044 23.4161970013761085 O
atom 3.6798712318964619 3.6872357521151087 17.8113610068709036 O
atom 12.4274264215541113 1.3852684021208674 22.0139924030407634 O
atom 14.7280826590645102 0.9204871298657624 23.4163497555904669 O
atom 5.9765064721909997 3.2285936680534220 19.2104238251361537 O
atom 16.1058089184537323 6.9123573721878602 20.6144157297799779 V
atom 0.0004261980797878 4.6178473019367043 19.2114469680817983 V
atom 2.3018574037114736 6.9170287470270839 20.6112893621970770 V
atom 0.0013135016566456 0.0002348520321082 22.0127167936779990 V
atom 17.0266484088238919 5.9965170181797314 22.0141421059097162 O
atom 3.6764864572814453 8.2972266365598681 20.6123724164991096 O
atom 1.3767854838463007 7.8367343596128123 19.2091965209178959 O
atom 14.7288546731301508 5.5291225610607588 20.6156827566541736 O
atom 17.4840998575798601 8.2969112912434841 20.6127006302262075 O
atom 17.0314685285699525 5.9902481321733312 19.2089483456182997 O
atom 0.9220216588516068 5.5313831431237794 20.6095321778875018 O
atom 1.3779189622518098 7.8331951820055954 22.0154565654821184 O
atom 2.3007092578384118 6.9130868315140397 17.8097432372865434 V
atom 13.8058897241006786 4.6165385987120917 22.0153635560706427 V
atom 16.1064508977125875 6.9153229455778549 23.4164865133183930 V
atom 4.6022939294222365 0.0004779851765938 19.2085790406055175 V
atom 3.2211098458687775 5.9952918382009370 19.2101541774878406 O
atom 17.4813895993774260 8.2973752189675629 23.4166367155219568 O
atom 15.1810111736656168 7.8354375627612516 22.0134972271084095 O
atom 0.9241072124382125 5.5296623859665059 17.8102902512189445 O
atom 3.6782588660533220 8.2973773181443544 17.8088440834870170 O
atom 12.4300732662113536 5.9900048704036317 22.0144564254700903 O
atom 14.7282092317699984 5.5295326409562904 23.4138139505402414 O
atom 5.9804014833646555 7.8336978403357804 19.2106435405975198 O
atom 11.5034682005750373 2.3023210974050730 17.8092332651293184 V
atom 4.6028759460485853 0.0008704130732738 22.0161671062745263 V
atom 6.9021534475324611 2.3050282564389195 23.4136827449994307 V
atom 13.8044757695731715 4.6005600143888676 19.2087365999797193 V
atom 12.4281141763130361 1.3807465170250826 19.2102025271778665 O
atom 8.2793188225136412 3.6891801763408631 23.4130587654190698 O
atom 5.9814803646019898 3.2217576572294577 22.0147176358412651 O
atom 10.1277091056957076 0.9210137892630167 17.8078381307658660 O
atom 12.8824287745468293 3.6868863241478036 17.8098259646637409 O
atom 3.2247359018384980 1.3855541155530027 22.0132388324040633 O
atom 5.5252365809720771 0.9210322163915061 23.4159625289464906 O
atom 15.1796138685117459 3.2281152725936857 19.2112149565280212 O
atom 6.9023531230524400 2.3025887086145214 20.6130575597566121 V
atom 9.2029380071971403 9.2176782356593190 19.2110929718362620 V
atom 11.5044631573109690 2.3043264167075765 20.6100136662644040 V
atom 9.2031835183468420 4.6001373472073803 22.0139739733568014 V
atom 7.8276477851841735 1.3828937652028424 22.0159856853331597 O
atom 12.8811781297594639 3.6884452671682117 20.6093934116136488 O
atom 10.5835863169453344 3.2228868592576685 19.2099994466097783 O
atom 5.5270626496273190 0.9206699103714948 20.6122821002814405 O
atom 8.2806783736559293 3.6878326968751218 20.6156692249354201 O
atom 7.8247516540109139 1.3844830170198248 19.2091793154890524 O
atom 10.1275855156851868 0.9200431888665677 20.6113170648649842 O
atom 10.5784690331923912 3.2278386327205784 22.0146547766270686 O
atom 11.5031182744118059 6.9113770168533843 17.8087436198135052 V
atom 4.6028574153709911 4.6163941863019033 22.0166822929445942 V
atom 6.9017341979896081 6.9146289230403921 23.4129181975098106 V
atom 13.8038639364655804 9.2164873221554213 19.2089773273971218 V
atom 12.4249089783918070 5.9955823530783938 19.2100306913623271 O
atom 8.2800087680992807 8.2965567686978066 23.4163142969066946 O
atom 5.9785407269473225 7.8360991750011371 22.0140568133724592 O
atom 10.1275611457524466 5.5292956054328606 17.8111393621711969 O
atom 3.6791969681989376 8.2964944183907043 23.4160269178194298 O
atom 3.2274998636325738 5.9897324691792990 22.0131530303169320 O
atom 5.5230360828510419 5.5319698970482705 23.4134256686580429 O
atom 15.1826814760454702 7.8325767293381290 19.2111052637421373 O
atom 6.9024871267319527 6.9113152687882673 20.6128731654759285 V
atom 9.2045215862842760 4.6148538095774301 19.2113615516922067 V
atom 11.5037589866431116 6.9130466608362688 20.6095813433869850 V
atom 9.2032466457866278 9.2175194641127174 22.0142028955120992 V
atom 7.8242531794179930 5.9966531730598511 22.0158527732761122 O
atom 12.8819472289624830 8.2956475028174488 20.6128842418353102 O
atom 10.5797607999785921 7.8362241586524846 19.2096075340050803 O
atom 5.5275231401066867 5.5285850626876956 20.6157998963381424 O
atom 8.2806395033070554 8.2974059808387128 20.6131085729069916 O
atom 7.8285574098161632 5.9897654754593459 19.2093814567996439 O
atom 10.1257410854103220 5.5304713446499667 20.6092377379541674 O
atom 10.5816489215176155 7.8332369241186051 22.0149124916298966 O
atom 6.9036788465162697 2.3030364838259021 26.2235966296160967 V
atom 9.2043900606180014 0.0017134986315517 24.8199333184247415 V
atom 11.5056616283303939 2.3084908265666488 26.2202934395958387 V
atom 9.2028744392694772 4.6027209736843204 27.6210512406922355 V
atom 7.8280371206543684 1.3828923115430856 27.6235908809622153 O
atom 12.8803522211985655 3.6893937007007964 26.2176804695534322 O
atom 10.5835214688033439 3.2225486855892909 24.8183758991220529 O
atom 5.5263138514787924 0.9212303670359339 26.2209414061055490 O
atom 8.2828263186499989 3.6867388088493218 26.2237807192362027 O
atom 7.8262083454220148 1.3855890589451449 24.8177023091341553 O
atom 10.1255603895245603 0.9219940996649157 26.2214611640827009 O
atom 10.5785085759076463 3.2289401728093070 27.6244561545293656 O
atom 11.5050029202891722 2.3037378419183461 23.4192387685882046 V
atom 4.6035467846889011 0.0002141815600235 27.6237771013189963 V
atom 16.1065536628633375 2.3064124756116544 23.4166921824516479 V
atom 13.8038830588296602 4.6034489879843967 24.8170305983424626 V
atom 12.4289381883716477 1.3820784311330023 24.8196971947405842 O
atom 8.2793616780451451 3.6887888270506979 29.0219487828083160 O
atom 5.9820639195825160 3.2217992219608651 27.6223064204243052 O
atom 0.9255315766191442 0.9214035224661464 29.0250372361528264 O
atom 12.8833532894212119 3.6872258221291512 23.4202012416476215 O
atom 3.2249233889930755 1.3852584721349097 27.6228326378174849 O
atom 5.5255796265034709 0.9204771998798045 29.0251899903671813 O
atom 15.1799885297157413 3.2285837380674631 24.8192640599128680 O
atom 6.9033058858926895 6.9123474422019022 26.2232559645566958 V
atom 9.2039082556045244 4.6178373719507473 24.8202872028585126 V
atom 11.5053394612362272 6.9170188170411251 26.2201295969737949 V
atom 9.2047955591813828 0.0002249220461503 27.6215570284547169 V
atom 7.8241453762628561 5.9965070881937743 27.6229823406864341 O
atom 12.8799685148061904 8.2972167065739093 26.2212126512758275 O
atom 10.5802675413710539 7.8367244296268552 24.8180367556946102 O
atom 5.5263516405691018 5.5291126310748018 26.2245229914308844 O
atom 8.2815968250188146 8.2969013612575253 26.2215408650029218 O
atom 7.8289654960089141 5.9902382021873741 24.8177885803950140 O
atom 10.1255037163763610 5.5313732131378224 26.2183724126642161 O
atom 10.5814010197765551 7.8331852520196383 27.6242968002588363 O
atom 11.5041913153631565 6.9130769015280826 23.4185834720632577 V
atom 4.6033866915396393 4.6165286687261347 27.6242037908473606 V
atom 6.9039478651515447 6.9153130155918978 29.0253267480951109 V
atom 13.8057759869469816 0.0004680551906359 24.8174192753822354 V
atom 12.4245919033935230 5.9952819082149791 24.8189944122645549 O
atom 8.2788865668163876 8.2973652889816059 29.0254769502986782 O
atom 5.9785081411045784 7.8354276327752954 27.6223374618851238 O
atom 10.1275892699629608 5.5296524559805489 23.4191304859956588 O
atom 12.8817409235780662 8.2973673881583974 23.4176843182637313 O
atom 3.2275702336503183 5.9899949404176738 27.6232966602468046 O
atom 5.5257061992089538 5.5295227109703333 29.0226541853169628 O
atom 15.1838835408894059 7.8336879103498225 24.8194837753742377 O
atom 2.3009651680139886 2.3023111674191150 23.4180734999060363 V
atom 13.8063580035733313 0.0008604830873160 27.6250073410512478 V
atom 16.1056355050571973 2.3050183264529616 29.0225229797761486 V
atom 4.6019727370121357 4.6005500844029106 24.8175768347564372 V
atom 3.2256111437519830 1.3807365870391251 24.8190427619545844 O
atom 17.4828008800383934 3.6891702463549048 29.0218990001957842 O
atom 15.1849624221267430 3.2217477272435002 27.6235578706179794 O
atom 0.9252060731346561 0.9210038592770589 23.4166783655425768 O
atom 3.6799257419857896 3.6868763941618452 23.4186661994404552 O
atom 12.4282179593632431 1.3855441855670450 27.6220790671807812 O
atom 14.7287186384968134 0.9210222864055484 29.0248027637232084 O
atom 5.9771108359507004 3.2281053426077273 24.8200551913047391 O
atom 16.1058351805771771 2.3025787786285634 26.2218977945333265 V
atom 0.0004349746360910 9.2176683056733619 24.8199332066129834 V
atom 2.3019601247499262 2.3043164867216186 26.2188539010411183 V
atom 0.0006804857858024 4.6001274172214233 27.6228142081335193 V
atom 17.0311298427089106 1.3828838352168846 27.6248259201098740 O
atom 3.6786750971984321 3.6884353371822538 26.2182336463903631 O
atom 1.3810832843842988 3.2228769292717101 24.8188396813864891 O
atom 14.7305447071520508 0.9206599803855369 26.2211223350581548 O
atom 17.4841604311806798 3.6878227668891639 26.2245094597121380 O
atom 17.0282337115356590 1.3844730870338671 24.8180195502657703 O
atom 0.9250824831241458 0.9200332588806097 26.2201572996416949 O
atom 1.3759660006313592 3.2278287027346200 27.6234950114037865 O
atom 2.3006152418507630 6.9113670868674273 23.4175838545902195 V
atom 13.8063394728957363 4.6163842563159454 27.6255225277213157 V
atom 16.1052162555143354 6.9146189930544359 29.0217584322865250 V
atom 4.6013609039045402 9.2164773921694625 24.8178175621738397 V
atom 3.2224059458307623 5.9955724230924359 24.8188709261390414 O
atom 17.4834908256240453 8.2965468387118495 29.0251545316834125 O
atom 15.1820227844720677 7.8360892450151791 27.6228970481491771 O
atom 0.9250581131914069 5.5292856754469026 23.4199795969479148 O
atom 12.8826790257236912 8.2964844884047455 29.0248671525961512 O
atom 12.4309819211573274 5.9897225391933420 27.6219932650936428 O
atom 14.7265181403757879 5.5319599670623134 29.0222659034347608 O
atom 5.9801784434844407 7.8325667993521710 24.8199454985188517 O
atom 16.1059691842566970 6.9113053388023111 26.2217134002526429 V
atom 0.0020185537232392 4.6148438795914730 24.8202017864689211 V
atom 2.3012559540820763 6.9130367308503118 26.2184215781636993 V
atom 0.0007436132255877 9.2175095341267586 27.6230431302888171 V
atom 17.0277352369427284 5.9966432430738941 27.6246930080528266 O
atom 3.6794441964014477 8.2956375728314935 26.2217244766120245 O
atom 1.3772577674175486 7.8362142286665284 24.8184477687818017 O
atom 14.7310051976314327 5.5285751327017385 26.2246401311148603 O
atom 17.4841215608318059 8.2973960508527540 26.2219488076837095 O
atom 17.0320394673409119 5.9897555454733888 24.8182216915763654 O
atom 0.9232380528492942 5.5304614146640088 26.2180779727308853 O
atom 1.3791458889565793 7.8332269941326462 27.6237527264066074 O
atom 2.3024998877281324 2.3037279119323886 29.0280790033649225 V
atom 6.9040506303022999 2.3064025456256965 29.0255324172283657 V
atom 3.6808502568601718 3.6872158921431928 29.0290414764243359 O
atom 2.3016882828021177 6.9130669715421247 29.0274237068399756 V
atom 0.9250862374019179 5.5296425259945909 29.0279707207723803 O
atom 3.6792378910170274 8.2973574581724385 29.0265245530404492 O
atom 11.5044472255387422 2.3023012374331571 29.0269137346827506 V
atom 10.1286881306594090 0.9209939292911010 29.0255186003192946 O
atom 12.8834077995105432 3.6868664641758877 29.0275064342171660 O
atom 11.5040972993755162 6.9113571568814693 29.0264240893669374 V
atom 10.1285401707161533 5.5292757454609456 29.0288198317246362 O
