#===============================================================================
# Created using the Atomic Simulation Environment (ASE)

# Mon Mar 23 14:01:40 2026

#=======================================================
lattice_vector 15.1536015195045284 0.0000000000000000 0.0000000000000000 
lattice_vector -0.0000014388224574 3.7155747600000235 0.0000000000000000 
lattice_vector 0.0000000000000000 0.0000000000000000 37.9932329583048229 
atom 2.1321962867518223 3.7155736346709496 15.2557038050793139 V
atom 0.2766971630716071 3.7155736601321037 15.0000000000000000 O
atom 11.0060991267583574 1.8577861644643550 15.0086619318961283 O
atom 1.4609384360376518 1.8577858163060692 17.8962570247379738 V
atom 13.0330733690977993 3.7155730326664425 20.0969669618582998 V
atom 4.2888920412258340 1.8577860145174907 16.2860948134078569 V
atom 14.4578076699346951 3.7155734464591545 16.8658680665037366 V
atom 11.1640923852781366 3.7155734773118554 15.4755967207075606 V
atom 7.5826330038582919 1.8577859236701311 17.6763235998765644 V
atom 9.7393622687157393 3.7155730735178114 18.7067065147752203 V
atom 4.7546867305150586 1.8577857354574963 19.2864958326511839 V
atom 0.9225393626062203 1.8577855841027207 19.5189392327493323 O
atom 13.5714454220353886 3.7155732648738593 18.4742510992645990 O
atom 2.2902463235904693 1.8577861875151596 15.7226665157430503 O
atom 1.3028598994459570 3.7155732634618266 17.4292938054719357 O
atom 3.3164012133983025 1.8577858008436874 18.1519698015258406 O
atom 11.1775742454175919 3.7155730581275965 19.8412631567789823 O
atom 14.8372237358896299 1.8577860521861138 16.9915599063643157 O
atom 3.9095070295422185 3.7155734087943579 16.1603728166569809 O
atom 10.6257305943845175 3.7155732451069134 17.0982928175264490 O
atom 8.1210258927839494 1.8577861558747795 16.0536307094268906 O
atom 7.7407126308351746 3.7155732465152087 18.1432803158427802 O
atom 6.7533746895998039 1.8577855624598480 19.8499250886751142 O
atom 13.0195983981210315 3.7155734718491322 15.7313134145702804 O
atom 5.7271582261330369 1.8577859491319937 17.4206147037780106 O
atom 5.1340933404712876 3.7155731011845727 19.4121867028804012 O
atom 9.3599755340394548 1.8577857077957549 18.5809755291742960 O
atom 12.3618155183836294 1.8577852143015621 22.7375201815169632 V
atom 0.0361676040672832 1.8577854125129840 21.1273579701868393 V
atom 10.2050832327761469 3.7155728444546474 21.7071312232827225 V
atom 6.9113679481195911 3.7155728753073478 20.3168598774865430 V
atom 3.3299085666997410 1.8577853216656244 22.5175867566555539 V
atom 13.1911234059364588 1.8577855855106529 20.5639296725220326 O
atom 12.2037369817919270 3.7155726614573203 22.2705569622509145 O
atom 14.2172782957442880 1.8577851988391803 22.9932329583048229 O
atom 10.5844992987310889 1.8577854501816069 21.8328230631433016 O
atom 14.8103841118882027 3.7155728067898508 21.0016359734359668 O
atom 6.3730061572259729 3.7155726431024063 21.9395559743054349 O
atom 3.8683014556254065 1.8577855538702723 20.8948938662058765 O
atom 3.4879881936766308 3.7155726445107016 22.9845434726217661 O
atom 8.7668739609624886 3.7155728698446246 20.5725765713492663 O
atom 1.4744337889744998 1.8577853471274870 22.2618778605569929 O
