#===============================================================================
# Created using the Atomic Simulation Environment (ASE)

# Mon Mar 23 14:01:40 2026

#=======================================================
lattice_vector 15.1536015195045284 0.0000000000000000 0.0000000000000000 
lattice_vector -0.0000014388224574 3.7155747600000235 0.0000000000000000 
lattice_vector 0.0000000000000000 0.0000000000000000 40.9686280485800722 
atom 5.7136628731961991 1.8577864183105761 16.0303889582342336 V
atom 2.1321962867518223 3.7155736346709496 18.2310988953545596 V
atom 3.5569305875887105 3.7155740484636617 15.0000000000000000 V
atom 11.8353574410168321 1.8577865256746380 15.8104555333728314 V
atom 13.9920867058742768 3.7155736755223181 16.8408384482714766 V
atom 9.0074111676735988 1.8577863374620029 17.4206277661474438 V
atom 5.1752637997647710 1.8577861861072273 17.6530711662455992 O
atom 2.6705683396894035 3.7155738668783660 16.6083830327608624 O
atom 5.5555843366045004 3.7155738654663333 15.5634257389681956 O
atom 7.5691256505568507 1.8577864028481945 16.2861017350221040 O
atom 0.2766971630716071 3.7155736601321037 17.9753950902752457 O
atom 3.9363466535436484 1.8577866541906205 15.1256918398605791 O
atom 14.8784550315430675 3.7155738471114206 15.2324247510227124 O
atom 11.9934370679937174 3.7155738485197154 16.2774122493390401 O
atom 11.0060991267583574 1.8577861644643550 17.9840570221713740 O
atom 9.9798826632915869 1.8577865511365004 15.5547466372742740 O
atom 9.3868177776298314 3.7155737031890799 17.5463186363766646 O
atom 13.6126999711979995 1.8577863098002618 16.7151074626705558 O
atom 1.4609384360376518 1.8577858163060692 20.8716521150132195 V
atom 13.0330733690977993 3.7155730326664425 23.0723620521335455 V
atom 4.2888920412258340 1.8577860145174907 19.2614899036831027 V
atom 14.4578076699346951 3.7155734464591545 19.8412631567789823 V
atom 11.1640923852781366 3.7155734773118554 18.4509918109828064 V
atom 7.5826330038582919 1.8577859236701311 20.6517186901518102 V
atom 9.7393622687157393 3.7155730735178114 21.6821016050504660 V
atom 4.7546867305150586 1.8577857354574963 22.2618909229264297 V
atom 0.9225393626062203 1.8577855841027207 22.4943343230245780 O
atom 13.5714454220353886 3.7155732648738593 21.4496461895398447 O
atom 2.2902463235904693 1.8577861875151596 18.6980616060182960 O
atom 1.3028598994459570 3.7155732634618266 20.4046888957471815 O
atom 3.3164012133983025 1.8577858008436874 21.1273648918010863 O
atom 11.1775742454175919 3.7155730581275965 22.8166582470542281 O
atom 14.8372237358896299 1.8577860521861138 19.9669549966395614 O
atom 3.9095070295422185 3.7155734087943579 19.1357679069322266 O
atom 10.6257305943845175 3.7155732451069134 20.0736879078016948 O
atom 8.1210258927839494 1.8577861558747795 19.0290257997021364 O
atom 7.7407126308351746 3.7155732465152087 21.1186754061180260 O
atom 6.7533746895998039 1.8577855624598480 22.8253201789503599 O
atom 13.0195983981210315 3.7155734718491322 18.7067085048455262 O
atom 5.7271582261330369 1.8577859491319937 20.3960097940532563 O
atom 5.1340933404712876 3.7155731011845727 22.3875817931556469 O
atom 9.3599755340394548 1.8577857077957549 21.5563706194495417 O
atom 12.3618155183836294 1.8577852143015621 25.7129152717922089 V
atom 0.0361676040672832 1.8577854125129840 24.1027530604620850 V
atom 10.2050832327761469 3.7155728444546474 24.6825263135579682 V
atom 6.9113679481195911 3.7155728753073478 23.2922549677617887 V
atom 3.3299085666997410 1.8577853216656244 25.4929818469307996 V
atom 13.1911234059364588 1.8577855855106529 23.5393247627972784 O
atom 12.2037369817919270 3.7155726614573203 25.2459520525261603 O
atom 14.2172782957442880 1.8577851988391803 25.9686280485800687 O
atom 10.5844992987310889 1.8577854501816069 24.8082181534185473 O
atom 14.8103841118882027 3.7155728067898508 23.9770310637112125 O
atom 6.3730061572259729 3.7155726431024063 24.9149510645806807 O
atom 3.8683014556254065 1.8577855538702723 23.8702889564811223 O
atom 3.4879881936766308 3.7155726445107016 25.9599385628970118 O
atom 8.7668739609624886 3.7155728698446246 23.5479716616245121 O
atom 1.4744337889744998 1.8577853471274870 25.2372729508322386 O
