#===============================================================================
# Created using the Atomic Simulation Environment (ASE)

# Mon Mar 23 14:01:43 2026

#=======================================================
lattice_vector 10.7779019647855687 0.0000000000000000 0.0000000000000000 
lattice_vector -0.0013379047791915 9.2181866457684922 0.0000000000000000 
lattice_vector 0.0000000000000000 0.0000000000000000 50.5931020378767968 
atom 2.8650046609886162 2.3053191388375076 18.1157264428005007 V
atom 4.0991188454607359 0.0015959165393977 15.7192962529460658 V
atom 6.7930424565680774 2.3077867363289490 15.7188960644230420 V
atom 5.5554791541385233 4.6050325142780864 18.1127872977601854 V
atom 4.3827748573922740 1.3837239762870583 18.8308713510180183 O
atom 7.9655839059808713 3.6901109202732432 15.0000000000000000 O
atom 5.2754959320162058 3.2231188678298461 15.0003743857252800 O
atom 1.6876001673872110 0.9230564209317089 18.8298273719374194 O
atom 4.0425072540126319 3.6887452283098736 17.3991306318878927 O
atom 2.9213899306680995 1.3867021007918452 16.4358062023761420 O
atom 5.6157595264509590 0.9219233335855358 16.4360843388269444 O
atom 6.7317287464519655 3.2301055811850747 17.3986874895959147 O
atom 2.8639663498592474 6.9146581676308214 18.1151841211499516 V
atom 4.0991999353641759 4.6179104252983336 15.7193382014265381 V
atom 6.7928434262786972 6.9166971775776789 15.7183688453931616 V
atom 5.5573020752397913 0.0020515435320118 18.1125386658963592 V
atom 4.3786934916839595 5.9969275778381306 18.8321275945221700 O
atom 7.9670100172088656 8.2986876522413358 15.0028549832209919 O
atom 5.2724714797434222 7.8367474230033514 15.0018458388543685 O
atom 1.6887422278140547 5.5312956482440603 18.8321590789286617 O
atom 4.0398163611109599 8.2988866589061487 17.3974152740085088 O
atom 2.9238873638515557 5.9914384673575221 16.4344203121528203 O
atom 5.6145437254936459 5.5309686296543443 16.4334480069656976 O
atom 6.7351648777019761 7.8352095771902519 17.3964433999122861 O
atom 8.2522631522554306 2.3041649483801732 18.1146956352205777 V
atom 9.4885285680960436 0.0008584994271604 15.7196915458513899 V
atom 1.4026177754254212 2.3056955575727729 15.7171496213223492 V
atom 0.1681270880034932 4.6017159646894275 18.1134099122708534 V
atom 9.7724793988104572 1.3845343786258095 18.8312418689861616 O
atom 2.5779002130575868 3.6897524712619196 15.0000532932444273 O
atom 10.6655923696899730 3.2241916479717050 15.0007926914731797 O
atom 7.0774707906907235 0.9223079174495626 18.8298586277234108 O
atom 9.4306025370576272 3.6893471715878645 17.3995210222821086 O
atom 8.3093390717780302 1.3859117629923028 16.4359566255718583 O
atom 0.2275519406216524 0.9214743254137638 16.4349139684836700 O
atom 1.3428684936039297 3.2293554866023646 17.3984107369064489 O
atom 8.2522773755996432 6.9128914708010765 18.1140633844686789 V
atom 9.4886869256925905 4.6162206859954429 15.7195013324773427 V
atom 1.4017872411885315 6.9144157828993285 15.7167418470589126 V
atom 0.1696337760506167 0.0009114324436649 18.1131667247005552 V
atom 9.7695072535427130 5.9982939112131497 18.8324894325922969 O
atom 2.5803693531879102 8.2969549182051914 15.0022290247279386 O
atom 10.6621174761117175 7.8375290719060597 15.0020433730361304 O
atom 7.0796904356151753 5.5302232969660086 18.8322179238085141 O
atom 9.4292325298216255 8.2989202460878229 17.3969495235399023 O
atom 8.3126898401662341 5.9911940478386905 16.4337439619335548 O
atom 0.2248906086703801 5.5319023892461807 16.4336930252066722 O
atom 1.3457137408499049 7.8347536367375890 17.3965712212571475 O
atom 0.3952282211780508 2.3050364270996870 22.9049655257785858 V
atom 1.6293880806948928 0.0035040132930392 20.5092551398144138 V
atom 4.3232412037173633 2.3102836570611096 20.5072639887617498 V
atom 3.0857965982549902 4.6047231066827150 22.9015742618490137 V
atom 1.9131180727123351 1.3849564489723614 23.6194937988470599 O
atom 5.4957579702965651 3.6911245349244055 19.7895198117480930 O
atom 2.8062445702741741 3.2242770769798064 19.7899396017449405 O
atom 9.9955881130166322 0.9232920288950424 23.6196029223892410 O
atom 1.5730064051939763 3.6886767667621680 22.1872902038035917 O
atom 0.4513668066253831 1.3874413502621781 21.2244367315228928 O
atom 3.1453520669987696 0.9238490605060782 21.2265902413889265 O
atom 4.2622533330671928 3.2308807322939308 22.1887199698481297 O
atom 8.7035424583248329 2.3061465044367928 27.6942352923254234 V
atom 9.9376566427969504 0.0024232821386831 25.2978051024709885 V
atom 1.8536782891187229 2.3086141019282347 25.2974049139479717 V
atom 0.6161149866891710 4.6058598798773707 27.6912961472851151 V
atom 10.2213126547284894 1.3845513418863435 28.4093802005429410 O
atom 3.0262197385315170 3.6909382858725279 24.5785088495249298 O
atom 0.3361317645668521 3.2239462334291313 24.5788832352502027 O
atom 7.5261379647234268 0.9238837865309941 28.4083362214623492 O
atom 9.8810450513488437 3.6895725939091584 26.9776394814128153 O
atom 8.7599277280043104 1.3875294663911306 26.0143150519010717 O
atom 0.6763953590016039 0.9227506991848212 26.0145931883518742 O
atom 1.7923645790026110 3.2309329467843599 26.9771963391208303 O
atom 0.3947282126689952 6.9143473587059798 22.9044636058550282 V
atom 1.6291565661942564 4.6196279171680752 20.5094023546655109 V
atom 4.3228765883411642 6.9188116318410584 20.5068866970832104 V
atom 3.0877045371266219 0.0022270246684642 22.9014109196690399 V
atom 1.9094738924144075 5.9985713367766458 23.6205939378757392 O
atom 5.4972642237862477 8.2989478070320821 19.7923307217818731 O
atom 2.8032852296858595 7.8384529238458533 19.7909378140957557 O
atom 9.9974800002273376 5.5311745439530844 23.6222366669801644 O
atom 1.5707866423824561 8.2988391874538561 22.1856121919688221 O
atom 0.4537618500817461 5.9920903582978218 21.2226708757259743 O
atom 3.1436920338436836 5.5332279254290926 21.2235770689080994 O
atom 4.2646360827526735 7.8351256516656269 22.1866739977707752 O
atom 8.7025041471954605 6.9154855332301075 27.6936929706748813 V
atom 9.9377377327003895 4.6187377908976179 25.2978470509514608 V
atom 1.8534792588293429 6.9175245431769641 25.2968776949180878 V
atom 0.6179379077904378 0.0028789091312972 27.6910475154212818 V
atom 10.2172312890201731 5.9977549434374158 28.4106364440470927 O
atom 3.0276458497595109 8.2995150178406210 24.5813638327459145 O
atom 0.3331073122940681 7.8375747886026375 24.5803546883792947 O
atom 7.5272800251502714 5.5321230138433464 28.4106679284535915 O
atom 9.8783541584471752 8.2997140245054339 26.9759241235334315 O
atom 8.7624251611877728 5.9922658329568073 26.0129291616777465 O
atom 0.6751795580442953 5.5317959952536304 26.0119568564906203 O
atom 1.7958007102526210 7.8360369427895362 26.9749522494372158 O
atom 5.7827746280684114 2.3043061061138821 22.9045298727780207 V
atom 7.0188731242762987 0.0026560019344170 20.5096955115112607 V
atom 9.7095431997587500 2.3068160359349297 20.5063133417873686 V
atom 8.4759564515879422 4.6025472861176784 22.9019452293350554 V
atom 7.3014175528817269 1.3827957806048621 23.6197411337006997 O
atom 0.1073063425144128 3.6909059985379140 19.7889794396904861 O
atom 8.1953357828306963 3.2234811546614459 19.7907463951090250 O
atom 4.6072596200471896 0.9230605395428931 23.6194075293141381 O
atom 6.9606058562928492 3.6888093867558216 22.1873006578979144 O
atom 5.8405245754277813 1.3874014265291419 21.2242599373307712 O
atom 8.5349519824268238 0.9228820670778302 21.2249318328592196 O
atom 9.6515074257828743 3.2300409231181866 22.1885577516764769 O
atom 3.3128989848060759 2.3049923139794588 27.6932044847455074 V
atom 4.5491644006466903 0.0016858650264478 25.2982003953763126 V
atom 7.2411555727616355 2.3065229231720576 25.2956584708472718 V
atom 6.0066648853397071 4.6025433302887127 27.6919187617957760 V
atom 4.8331152313611048 1.3853617442250949 28.4097507185110842 O
atom 8.4164380103938026 3.6905798368612048 24.5785621427693570 O
atom 5.7262282022406197 3.2250190135709902 24.5793015409981095 O
atom 2.1381066232413688 0.9231352830488481 28.4083674772483334 O
atom 4.4912383696082747 3.6901745371871497 26.9780298718070384 O
atom 3.3699749043286760 1.3867391285915878 26.0144654750967845 O
atom 6.0660897379578671 0.9223016910130492 26.0134228180085927 O
atom 7.1814062909401439 3.2301828522016502 26.9769195864313787 O
atom 5.7822167598123198 6.9133619865055991 22.9038887706522303 V
atom 7.0191211522215449 4.6181797970797387 20.5097394297239148 V
atom 9.7087830746747450 6.9164166458305338 20.5054735229281206 V
atom 8.4768929211424489 0.0002879759704904 22.9020635011168281 V
atom 7.2985868900542519 5.9976317299303874 23.6208567966724559 O
atom 0.1095854416105986 8.2982827879741698 19.7909954208957970 O
atom 8.1924774185118654 7.8378227368369942 19.7913063472619157 O
atom 4.6088469950975153 5.5313425939048697 23.6218985026961690 O
atom 6.9586058066606657 8.2984272265937751 22.1850210387566094 O
atom 5.8428358882636067 5.9915796316478307 21.2223436412178756 O
atom 8.5317484948009739 5.5338196372297928 21.2235054455894598 O
atom 9.6540655952148953 7.8345022159003177 22.1864630120937605 O
atom 3.3129132081502881 6.9137188364003617 27.6925722339936087 V
atom 4.5493227582432390 4.6170480515947272 25.2980101820022725 V
atom 7.2403250385247464 6.9152431484986137 25.2952506965838353 V
atom 6.0081715733868322 0.0017387980429503 27.6916755742254779 V
atom 4.8301430860933596 5.9991212768124340 28.4109982821172196 O
atom 8.4189071505241255 8.2977822838044766 24.5807378742528684 O
atom 5.7227533086623650 7.8383564375053458 24.5805522225610531 O
atom 2.1403262681658224 5.5310506625652947 28.4107267733334368 O
atom 4.4898683623722713 8.2997476116871081 26.9754583730648250 O
atom 3.3733256727168803 5.9920214134379757 26.0122528114584810 O
atom 6.0634284060065964 5.5327297548454650 26.0122018747315948 O
atom 7.1842515381861194 7.8355810023368742 26.9750800707820773 O
atom 6.2337660185142676 2.3058637926989727 32.4834743753035156 V
atom 7.4679258780311093 0.0043313788923245 30.0877639893393365 V
atom 10.1617790010535813 2.3111110226603953 30.0857728382866796 V
atom 8.9243343955912025 4.6055504722820002 32.4800831113739292 V
atom 7.7516558700485509 1.3857838145716468 33.1980026483719897 O
atom 0.5563938028472120 3.6919519005236907 29.3680286612730157 O
atom 8.6447823676103894 3.2251044425790920 29.3684484512698560 O
atom 5.0562239455672779 0.9241193944943277 33.1981117719141636 O
atom 7.4115442025301919 3.6895041323614528 31.7657990533285144 O
atom 6.2899046039615989 1.3882687158614637 30.8029455810478083 O
atom 8.9838898643349854 0.9246764261053635 30.8050990909138562 O
atom 10.1007911304034064 3.2317080978932164 31.7672288193730523 O
atom 4.9982924753475952 0.0032506477379684 34.8763139519959253 V
atom 7.6922160864549394 2.3094414675275203 34.8759137634728944 V
atom 8.8647575358677333 3.6917656514718136 34.1570176990498524 O
atom 6.1746695619030652 3.2247735990284170 34.1573920847751253 O
atom 3.8205635605549602 1.3883568319904158 35.5928239014259944 O
atom 6.5149331563378201 0.9235780647841066 35.5931020378767968 O
atom 6.2332660100052095 6.9151747243052650 32.4829724553799579 V
atom 7.4676943635304713 4.6204552827673604 30.0879112041904406 V
atom 10.1614143856773804 6.9196389974403436 30.0853955466081402 V
atom 8.9262423344628363 0.0030543902677496 32.4799197691939696 V
atom 7.7480116897506210 5.9993987023759301 33.1991027874006619 O
atom 0.5579000563368921 8.2997751726313673 29.3708395713068029 O
atom 8.6418230270220739 7.8392802894451377 29.3694466636206784 O
atom 5.0581158327779843 5.5320019095523696 33.2007455165051013 O
atom 7.4093244397186711 8.2996665530531413 31.7641210414937447 O
atom 6.2922996474179627 5.9929177238971070 30.8011797252508970 O
atom 8.9822298311799003 5.5340552910283778 30.8020859184330220 O
atom 10.1031738800888871 7.8359530172649112 31.7651828472956979 O
atom 4.9983735652510362 4.6195651564969040 34.8763559004763906 V
atom 7.6920170561655556 6.9183519087762502 34.8753865444430105 V
atom 8.8661836470957276 8.3003423834399062 34.1598726822708514 O
atom 6.1716451096302825 7.8384021542019227 34.1588635379042245 O
atom 3.8230609937384199 5.9930931985560933 35.5914380112026763 O
atom 6.5137173553805061 5.5326233608529165 35.5904657060155429 O
atom 0.8434104606190569 2.3051334717131673 32.4830387223029433 V
atom 2.0795089568269458 0.0034833675337024 30.0882043610361833 V
atom 4.7701790323093958 2.3076434015342153 30.0848221913122913 V
atom 3.5365922841385902 4.6033746517169645 32.4804540788599851 V
atom 2.3620533854323735 1.3836231462041477 33.1982499832256224 O
atom 5.9458441398506290 3.6917333641371992 29.3674882892154088 O
atom 3.2559716153813412 3.2243085202607311 29.3692552446339477 O
atom 10.4457974173834049 0.9238879051421786 33.1979163788390679 O
atom 2.0212416888434959 3.6896367523551072 31.7658095074228370 O
atom 0.9011604079784267 1.3882287921284271 30.8027687868557010 O
atom 3.5955878149774683 0.9237094326771156 30.8034406823841493 O
atom 4.7121432583335201 3.2308682887174722 31.7670666012014067 O
atom 10.3877021979829056 0.0025132306257331 34.8767092449012495 V
atom 2.3017914053122830 2.3073502887713428 34.8741673203722016 V
atom 3.4770738429444483 3.6914072024604900 34.1570709922942797 O
atom 0.7868640347912633 3.2258463791702758 34.1578103905230321 O
atom 9.2085127016648922 1.3875664941908734 35.5929743246217072 O
atom 1.1267255705085140 0.9231290566123346 35.5919316675335153 O
atom 0.8428525923629637 6.9141893521048843 32.4823976201771600 V
atom 2.0797569847721915 4.6190071626790230 30.0882482792488446 V
atom 4.7694189072253907 6.9172440114298208 30.0839823724530433 V
atom 3.5375287536930946 0.0011153415697758 32.4805723506417579 V
atom 2.3592227226048994 5.9984590955296726 33.1993656461973785 O
atom 5.9481232389468142 8.2991101535734551 29.3695042704207196 O
atom 3.2531132510625107 7.8386501024362785 29.3698151967868455 O
atom 10.4473847924337271 5.5321699595041549 33.2004073522210987 O
atom 2.0192416392113124 8.2992545921930603 31.7635298882815391 O
atom 0.9034717208142534 5.9924069972471150 30.8008524907427983 O
atom 3.5923843273516201 5.5346470028290771 30.8020142951143825 O
atom 4.7147014277655401 7.8353295814996029 31.7649718616186831 O
atom 10.3878605555794543 4.6178754171940142 34.8765190315271951 V
atom 2.3009608710753930 6.9160705140978997 34.8737595461087579 V
atom 3.4795429830747717 8.2986096494037636 34.1592467237777910 O
atom 0.7833891412130117 7.8391838031046301 34.1590610720859758 O
atom 9.2118634700530961 5.9928487790372609 35.5907616609834037 O
atom 1.1240642385572406 5.5335571204447511 35.5907107242565246 O
