#===============================================================================
# Created using the Atomic Simulation Environment (ASE)

# Mon Mar 23 14:01:39 2026

#=======================================================
lattice_vector 12.3188787347632243 0.0000000000000000 0.0000000000000000 
lattice_vector -1.5101125036326633 6.2644276927716032 0.0000000000000000 
lattice_vector 0.0000000000000000 0.0000000000000000 36.8576810448897731 
atom 6.0438539833035652 2.1350198022399285 15.0000030341739965 V
atom -0.8706522612860853 5.2672384671383767 15.0000000000000000 V
atom 7.3047063706906474 0.1961625038547638 15.2517488719456473 O
atom 7.7140805083928159 3.0450633548972150 15.5995224951611107 O
atom 0.3902512867060862 3.3284376245137341 15.2517663980219034 O
atom 0.7995779890352840 6.1773176987685270 15.5995233822294139 O
atom 5.6865933457962159 6.1809915808507814 17.1503212877926501 V
atom 4.9231748911967754 1.8648665696268909 18.5322249129034056 V
atom 7.4573003939545135 3.1435551577649008 17.4798084174775639 V
atom 3.1524497365475144 4.9022722437381017 18.2027296972899144 V
atom 0.2821831736688334 3.0487877706820070 17.1503134500365917 V
atom 10.3275473813703424 4.9970852345253460 18.5322218787294091 V
atom 2.0529191497272490 0.0113791230467284 17.4798118820858015 V
atom 10.0669646673843864 1.7700940493345005 18.2027385195340585 V
atom 6.6714479176075718 4.7988616071629782 17.3570803714734687 O
atom 3.9382792849851684 3.2469943170002482 18.3254526398511217 O
atom 5.9358376817659435 1.8553984279112135 16.8985687027435496 O
atom 4.6739147749512009 6.1904369640133350 18.7839707506750599 O
atom 8.3990350960554387 1.2683955149530184 17.6351787696092508 O
atom 3.7208330781440657 0.5130003055904382 18.0473608054925450 O
atom 4.0163417702952788 5.2709599928731334 16.5507948045968121 O
atom 6.5934014162860262 2.7749101222841834 19.1317443738905197 O
atom 1.2670687822989251 1.6666798552064255 17.3570840679168477 O
atom 10.8527935792875052 0.1147887439625195 18.3254591661603641 O
atom -0.9786565321560210 4.9876456903445234 16.8985716832960335 O
atom -0.7304278054006988 3.0582843919006995 18.7839882767513160 O
atom 1.4845388290441588 4.4006520877222064 17.6351818213670199 O
atom 9.1252147056532600 3.6452416352897643 18.0473624038015501 O
atom 10.9308516123650730 2.1387758785015176 16.5508015595411884 O
atom -0.3211011030715125 5.9071644661554945 19.1317452609588265 O
atom 4.5659142536894191 5.9108383482377471 20.6825431665220592 V
atom 6.3366213018477273 2.8734019251518692 21.0120302962069729 V
atom 2.0317706444407118 4.6321190111250719 21.7349515760193270 V
atom 11.4803828163252604 2.7786345380689750 20.6825353287660008 V
atom -0.5778724460122096 6.0056535832052944 21.0120337608152141 V
atom 8.9462855752775852 1.4999408167214658 21.7349603982634676 V
atom 5.5507688255007848 4.5287083745499519 20.8893022502028778 O
atom 2.8176001928783769 2.9768410843872188 21.8576745185805272 O
atom 4.8151585896591476 1.5852451952981788 20.4307905814729587 O
atom 7.2783560039486366 0.9982422823399836 21.1674006483386634 O
atom 2.6001539860372844 0.2428470729774091 21.5795826842219540 O
atom 2.8956626781884776 5.0008067602601018 20.0830166833262211 O
atom 0.1463896901921331 1.3965266225933963 20.8893059466462603 O
atom 8.2220019835480507 6.1090632041210906 21.8576810448897731 O
atom 10.2195431105003998 4.7174924577314918 20.4307935620254426 O
atom 0.3638597369373678 4.1304988551091748 21.1674037000964290 O
atom 8.0045356135464729 3.3750884026767349 21.5795842825309592 O
atom 9.8101725202582966 1.8686226458884883 20.0830234382706010 O
