#===============================================================================
# Created using the Atomic Simulation Environment (ASE)

# Mon Mar 23 14:01:37 2026

#=======================================================
lattice_vector 3.7155747600003020 0.0000000000000000 0.0000000000000000 
lattice_vector 0.0000010448242668 6.4438726005089801 0.0000000000000000 
lattice_vector 0.0000000000000000 0.0000000000000000 60.4518462162004795 
atom 1.8577804273010454 4.6545622026978242 23.4935657725050397 V
atom 3.7155679857273021 2.2277155360773131 22.2552101569690173 V
atom 1.8577795304132103 1.5785041204014429 24.5555500540415714 V
atom 3.7155688926289092 5.3037992678395218 21.1931997826844061 V
atom 3.7155701989428302 6.4330261298350333 17.8011117110877670 V
atom 1.8577829873644791 4.0061883862412850 16.5627716088264911 V
atom 3.7155693020382703 3.3569478247741200 18.8631324217650338 V
atom 1.8577828494239941 0.6383765583571442 15.5007994494775865 V
atom 1.8577804035878300 6.2290027781571116 24.1599800466738408 O
atom 3.7155680094550481 0.6532675085813390 21.5887533715646533 O
atom 1.8577804773682152 2.4742364204444058 22.6821307742511458 O
atom 3.7155679356711353 4.4080597450324994 23.0666234077802663 O
atom 1.8577796933276156 3.6221397041504897 25.0563309266072771 O
atom 3.7155687297135782 3.2601687623090267 20.6924236169856322 O
atom 1.8577813514305945 5.1478306904075213 21.5612055525498114 O
atom 3.7155670716033260 1.7344295463440069 24.1875477126975902 O
atom 3.7155691303893188 1.5635799342712564 18.4675631616352369 O
atom 1.8577830110813880 2.4317438666481239 15.8963456382305424 O
atom 3.7155702489945219 4.2526842888097534 16.9897115817935109 O
atom 1.8577829472769192 6.1864897009964546 17.3742510976314044 O
atom 3.7155694749523178 5.4005780403097328 19.3639119330135401 O
atom 1.8577837313420364 5.0386217201490098 15.0000000000000000 O
atom 3.7155700682291797 0.4824125434921869 15.8687985561394171 O
atom 1.8577820832304091 3.5128685841036136 18.4951217726402213 O
atom 1.8577756040312527 1.0976021536191287 34.8784234934797013 V
atom 3.7155642072817754 5.1146280875075982 33.6400678779436930 V
atom 1.8577757519676843 4.4654166718317265 35.9404077750162401 V
atom 3.7155640693591163 1.7468392187608279 32.5780575036590818 V
atom 3.7155653756730382 2.8760660807563387 29.1859694320624321 V
atom 1.8577781640946862 0.4492283371625900 27.9476293298011633 V
atom 3.7155655235927449 6.2438603762044069 30.2479901427397060 V
atom 1.8577790709784681 3.5252891097874302 26.8856571704522516 V
atom 1.8577755803180369 2.6720427290784157 35.5448377676485165 O
atom 3.7155642310095223 3.5401800600116249 32.9736110925393291 O
atom 1.8577766989226892 5.3611489718746919 34.0669884952258144 O
atom 3.7155631124013433 0.8510996959538035 34.4514811287549350 O
atom 1.8577748700578229 0.0651796550717933 36.4411886475819529 O
atom 3.7155649512680515 6.1470813137393145 32.0772813379603008 O
atom 1.8577765281608014 1.5908706413288263 32.9460632735244872 O
atom 3.7155632931578002 4.6213420977742921 35.5724054336722588 O
atom 3.7155653519437930 4.4504924857015418 29.8524208826099020 O
atom 1.8577792326358618 5.3186564180784091 27.2812033592052110 O
atom 3.7155654257247290 0.6957242397310579 28.3745693027681831 O
atom 1.8577781240071263 2.6295296519177609 28.7591088186060766 O
atom 3.7155646516825254 1.8436179912310395 30.7487696539882087 O
atom 1.8577789080722433 1.4816616710703152 26.3848577209746686 O
atom 3.7155662897836539 3.3693250949224733 27.2536562771140858 O
atom 1.8577783047848833 6.3997811355338996 29.8799794936148935 O
atom 3.7155593840119829 1.5576680384289032 45.0249255989183723 V
atom 3.7155602909135901 4.6337517701911137 43.9629152246337327 V
atom 3.7155615972275116 5.7629786321866243 40.5708271530371150 V
atom 1.8577743856491604 3.3361408885928769 39.3324870507758249 V
atom 3.7155607003229520 2.6869003271257101 41.6328478637143746 V
atom 1.8577752925329420 6.4122016612177140 38.2705148914269273 V
atom 3.7155604525639960 6.4270926114419096 44.3584688135139942 O
atom 1.8577718756528963 1.8041889227959966 45.4518462162004795 O
atom 3.7155601279982586 2.5901212646606186 43.4621390589349659 O
atom 1.8577727497152756 4.4777831927591105 44.3309209944991665 O
atom 3.7155605286739997 0.8935324366228468 41.2372786035845706 O
atom 1.8577744093660691 1.7616963689997138 38.6660610801798867 O
atom 3.7155616472792032 3.5826367911613426 39.7594270237428447 O
atom 1.8577743455616003 5.5164422033480456 40.1439665395807452 O
atom 3.7155608732369991 4.7305305426613247 42.1336273749628845 O
atom 1.8577751296267175 4.3685742225006008 37.7697154419493444 O
atom 3.7155625113381276 6.2562376463527585 38.6385139980887544 O
atom 1.8577734815150904 2.8428210864552041 41.2648372145895621 O
