#===============================================================================
# Created using the Atomic Simulation Environment (ASE)

# Mon Mar 23 14:01:42 2026

#=======================================================
lattice_vector 10.7770659663771120 0.0000000000000000 0.0000000000000000 
lattice_vector -4.9397473237365723 9.5792519092132657 0.0000000000000000 
lattice_vector 0.0000000000000000 0.0000000000000000 34.1514916947856122 
atom -1.6762535358845827 4.3060420068597418 15.0015791328362695 O
atom 2.2504525317620176 1.9131354555146964 15.0012637881009567 O
atom 3.7120535588701777 4.3059972043102563 15.0017326799610871 O
atom 7.6402244410306261 1.9130403390907418 15.0017248510066068 O
atom 3.6525068341409308 5.9856912295735683 15.9220282510853650 V
atom -0.2773105436723249 8.3784008357719806 15.9208373338358982 V
atom -4.1478971230547863 9.0961866518081198 15.0009142291205109 O
atom -0.2194278337190965 6.7014845109490038 15.0008518783046227 O
atom 5.1111000658681816 8.3794186838545333 15.9218744422121503 V
atom 1.2405645513776593 9.0973895792861565 15.0000000000000000 O
atom 5.1697236240677000 6.7028662826784906 15.0017584784184237 O
atom 3.4294487074507645 1.1969490470525748 18.2255855256981718 V
atom 0.7343550317490356 1.1957560732035508 15.9242600554380829 V
atom -0.5018891684489701 3.5891946324300035 18.2310398625908903 V
atom 3.3687590354617121 2.8734762456897416 17.3054438319903809 O
atom -0.4440944928845040 1.9121795529159265 19.1450952396334841 O
atom 4.6041957657068089 0.4778449406118592 16.8437794042095206 O
atom 1.9100177154982385 0.4765849652739246 17.3081356117996847 O
atom 0.6771839877304299 2.8719308796515897 16.8445431377586914 O
atom 1.0205886580208643 4.3056738045919696 19.1514916947856122 O
atom 8.8179521342201301 1.1970399684949955 18.2262819189078584 V
atom 6.1222394723422147 1.1954764107532851 15.9227657023391771 V
atom 4.8873769464535712 3.5897067683072343 18.2289565480926399 V
atom 8.7578652433503112 2.8737433766283784 17.3046249875193254 O
atom 4.9443596153970670 1.9116542612270335 19.1443507401312516 O
atom 9.9921592921181048 0.4778122454440261 16.8439575240585881 O
atom 7.2989488773748041 0.4771740093115784 17.3078099912397931 O
atom 6.0642721029822049 2.8720019442776534 16.8430312017426829 O
atom 6.4085248099003085 4.3051335047258155 19.1511302936840693 O
atom 2.1920920679290194 3.5882648663164618 15.9227764388948501 V
atom 7.5810034868499150 3.5883648900545086 15.9230146075462642 V
atom 0.9598315346447169 5.9851269359814294 18.2248552423456189 V
atom -1.7353720707600944 5.9860584924650109 15.9234120060445008 V
atom -2.9713939303931705 8.3760303646850325 18.2275723235919500 V
atom 0.8994036332177369 7.6626364274423242 17.3032831422668352 O
atom -2.9133154194874664 6.7022998816430155 19.1442992476294762 O
atom 2.1338631229068912 5.2679345932392065 16.8435479317357562 O
atom -0.5601078564126943 5.2663136786033427 17.3080957033377985 O
atom -1.7944611393470336 7.6613734740222696 16.8435762875828701 O
atom -1.4495681676787624 9.0954947781399937 19.1506518996249611 O
atom 6.3479379216261398 5.9846891728623985 18.2251278174931883 V
atom 2.4166263375483723 8.3772224039012766 18.2268655201972791 V
atom 6.2879755824788734 7.6642089327345451 17.3054353578507190 O
atom 2.4743328332003003 6.7024900419349613 19.1454234841369910 O
atom 7.5218918610330405 5.2682698598941808 16.8432090178794454 O
atom 4.8296680146010926 5.2659784520230728 17.3070196404500578 O
atom 3.5930174826435470 7.6617521955814771 16.8425822946659949 O
atom 3.9383635331135003 9.0947132270285422 19.1503802230093001 O
