#===============================================================================
# Created using the Atomic Simulation Environment (ASE)

# Mon Mar 23 14:01:40 2026

#=======================================================
lattice_vector 15.1536015195045284 0.0000000000000000 0.0000000000000000 
lattice_vector -0.0000014388224574 3.7155747600000235 0.0000000000000000 
lattice_vector 0.0000000000000000 0.0000000000000000 43.3892634392116037 
atom 6.3849207239103656 3.7155742366754567 15.8104711292071123 V
atom 13.2601356048321470 1.8577869394665101 15.0000000000000000 V
atom 9.4279882369233139 1.8577867881117343 15.2324434000981519 O
atom 4.5294216002301537 3.7155742621366104 15.5547673241277984 O
atom 0.1052220444123805 1.8577867664688617 15.5634292560239338 O
atom 13.6395422147883778 3.7155743051935870 15.1256908702292172 O
atom 5.7136628731961991 1.8577864183105761 18.4510243488657721 V
atom 2.1321962867518223 3.7155736346709496 20.6517342859860982 V
atom 8.5416164783843787 1.8577866165219978 16.8408621375356553 V
atom 3.5569305875887105 3.7155740484636617 17.4206353906315385 V
atom 0.2632153029321533 3.7155740793163621 16.0303640448353590 V
atom 11.8353574410168321 1.8577865256746380 18.2310909240043699 V
atom 13.9920867058742768 3.7155736755223181 19.2614738389030151 V
atom 9.0074111676735988 1.8577863374620029 19.8412631567789823 V
atom 5.1752637997647710 1.8577861861072273 20.0737065568771378 O
atom 2.6705683396894035 3.7155738668783660 19.0290184233924009 O
atom 6.5429707607490162 1.8577867895196665 16.2774338398708487 O
atom 5.5555843366045004 3.7155738654663333 17.9840611295997341 O
atom 7.5691256505568507 1.8577864028481945 18.7067371256536426 O
atom 0.2766971630716071 3.7155736601321037 20.3960304809067843 O
atom 3.9363466535436484 1.8577866541906205 17.5463272304921176 O
atom 8.1622314667007689 3.7155740107988651 16.7151401407847793 O
atom 14.8784550315430675 3.7155738471114206 17.6530601416542510 O
atom 12.3737503299424905 1.8577867578792862 16.6083980335546890 O
atom 11.9934370679937174 3.7155738485197154 18.6980476399705786 O
atom 11.0060991267583574 1.8577861644643550 20.4046924128029126 O
atom 2.1187213157750473 3.7155740738536389 16.2860807386980788 O
atom 9.9798826632915869 1.8577865511365004 17.9753820279058125 O
atom 9.3868177776298314 3.7155737031890799 19.9669540270082031 O
atom 13.6126999711979995 1.8577863098002618 19.1357428533020943 O
atom 1.4609384360376518 1.8577858163060692 23.2922875056447580 V
atom 13.0330733690977993 3.7155730326664425 25.4929974427650841 V
atom 4.2888920412258340 1.8577860145174907 21.6821252943146412 V
atom 14.4578076699346951 3.7155734464591545 22.2618985474105209 V
atom 11.1640923852781366 3.7155734773118554 20.8716272016143449 V
atom 7.5826330038582919 1.8577859236701311 23.0723540807833487 V
atom 9.7393622687157393 3.7155730735178114 24.1027369956820046 V
atom 4.7546867305150586 1.8577857354574963 24.6825263135579682 V
atom 0.9225393626062203 1.8577855841027207 24.9149697136561166 O
atom 13.5714454220353886 3.7155732648738593 23.8702815801713832 O
atom 2.2902463235904693 1.8577861875151596 21.1186969966498346 O
atom 1.3028598994459570 3.7155732634618266 22.8253242863787200 O
atom 3.3164012133983025 1.8577858008436874 23.5480002824326249 O
atom 11.1775742454175919 3.7155730581275965 25.2372936376857666 O
atom 14.8372237358896299 1.8577860521861138 22.3875903872711000 O
atom 3.9095070295422185 3.7155734087943579 21.5564032975637652 O
atom 10.6257305943845175 3.7155732451069134 22.4943232984332333 O
atom 8.1210258927839494 1.8577861558747795 21.4496611903336749 O
atom 7.7407126308351746 3.7155732465152087 23.5393107967495645 O
atom 6.7533746895998039 1.8577855624598480 25.2459555695818985 O
atom 13.0195983981210315 3.7155734718491322 21.1273438954770647 O
atom 5.7271582261330369 1.8577859491319937 22.8166451846847949 O
atom 5.1340933404712876 3.7155731011845727 24.8082171837871854 O
atom 9.3599755340394548 1.8577857077957549 23.9770060100810802 O
atom 12.3618155183836294 1.8577852143015621 28.1335506624237475 V
atom 0.0361676040672832 1.8577854125129840 26.5233884510936235 V
atom 10.2050832327761469 3.7155728444546474 27.1031617041895068 V
atom 6.9113679481195911 3.7155728753073478 25.7128903583933273 V
atom 3.3299085666997410 1.8577853216656244 27.9136172375623381 V
atom 13.1911234059364588 1.8577855855106529 25.9599601534288169 O
atom 12.2037369817919270 3.7155726614573203 27.6665874431576988 O
atom 14.2172782957442880 1.8577851988391803 28.3892634392116072 O
atom 10.5844992987310889 1.8577854501816069 27.2288535440500858 O
atom 14.8103841118882027 3.7155728067898508 26.3976664543427511 O
atom 6.3730061572259729 3.7155726431024063 27.3355864552122192 O
atom 3.8683014556254065 1.8577855538702723 26.2909243471126608 O
atom 3.4879881936766308 3.7155726445107016 28.3805739535285504 O
atom 8.7668739609624886 3.7155728698446246 25.9686070522560506 O
atom 1.4744337889744998 1.8577853471274870 27.6579083414637772 O
