#===============================================================================
# Created using the Atomic Simulation Environment (ASE)

# Mon Mar 23 14:01:46 2026

#=======================================================
lattice_vector 10.7863573876396668 0.0000000000000000 0.0000000000000000 
lattice_vector 2.8859864345801114 10.3931385144755009 0.0000000000000000 
lattice_vector 0.0000000000000000 0.0000000000000000 42.5138954596580660 
atom 10.7867567278496477 8.1996299872883789 15.8497810930426599 V
atom 13.4132062872147007 10.1963609650876510 15.0004435529002826 O
atom 11.9702521904102870 4.9997516447966532 15.0000590461166059 O
atom 8.0206271962587898 10.1965539917595169 15.0000000000000000 O
atom 5.3935201555457342 8.1995702649247963 15.8497988940817880 V
atom 3.9505064617779149 3.0030519559149034 15.8497317139570395 V
atom 6.5774414621265205 4.9997572686494367 15.0008647736065672 O
atom 7.9011069752626648 6.0060953693036794 20.0909037886745878 V
atom 12.0404066494795323 9.1528148913285392 19.0305895105022316 V
atom 11.9704373062174181 9.0996371345935749 17.1204563264442484 O
atom 13.5532937904234725 10.3029406004002091 18.8197928868278694 O
atom 7.9710741417540110 0.3166580002703583 19.0304567578399926 O
atom 2.4378638399142232 7.5963245804486919 19.0303470097938430 O
atom 9.3436795249317637 7.1026431629589384 17.9702107576240948 V
atom 13.4832209035991557 10.2495770347399979 16.9100452899057245 V
atom 10.5275565346277169 8.0028263471029515 19.2415662485322088 O
atom 1.3233868302293876 1.0063013703385046 16.6994391607073709 O
atom 9.4138689878013615 1.4131939438688472 16.9103316776864645 O
atom 3.8799615538986285 8.6927414732308801 16.9104544167118789 O
atom 7.9009689436099180 1.9062567022465904 17.9704507627907120 V
atom 12.0404333812692101 5.0530103836293012 16.9098879820927905 V
atom 9.0846024378233050 2.8062170268119533 19.2411817417485338 O
atom 2.7667456825566359 6.2029493100328867 16.6993291402164488 O
atom 10.8571243768321484 6.6108595249336242 16.9090327095203108 O
atom 2.4382904945065826 3.4960791954197101 16.9092311901281391 O
atom 9.3437292139685049 3.0031011820195008 15.8498802861658046 V
atom 10.5973918293994647 3.9560831689382971 19.0307814225084044 V
atom 10.5274645451861595 3.9031612219117489 17.1208634774610502 O
atom 12.1101083807676222 5.1061233739727072 18.8198680616041543 O
atom 9.4130227266113433 5.5130372620266082 19.0315728399900266 O
atom 0.9943170581977332 2.3985262807937140 19.0313785455290372 O
atom 3.9506479146669093 7.1028806557949746 17.9703754699366698 V
atom 8.0903754320735910 10.2496210685328695 16.9100399831827488 V
atom 5.1349774436718052 8.0030193737748192 19.2411226956319297 O
atom 6.7174293051919012 1.0064916981265462 16.6991765631550564 O
atom 4.0209676555164933 1.4142463460467982 16.9093189515554698 O
atom 9.2748823979620774 8.6924525052017412 16.9090657988589328 O
atom 2.5078704029587491 6.0060356469400960 20.0909215897137159 V
atom 6.6473234222945026 9.1526744995791436 19.0309298997869760 V
atom 6.5774490270096395 9.0993627565987882 17.1214321375796246 O
atom 8.1599241214800280 10.3023007017819399 18.8203225188212642 O
atom 2.5770635642115711 0.3165600466003800 19.0315155104106282 O
atom 7.8306718258990484 7.5947231062666338 19.0316500683942138 O
atom 1.0648567091909305 0.8095173379302039 20.0908544095889710 V
atom 5.2046247250649680 3.9561831228475550 19.0304528935192607 V
atom 5.1345090415693848 3.9029139054280662 17.1204050808045523 O
atom 6.7177594774117484 5.1062327241695593 18.8200122195366006 O
atom 4.0214171527715994 5.5132274120217870 19.0302985613599489 O
atom 6.3880397921911776 2.3991610294265837 19.0303376865387790 O
atom 2.5077541949798108 1.9063521835194148 17.9705407301904785 V
atom 6.6471559746254503 5.0527247925848249 16.9103253943284813 V
atom 3.6917917095395389 2.8062226506647363 19.2419874692384951 O
atom 8.1596066442066046 6.2022341415314424 16.6992947184661134 O
atom 5.4636115659014113 6.6093377638555051 16.9105293347429821 O
atom 7.8305553112495980 3.4958793710410516 16.9103436761434551 O
atom 5.0154572226756775 3.8125607513189803 24.3320264843065104 V
atom 9.1547568968925468 6.9592802733438388 23.2717122061341541 V
atom 9.0847875536304326 6.9061025166088745 21.3615790220761781 O
atom 10.6676440378364834 8.1094059824155096 23.0609155824597991 O
atom 7.9714108237471430 8.5162618967611596 23.2715794534719222 O
atom 10.3385714749669066 5.4027899624639923 23.2714697054257726 O
atom 6.4580297723447844 4.9091085449742407 22.2113334532560245 V
atom 10.5975711510121684 8.0560424167552984 21.1511679855376542 V
atom 7.6419067820407331 5.8092917291182529 23.4826889441641384 O
atom 12.1100808998621812 9.2059052668293049 20.9405618563393006 O
atom 9.4142056697944909 9.6127978403596472 21.1514543733183942 O
atom 11.7806691889513075 6.4992068552461779 21.1515771123438086 O
atom 7.9013056256030394 10.1058605987373920 22.2115734584226345 V
atom 9.1547836286822282 2.8594757656446008 21.1510106777247202 V
atom 6.1989526852363230 0.6126824088272540 23.4823044373804635 O
atom 10.6674533176093203 4.0094146920481872 20.9404518358483784 O
atom 7.9714746242451691 4.4173249069489255 21.1501554051522405 O
atom 10.3389981295592648 1.3025445774350100 21.1503538857600688 O
atom 6.4580794613815256 0.8095665640348012 20.0910029817977289 V
atom 7.7117420768124783 1.7625485509535976 23.2719041181403341 V
atom 7.6418147925991828 1.7096266039270493 21.3619861730929728 O
atom 9.2244586281806349 2.9125887559880068 23.0609907572360768 O
atom 6.5273729740243569 3.3195026440419086 23.2726955356219563 O
atom 8.8950246932504164 0.2049916628090140 23.2725012411609598 O
atom 11.8513555497195817 4.9093460378102742 22.2114981655685995 V
atom 5.2047256794866090 8.0560864505481700 21.1511626788146785 V
atom 2.2493276910848219 5.8094847557901206 23.4822453912638522 O
atom 6.7177659871850324 9.2060955946173468 20.9402992587869861 O
atom 4.0213043375096182 9.6138502425376000 21.1504416471873995 O
atom 6.3892326453750909 6.4989178872170408 21.1501884944908625 O
atom 10.4085780380114361 3.8125010289553969 24.3320442853456385 V
atom 3.7616736697075179 6.9591398815944459 23.2720525954188986 V
atom 3.6917992744226553 6.9058281386140878 21.3625548332115471 O
atom 5.2742743688930434 8.1087660837972404 23.0614452144531867 O
atom 2.5774002462046983 8.5161639430911809 23.2726382060425507 O
atom 4.9450220733120700 5.4011884882819361 23.2727727640261435 O
atom 11.8515507788237198 9.0091212344210057 24.3319771052208935 V
atom 2.3189749724779816 1.7626485048628555 23.2715755891511833 V
atom 2.2488592889824024 1.7093792874433662 21.3615277764364819 O
atom 3.8321097248247642 2.9126981061848598 23.0611349151685303 O
atom 1.1357674001846292 3.3196927940370871 23.2714212569918786 O
atom 3.5023900396041978 0.2056264114418839 23.2714603821707087 O
atom 13.2944482646126101 10.1059560800102162 22.2116634258224082 V
atom 3.7615062220384661 2.8591901746001249 21.1514480899604109 V
atom 0.8061419569525550 0.6126880326800376 23.4831101648704248 O
atom 5.2739568916196173 4.0086995235467429 20.9404174140980430 O
atom 2.5779618133144271 4.4158031458708056 21.1516520303749118 O
atom 4.9449055586626116 1.3023447530563521 21.1514663717753848 O
atom 6.2691071443055577 4.7657456553591402 27.5128349017660838 V
atom 6.1991378010434524 4.7125678986241759 25.6027017177081007 O
atom 7.7819942852494988 5.9158713644308083 27.3020382780917217 O
atom 5.0857610711601637 6.3227272787764592 27.5127021491038448 O
atom 7.4529217223799265 3.2092553444792911 27.5125924010577023 O
atom 3.5723800197577993 2.7155739269895398 26.4524561488879471 V
atom 7.7119213984251793 5.8625077987705989 25.3922906811695839 V
atom 9.2244311472751974 7.0123706488446063 25.1816845519712231 O
atom 6.5285559172075063 7.4192632223749477 25.3925770689503167 O
atom 8.8950194363643238 4.3056722372614793 25.3926998079757382 O
atom 5.0156558730160556 7.9123259807526916 26.4526961540545642 V
atom 6.2691338760952426 0.6659411476599012 25.3921333733566428 V
atom 7.7818035650223321 1.8158800740634868 25.1815745314803081 O
atom 5.0858248716581889 2.2237902889642243 25.3912781007841701 O
atom 10.3393348115523942 9.5021484739258106 25.3914765813919914 O
atom 6.4584161433746479 9.0091704605256027 24.3321256774296586 V
atom 7.7120787588056103 9.9621524474443994 27.5130268137722638 V
atom 7.6421514745923051 9.9092305004178503 25.6031088687249024 O
atom 6.3388088755936458 0.7190541380033070 27.3021134528680065 O
atom 3.6417232214373771 1.1259680260572087 27.5138182312538859 O
atom 8.8953613752435388 8.4045955592998158 27.5136239367928894 O
atom 8.9657057971326068 2.7158114198255738 26.4526208612005220 V
atom 2.3190759268996253 5.8625518325634696 25.3922853744465939 V
atom 3.8321162345980437 7.0125609766326491 25.1814219544189086 O
atom 11.9220119725623093 7.4203156245528996 25.3915643428193292 O
atom 3.5035828927881121 4.3053832692323413 25.3913111901227850 O
atom 11.6623813047602045 4.7656052636097428 27.5131752910508283 V
atom 11.5925069094753379 4.7122935206293883 25.6036775288434697 O
atom 2.3886246163060592 5.9152314658125400 27.3025679100851164 O
atom 10.4781078812573867 6.3226293251064813 27.5137609016744804 O
atom 2.0593723207250805 3.2076538702972348 27.5138954596580660 O
atom 13.1056690421107813 9.9622524013536573 27.5126982847831130 V
atom 13.0355533586151964 9.9089831839341667 25.6026504720684045 O
atom 0.9464599722377849 0.7191634882001601 27.3022576108004600 O
atom 9.0364750352373022 1.1261581760523878 27.5125439526238011 O
atom 3.5027267215973152 8.4052303079326851 27.5125830778026312 O
atom 10.4087985120256210 7.9124214620255167 26.4527861214543307 V
atom 0.8758564694514872 0.6656555566154266 25.3925707855923335 V
atom 2.3883071390326283 1.8151649055620429 25.1815401097299656 O
atom 10.4786694483671088 2.2222685278861061 25.3927747260068415 O
atom 4.9452422406557330 9.5019486495471526 25.3925890674073074 O
