#===============================================================================
# Created using the Atomic Simulation Environment (ASE)

# Mon Mar 23 14:01:37 2026

#=======================================================
lattice_vector 3.7155747600003020 0.0000000000000000 0.0000000000000000 
lattice_vector 0.0000010448242668 6.4438726005089801 0.0000000000000000 
lattice_vector 0.0000000000000000 0.0000000000000000 54.7594225992148509 
atom 1.8577804273010454 4.6545622026978242 17.8011421555194076 V
atom 3.7155679857273021 2.2277155360773131 16.5627865399833851 V
atom 1.8577795304132103 1.5785041204014429 18.8631264370559393 V
atom 3.7155688926289092 5.3037992678395218 15.5007761656987739 V
atom 1.8577804035878300 6.2290027781571116 18.4675564296882087 O
atom 3.7155680094550481 0.6532675085813390 15.8963297545790212 O
atom 1.8577804773682152 2.4742364204444058 16.9897071572655136 O
atom 3.7155679356711353 4.4080597450324994 17.3741997907946342 O
atom 1.8577796933276156 3.6221397041504897 19.3639073096216450 O
atom 3.7155687297135782 3.2601687623090267 15.0000000000000000 O
atom 1.8577813514305945 5.1478306904075213 15.8687819355641793 O
atom 3.7155670716033260 1.7344295463440069 18.4951240957119580 O
atom 1.8577756040312527 1.0976021536191287 29.1859998764940727 V
atom 3.7155642072817754 5.1146280875075982 27.9476442609580573 V
atom 1.8577757519676843 4.4654166718317265 30.2479841580306115 V
atom 3.7155640693591163 1.7468392187608279 26.8856338866734461 V
atom 3.7155653756730382 2.8760660807563387 23.4935458150768000 V
atom 1.8577781640946862 0.4492283371625900 22.2552057128155312 V
atom 3.7155655235927449 6.2438603762044069 24.5555665257540738 V
atom 1.8577790709784681 3.5252891097874302 21.1932335534666194 V
atom 1.8577755803180369 2.6720427290784157 29.8524141506628879 O
atom 3.7155642310095223 3.5401800600116249 27.2811874755536934 O
atom 1.8577766989226892 5.3611489718746919 28.3745648782401858 O
atom 3.7155631124013433 0.8510996959538035 28.7590575117692993 O
atom 1.8577748700578229 0.0651796550717933 30.7487650305963172 O
atom 3.7155649512680515 6.1470813137393145 26.3848577209746651 O
atom 1.8577765281608014 1.5908706413288263 27.2536396565388515 O
atom 3.7155632931578002 4.6213420977742921 29.8799818166866302 O
atom 3.7155653519437930 4.4504924857015418 24.1599972656242699 O
atom 1.8577792326358618 5.3186564180784091 21.5887797422195788 O
atom 3.7155654257247290 0.6957242397310579 22.6821456857825510 O
atom 1.8577781240071263 2.6295296519177609 23.0666852016204444 O
atom 3.7155646516825254 1.8436179912310395 25.0563460370025766 O
atom 1.8577789080722433 1.4816616710703152 20.6924341039890365 O
atom 3.7155662897836539 3.3693250949224733 21.5612326601284536 O
atom 1.8577783047848833 6.3997811355338996 24.1875558766292613 O
atom 3.7155593840119829 1.5576680384289032 39.3325019819327366 V
atom 3.7155602909135901 4.6337517701911137 38.2704916076481041 V
atom 3.7155615972275116 5.7629786321866243 34.8784035360514864 V
atom 1.8577743856491604 3.3361408885928769 33.6400634337901963 V
atom 3.7155607003229520 2.6869003271257101 35.9404242467287389 V
atom 1.8577752925329420 6.4122016612177140 32.5780912744412987 V
atom 3.7155604525639960 6.4270926114419096 38.6660451965283585 O
atom 1.8577718756528963 1.8041889227959966 39.7594225992148509 O
atom 3.7155601279982586 2.5901212646606186 37.7697154419493302 O
atom 1.8577727497152756 4.4777831927591105 38.6384973775135379 O
atom 3.7155605286739997 0.8935324366228468 35.5448549865989420 O
atom 1.8577744093660691 1.7616963689997138 32.9736374631942510 O
atom 3.7155616472792032 3.5826367911613426 34.0670034067572161 O
atom 1.8577743455616003 5.5164422033480456 34.4515429225951095 O
atom 3.7155608732369991 4.7305305426613247 36.4412037579772488 O
atom 1.8577751296267175 4.3685742225006008 32.0772918249637087 O
atom 3.7155625113381276 6.2562376463527585 32.9460903811031258 O
atom 1.8577734815150904 2.8428210864552041 35.5724135976039264 O
