#===============================================================================
# Created using the Atomic Simulation Environment (ASE)

# Mon Mar 23 14:01:48 2026

#=======================================================
lattice_vector 13.0550062955565522 0.0000000000000000 0.0000000000000000 
lattice_vector -0.0000004316329117 5.5790402700022366 0.0000000000000000 
lattice_vector 0.0000000000000000 0.0000000000000000 45.6715858346696422 
atom 6.5273170469529784 4.1842832059940598 16.3078266334590936 V
atom 6.5273098205675968 0.0002059679047788 15.0000000000000000 O
atom 6.5272373422882355 0.0001992241689707 17.6155532150146108 O
atom 4.5716842389432299 4.1844862809842924 16.3078599142705478 O
atom 8.4828422398078995 4.1848008907648682 16.3080591050049506 O
atom 13.0549894515925278 2.7894601114963007 19.5714979174475303 V
atom 6.5273149469899154 1.3947425259908421 16.3078289562815115 V
atom 6.5273103925317146 2.7892630776347662 15.0003025811850534 O
atom 6.5272156910106114 2.7892554543699561 17.6153299844777891 O
atom 4.5718504724890074 1.3945280008421193 16.3080187480936694 O
atom 8.4826813735285445 1.3942584909119666 16.3078923220035215 O
atom 3.2637739877657017 5.5790192608256461 16.3080169852614212 V
atom 3.2636716023635728 4.1844862562754743 19.5717444414916244 V
atom 3.2636006443779868 0.0000363181568426 18.2639500162761621 O
atom 1.3073705926832015 4.1855988413035101 19.5717298222758416 O
atom 5.2197897966674720 4.1853523912568829 19.5717469564214710 O
atom 3.2636736706958951 2.7895029908322964 16.3080074567860294 V
atom 3.2636679962474875 1.3945387262644060 19.5717555108571339 V
atom 3.2634821396444740 2.7894604679224271 18.2642118540427489 O
atom 1.3074380083533121 1.3934992912781619 19.5717574361635229 O
atom 5.2197203731444786 1.3937236412785918 19.5717208868915904 O
atom 9.7911515606768678 5.5790278909194813 16.3079111947550928 V
atom 9.7912574102286136 0.0004627477923623 18.2643580812391306 O
atom 11.7477031016111617 4.1856183112093284 19.5718035331503941 O
atom 9.7912422968041657 2.7895132809342664 16.3078942208553244 V
atom 9.7913808847380395 2.7889715076538111 18.2645150052697716 O
atom 6.5274240285212715 0.0000502512655708 19.5717536249024704 V
atom 0.0000996690537081 4.1845641958900650 16.3079451312763588 V
atom 0.0000766955624022 0.0003104078680245 15.0000433251034799 O
atom 0.0002303986282692 0.0003077737564555 17.6160178136124657 O
atom 11.0995070833721030 4.1848799507921806 16.3080770395151688 O
atom 1.9558064477972590 4.1845693910240245 16.3077738872056344 O
atom 0.0001018258818497 1.3944736658886310 16.3079455020004502 V
atom 0.0000810142087047 2.7891398871850721 15.0008067700082783 O
atom 0.0002482410243946 2.7891397846945503 17.6149723238386713 O
atom 11.0996487739485552 1.3941732609436996 16.3079079094189936 O
atom 1.9556584360196954 1.3944387108794267 16.3079327414154989 O
atom 13.0549676084866171 0.0000566911910248 19.5718371625898229 V
atom 13.0547922775549505 4.1842763966012884 22.8356106439876854 V
atom 13.0547850511695636 0.0001991585120077 21.5277840105285847 O
atom 13.0547125728902085 0.0001924147761996 24.1433372255431991 O
atom 11.0991594695451958 4.1844794715915210 22.8356439247991361 O
atom 1.9553111748533150 4.1847940813720976 22.8358431155335353 O
atom 6.5274583866379423 2.7894533021035297 26.0992819279761186 V
atom 13.0547901775918884 1.3947357165980709 22.8356129668100962 V
atom 13.0547856231336858 2.7892562682419948 21.5280865917136381 O
atom 13.0546909216125844 2.7892486449771852 24.1431139950063773 O
atom 11.0993257030909831 1.3945211914493483 22.8358027586222576 O
atom 1.9551503085739612 1.3942516815191957 22.8356763325321097 O
atom 9.7912492183676800 5.5790124514328756 22.8358009957900094 V
atom 9.7911468329655484 4.1844794468827029 26.0995284520202127 V
atom 9.7910758749799598 0.0000295087640715 24.7917340268047539 O
atom 3.2636090027494826 0.0000356045070024 20.8794079841856117 O
atom 7.8348458232851685 4.1855920319107387 26.0995138328044298 O
atom 11.7472650272694406 4.1853455818641114 26.0995309669500557 O
atom 9.7911489012978663 2.7894961814395254 22.8357914673146176 V
atom 9.7911432268494600 1.3945319168716350 26.0995395213857222 V
atom 9.7909573702464421 2.7894536585296561 24.7919958645713336 O
atom 3.2635526959969172 2.7894619046370024 20.8792636740941475 O
atom 7.8349132389552816 1.3934924818853909 26.0995414466921112 O
atom 11.7471956037464516 1.3937168318858209 26.0995048974201787 O
atom 3.2636204957222854 5.5790210815267098 22.8356952052836846 V
atom 9.7912189438989685 4.1844529561010830 19.5719394333222709 V
atom 3.2637263452740299 0.0004559383995911 24.7921420917677153 O
atom 9.7913247274936754 0.0004531442812932 20.8796616878563519 O
atom 7.8349178989075794 4.1853718311470711 19.5719047815977234 O
atom 5.2201720366565825 4.1856115018165569 26.0995875436789859 O
atom 3.2637112318495842 2.7895064715414950 22.8356782313839126 V
atom 9.7912244170714917 1.3944950861057881 19.5719329805918925 V
atom 3.2638498197834598 2.7889646982610401 24.7922990157983598 O
atom 9.7913685968609272 2.7889629645357252 20.8793793711273814 O
atom 7.8349966283709005 1.3936891011586472 19.5718912846948427 O
atom 11.7476306727618471 1.3934653811779980 19.5718366267687607 O
atom 13.0548992591232444 0.0000434418727997 26.0995376354310586 V
atom 6.5275748996556775 4.1845573864972936 22.8357291418049471 V
atom 6.5275519261643744 0.0003035984752533 21.5278273356320682 O
atom 6.5277056292302422 0.0003009643636844 24.1438018241410504 O
atom 4.5719760184175167 4.1848731413994091 22.8358610500437536 O
atom 8.4832816783992318 4.1845625816312539 22.8355578977342226 O
atom 6.5274139869525545 2.7894462210552091 19.5719895474122012 V
atom 6.5275770564838247 1.3944668564958598 22.8357295125290385 V
atom 6.5275562448106745 2.7891330777923007 21.5285907805368666 O
atom 6.5277234716263699 2.7891329753017793 24.1427563343672595 O
atom 4.5721177089939742 1.3941664515509287 22.8356919199475854 O
atom 8.4831336666216650 1.3944319014866557 22.8357167519440871 O
atom 6.5274365435320423 0.0000498817982536 26.0996211731184111 V
atom 6.5272612126003704 4.1842695872085169 29.3633946545162701 V
atom 6.5272539862149772 0.0001923491192365 28.0555680210571730 O
atom 6.5271815079356275 0.0001856053834284 30.6711212360717838 O
atom 4.5716284045906166 4.1844726621987505 29.3634279353277208 O
atom 8.4827864054552968 4.1847872719793262 29.3636271260621271 O
atom 6.5272591126373056 1.3947289072052997 29.3633969773386809 V
atom 6.5272545581791075 2.7892494588492243 28.0558706022422264 O
atom 6.5271598566580069 2.7892418355844142 30.6708980055349656 O
atom 4.5717946381363994 1.3945143820565771 29.3635867691508423 O
atom 8.4826255391759364 1.3942448721264245 29.3634603430606944 O
atom 3.2637181534130977 5.5790056420401042 29.3635850063186012 V
atom 9.7910842333514498 0.0000287951142312 27.4071919947141964 O
atom 3.2636178363432791 2.7894893720467544 29.3635754778432059 V
atom 9.7910279265988898 2.7894550952442319 27.4070476846227358 O
atom 9.7910957263242615 5.5790142721339384 29.3634792158122693 V
atom 3.2636878789443831 4.1844461467083125 26.0997234438508556 V
atom 3.2637936625390958 0.0004463348885220 27.4074456983849402 O
atom 1.3073868339530026 4.1853650217542997 26.0996887921263081 O
atom 9.7911864624515577 2.7894996621487245 29.3634622419125009 V
atom 3.2636933521169058 1.3944882767130169 26.0997169911204807 V
atom 3.2638375319063542 2.7889561551429547 27.4071633816559697 O
atom 1.3074655634163213 1.3936822917658760 26.0996752952234310 O
atom 5.2200996078072706 1.3934585717852268 26.0996206372973489 O
atom 0.0000438347010978 4.1845505771045222 29.3635131523335318 V
atom 0.0000208612098006 0.0002967890824822 28.0556113461606564 O
atom 0.0001745642756619 0.0002941549709132 30.6715858346696422 O
atom 11.0994512490194897 4.1848663320066386 29.3636450605723383 O
atom 1.9557506134446487 4.1845557722384825 29.3633419082628109 O
atom 13.0548892175545266 2.7894394116624386 26.0997735579407930 V
atom 0.0000459915292365 1.3944600471030886 29.3635135230576338 V
atom 0.0000251798560916 2.7891262683995302 28.0563747910654513 O
atom 0.0001924066717931 2.7891261659090083 30.6705403448958549 O
atom 11.0995929395959472 1.3941596421581575 29.3634759304761701 O
atom 1.9556026016670851 1.3944250920938845 29.3635007624726683 O
