#===============================================================================
# Created using the Atomic Simulation Environment (ASE)

# Mon Mar 23 14:01:46 2026

#=======================================================
lattice_vector 10.7863573876396668 0.0000000000000000 0.0000000000000000 
lattice_vector 2.8859864345801114 10.3931385144755009 0.0000000000000000 
lattice_vector 0.0000000000000000 0.0000000000000000 38.4835968982981171 
atom 7.9011069752626648 6.0060953693036794 16.0606052273146389 V
atom 12.0404066494795323 9.1528148913285392 15.0002909491422827 V
atom 7.9710741417540110 0.3166580002703583 15.0001581964800472 O
atom 2.4378638399142232 7.5963245804486919 15.0000484484338976 O
atom 10.5275565346277169 8.0028263471029515 15.2112676871722634 O
atom 9.0846024378233050 2.8062170268119533 15.2108831803885884 O
atom 10.5973918293994647 3.9560831689382971 15.0004828611484591 V
atom 9.4130227266113433 5.5130372620266082 15.0012742786300812 O
atom 0.9943170581977332 2.3985262807937140 15.0010799841690883 O
atom 5.1349774436718052 8.0030193737748192 15.2108241342719808 O
atom 2.5078704029587491 6.0060356469400960 16.0606230283537705 V
atom 6.6473234222945026 9.1526744995791436 15.0006313384270271 V
atom 2.5770635642115711 0.3165600466003800 15.0012169490506828 O
atom 7.8306718258990484 7.5947231062666338 15.0013515070342649 O
atom 1.0648567091909305 0.8095173379302039 16.0605558482290220 V
atom 5.2046247250649680 3.9561831228475550 15.0001543321593118 V
atom 4.0214171527715994 5.5132274120217870 15.0000000000000000 O
atom 6.3880397921911776 2.3991610294265837 15.0000391251788336 O
atom 3.6917917095395389 2.8062226506647363 15.2116889078785462 O
atom 5.0154572226756775 3.8125607513189803 20.3017279229465650 V
atom 9.1547568968925468 6.9592802733438388 19.2414136447742088 V
atom 9.0847875536304326 6.9061025166088745 17.3312804607162327 O
atom 10.6676440378364834 8.1094059824155096 19.0306170210998538 O
atom 7.9714108237471430 8.5162618967611596 19.2412808921119733 O
atom 10.3385714749669066 5.4027899624639923 19.2411711440658237 O
atom 6.4580297723447844 4.9091085449742407 18.1810348918960791 V
atom 10.5975711510121684 8.0560424167552984 17.1208694241777089 V
atom 7.6419067820407331 5.8092917291182529 19.4523903828041931 O
atom 12.1100808998621812 9.2059052668293049 16.9102632949793517 O
atom 9.4142056697944909 9.6127978403596472 17.1211558119584488 O
atom 11.7806691889513075 6.4992068552461779 17.1212785509838632 O
atom 7.9013056256030394 10.1058605987373920 18.1812748970626892 V
atom 9.1547836286822282 2.8594757656446008 17.1207121163647749 V
atom 6.1989526852363230 0.6126824088272540 19.4520058760205181 O
atom 10.6674533176093203 4.0094146920481872 16.9101532744884331 O
atom 7.9714746242451691 4.4173249069489255 17.1198568437922951 O
atom 10.3389981295592648 1.3025445774350100 17.1200553244001235 O
atom 6.4580794613815256 0.8095665640348012 16.0607044204377836 V
atom 7.7117420768124783 1.7625485509535976 19.2416055567803888 V
atom 7.6418147925991828 1.7096266039270493 17.3316876117330274 O
atom 9.2244586281806349 2.9125887559880068 19.0306921958761315 O
atom 6.5273729740243569 3.3195026440419086 19.2423969742620109 O
atom 8.8950246932504164 0.2049916628090140 19.2422026798010144 O
atom 11.8513555497195817 4.9093460378102742 18.1811996042086506 V
atom 5.2047256794866090 8.0560864505481700 17.1208641174547296 V
atom 2.2493276910848219 5.8094847557901206 19.4519468299039069 O
atom 6.7177659871850324 9.2060955946173468 16.9100006974270407 O
atom 4.0213043375096182 9.6138502425376000 17.1201430858274541 O
atom 6.3892326453750909 6.4989178872170408 17.1198899331309136 O
atom 10.4085780380114361 3.8125010289553969 20.3017457239856931 V
atom 3.7616736697075179 6.9591398815944459 19.2417540340589497 V
atom 3.6917992744226553 6.9058281386140878 17.3322562718516018 O
atom 5.2742743688930434 8.1087660837972404 19.0311466530932414 O
atom 2.5774002462046983 8.5161639430911809 19.2423396446826054 O
atom 4.9450220733120700 5.4011884882819361 19.2424742026661981 O
atom 11.8515507788237198 9.0091212344210057 20.3016785438609482 V
atom 2.3189749724779816 1.7626485048628555 19.2412770277912379 V
atom 2.2488592889824024 1.7093792874433662 17.3312292150765330 O
atom 3.8321097248247642 2.9126981061848598 19.0308363538085850 O
atom 1.1357674001846292 3.3196927940370871 19.2411226956319297 O
atom 3.5023900396041978 0.2056264114418839 19.2411618208107633 O
atom 13.2944482646126101 10.1059560800102162 18.1813648644624593 V
atom 3.7615062220384661 2.8591901746001249 17.1211495286004656 V
atom 0.8061419569525550 0.6126880326800376 19.4528116035104759 O
atom 5.2739568916196173 4.0086995235467429 16.9101188527380977 O
atom 2.5779618133144271 4.4158031458708056 17.1213534690149665 O
atom 4.9449055586626116 1.3023447530563521 17.1211678104154394 O
atom 6.2691071443055577 4.7657456553591402 23.4825363404061349 V
atom 6.1991378010434524 4.7125678986241759 21.5724031563481553 O
atom 7.7819942852494988 5.9158713644308083 23.2717397167317763 O
atom 5.0857610711601637 6.3227272787764592 23.4824035877438995 O
atom 7.4529217223799265 3.2092553444792911 23.4822938396977534 O
atom 3.5723800197577993 2.7155739269895398 22.4221575875280017 V
atom 7.7119213984251793 5.8625077987705989 21.3619921198096350 V
atom 9.2244311472751974 7.0123706488446063 21.1513859906112778 O
atom 6.5285559172075063 7.4192632223749477 21.3622785075903714 O
atom 8.8950194363643238 4.3056722372614793 21.3624012466157929 O
atom 5.0156558730160556 7.9123259807526916 22.4223975926946189 V
atom 6.2691338760952426 0.6659411476599012 21.3618348119966974 V
atom 7.7818035650223321 1.8158800740634868 21.1512759701203592 O
atom 5.0858248716581889 2.2237902889642243 21.3609795394242248 O
atom 10.3393348115523942 9.5021484739258106 21.3611780200320460 O
atom 6.4584161433746479 9.0091704605256027 20.3018271160697097 V
atom 7.7120787588056103 9.9621524474443994 23.4827282524123149 V
atom 7.6421514745923051 9.9092305004178503 21.5728103073649535 O
atom 6.3388088755936458 0.7190541380033070 23.2718148915080612 O
atom 3.6417232214373771 1.1259680260572087 23.4835196698939406 O
atom 8.8953613752435388 8.4045955592998158 23.4833253754329441 O
atom 8.9657057971326068 2.7158114198255738 22.4223222998405767 V
atom 2.3190759268996253 5.8625518325634696 21.3619868130866486 V
atom 3.8321162345980437 7.0125609766326491 21.1511233930589633 O
atom 11.9220119725623093 7.4203156245528996 21.3612657814593803 O
atom 3.5035828927881121 4.3053832692323413 21.3610126287628397 O
atom 11.6623813047602045 4.7656052636097428 23.4828767296908829 V
atom 11.5925069094753379 4.7122935206293883 21.5733789674835243 O
atom 2.3886246163060592 5.9152314658125400 23.2722693487251711 O
atom 10.4781078812573867 6.3226293251064813 23.4834623403145351 O
atom 2.0593723207250805 3.2076538702972348 23.4835968982981207 O
atom 13.1056690421107813 9.9622524013536573 23.4823997234231676 V
atom 13.0355533586151964 9.9089831839341667 21.5723519107084591 O
atom 0.9464599722377849 0.7191634882001601 23.2719590494405146 O
atom 9.0364750352373022 1.1261581760523878 23.4822453912638558 O
atom 3.5027267215973152 8.4052303079326851 23.4822845164426859 O
atom 10.4087985120256210 7.9124214620255167 22.4224875600943854 V
atom 0.8758564694514872 0.6656555566154266 21.3622722242323881 V
atom 2.3883071390326283 1.8151649055620429 21.1512415483700202 O
atom 10.4786694483671088 2.2222685278861061 21.3624761646468926 O
atom 4.9452422406557330 9.5019486495471526 21.3622905060473620 O
