#===============================================================================
# Created using the Atomic Simulation Environment (ASE)

# Mon Mar 23 14:01:39 2026

#=======================================================
lattice_vector 11.9275710066048966 0.0000000000000000 0.0000000000000000 
lattice_vector 1.9216468690445472 7.1858371422673297 0.0000000000000000 
lattice_vector 0.0000000000000000 0.0000000000000000 36.1591854690178707 
atom 7.7557087381066632 0.4382967347049065 15.0000000000000000 V
atom 10.1449841849375328 1.3421349104446696 16.6244532770855038 V
atom 7.7463384756515419 5.3820631255033389 16.3544182305194994 V
atom 4.1718424711419280 5.3253306782579291 16.3886897127824049 V
atom 1.7919153761866540 1.3989095403726486 16.5901562424806990 V
atom 4.1812209813618253 0.3815572206254761 15.0342757629676633 V
atom 10.3022208271531284 2.9082877539301060 15.6783519936793674 O
atom 8.0896875998661422 1.0885211667130392 16.7776595681310461 O
atom 9.8016413622379055 5.6356816558893588 16.2012090362087626 O
atom 7.8777857473422532 7.1795292412834151 15.2685823365399429 O
atom 9.7472279406306335 0.3480737098333294 15.0545029238518389 O
atom 4.3384550294503272 3.8689139025464394 17.2685001874674811 O
atom 1.6253325405017189 2.8553346118540412 15.7103407563830295 O
atom 2.1259216653408242 0.1279404731640856 15.1874838685439322 O
atom 5.9714238585207253 5.7699276352444109 16.1201120382553320 O
atom 11.9199367069159727 0.9543173454301105 16.8587310636586984 O
atom 2.1803546036169861 5.4155695137112847 16.3341772378761867 O
atom 3.7834566964265384 1.3087109270624897 16.6446444311734965 O
atom 10.1356464770024797 6.2859155913514879 17.9788628633742498 V
atom 7.7557072356029684 2.3595057085495492 18.1803226056436245 V
atom 10.1449826824338381 3.2633438842893141 19.8047758827291283 V
atom 5.8246901041032988 0.1174349570806536 19.5347408361631238 V
atom 2.2501940995936875 0.0607025098352449 19.5690123184260294 V
atom 1.7919138736829603 3.3201185142172931 19.7704788481243234 V
atom 4.1812194788581305 2.3027661944701201 18.2145983686112878 V
atom 1.7825884365790685 6.3426849342245015 17.9445690343229600 V
atom 10.3022193246494318 4.8294967277747505 18.8586745993229918 O
atom 7.5890960333093460 3.8159415115744419 17.3005006367004732 O
atom 8.0896860973624491 3.0097301405576844 19.9579821737746705 O
atom 7.8799929906896660 0.3710534874666735 19.3815316418523871 O
atom 11.9351867606001800 6.7305005865943288 17.7102924031641003 O
atom 5.9561373757940128 1.9149010728607296 18.4489049421835638 O
atom 8.1441108608267356 6.3761587056331823 17.9243478153425784 O
atom 9.7472264381269422 2.2692826836779738 18.2348255294954633 O
atom 4.3384535269466333 5.7901228763910844 20.4488227931111055 O
atom 1.6253310379980248 4.7765435856986862 18.8906633620266540 O
atom 2.1259201628371298 2.0491494470087299 18.3678064741875566 O
atom 3.8379240160539507 6.5963126036880073 17.7913543308468327 O
atom 4.0497754869724849 0.5052994668217258 19.3004346438989565 O
atom 11.9199352044122797 2.8755263192747567 20.0390536693023229 O
atom 0.2587062320687443 0.1509413452885991 19.5144998435198112 O
atom 3.7834551939228431 3.2299199009071340 19.8249670368171174 O
atom 8.2139981054542375 1.0212874229288027 21.1591854690178742 V
atom 11.7885110716357229 1.0780567658018165 21.1248916399665809 V
atom 7.5890945308056521 5.7371504854190860 20.4808232423440977 O
atom 10.0135383890519396 1.4658724181716400 20.8906150088077247 O
atom 6.2224624892784925 1.1115305372104942 21.1046704209862064 O
atom 1.9162756445057085 1.3316844352653221 20.9716769364904607 O
