#===============================================================================
# Created using the Atomic Simulation Environment (ASE)

# Mon Mar 23 14:01:46 2026

#=======================================================
lattice_vector 10.7863573876396668 0.0000000000000000 0.0000000000000000 
lattice_vector 2.8859864345801114 10.3931385144755009 0.0000000000000000 
lattice_vector 0.0000000000000000 0.0000000000000000 34.2424742026661875 
atom 5.0154572226756775 3.8125607513189803 16.0606052273146354 V
atom 9.1547568968925468 6.9592802733438388 15.0002909491422791 V
atom 7.9714108237471430 8.5162618967611596 15.0001581964800437 O
atom 10.3385714749669066 5.4027899624639923 15.0000484484338941 O
atom 7.6419067820407331 5.8092917291182529 15.2112676871722634 O
atom 6.1989526852363230 0.6126824088272540 15.2108831803885884 O
atom 7.7117420768124783 1.7625485509535976 15.0004828611484591 V
atom 6.5273729740243569 3.3195026440419086 15.0012742786300812 O
atom 8.8950246932504164 0.2049916628090140 15.0010799841690847 O
atom 2.2493276910848219 5.8094847557901206 15.2108241342719772 O
atom 10.4085780380114361 3.8125010289553969 16.0606230283537634 V
atom 3.7616736697075179 6.9591398815944459 15.0006313384270200 V
atom 2.5774002462046983 8.5161639430911809 15.0012169490506757 O
atom 4.9450220733120700 5.4011884882819361 15.0013515070342685 O
atom 11.8515507788237198 9.0091212344210057 16.0605558482290185 V
atom 2.3189749724779816 1.7626485048628555 15.0001543321593083 V
atom 1.1357674001846292 3.3196927940370871 15.0000000000000000 O
atom 3.5023900396041978 0.2056264114418839 15.0000391251788336 O
atom 0.8061419569525550 0.6126880326800376 15.2116889078785462 O
atom 6.2691071443055577 4.7657456553591402 19.2414136447742052 V
atom 6.1991378010434524 4.7125678986241759 17.3312804607162256 O
atom 7.7819942852494988 5.9158713644308083 19.0306170210998467 O
atom 5.0857610711601637 6.3227272787764592 19.2412808921119698 O
atom 7.4529217223799265 3.2092553444792911 19.2411711440658237 O
atom 3.5723800197577993 2.7155739269895398 18.1810348918960720 V
atom 7.7119213984251793 5.8625077987705989 17.1208694241777053 V
atom 9.2244311472751974 7.0123706488446063 16.9102632949793481 O
atom 6.5285559172075063 7.4192632223749477 17.1211558119584417 O
atom 8.8950194363643238 4.3056722372614793 17.1212785509838632 O
atom 5.0156558730160556 7.9123259807526916 18.1812748970626892 V
atom 6.2691338760952426 0.6659411476599012 17.1207121163647678 V
atom 7.7818035650223321 1.8158800740634868 16.9101532744884295 O
atom 5.0858248716581889 2.2237902889642243 17.1198568437922951 O
atom 10.3393348115523942 9.5021484739258106 17.1200553244001163 O
atom 6.4584161433746479 9.0091704605256027 16.0607044204377800 V
atom 7.7120787588056103 9.9621524474443994 19.2416055567803852 V
atom 7.6421514745923051 9.9092305004178503 17.3316876117330239 O
atom 6.3388088755936458 0.7190541380033070 19.0306921958761315 O
atom 3.6417232214373771 1.1259680260572087 19.2423969742620109 O
atom 8.8953613752435388 8.4045955592998158 19.2422026798010144 O
atom 8.9657057971326068 2.7158114198255738 18.1811996042086470 V
atom 2.3190759268996253 5.8625518325634696 17.1208641174547189 V
atom 3.8321162345980437 7.0125609766326491 16.9100006974270336 O
atom 11.9220119725623093 7.4203156245528996 17.1201430858274506 O
atom 3.5035828927881121 4.3053832692323413 17.1198899331309100 O
atom 11.6623813047602045 4.7656052636097428 19.2417540340589532 V
atom 11.5925069094753379 4.7122935206293883 17.3322562718515947 O
atom 2.3886246163060592 5.9152314658125400 19.0311466530932414 O
atom 10.4781078812573867 6.3226293251064813 19.2423396446826054 O
atom 2.0593723207250805 3.2076538702972348 19.2424742026661910 O
atom 13.1056690421107813 9.9622524013536573 19.2412770277912379 V
atom 13.0355533586151964 9.9089831839341667 17.3312292150765295 O
atom 0.9464599722377849 0.7191634882001601 19.0308363538085850 O
atom 9.0364750352373022 1.1261581760523878 19.2411226956319261 O
atom 3.5027267215973152 8.4052303079326851 19.2411618208107562 O
atom 10.4087985120256210 7.9124214620255167 18.1813648644624557 V
atom 0.8758564694514872 0.6656555566154266 17.1211495286004585 V
atom 2.3883071390326283 1.8151649055620429 16.9101188527380906 O
atom 10.4786694483671088 2.2222685278861061 17.1213534690149629 O
atom 4.9452422406557330 9.5019486495471526 17.1211678104154323 O
