#===============================================================================
# Created using the Atomic Simulation Environment (ASE)

# Mon Mar 23 14:01:47 2026

#=======================================================
lattice_vector 9.2314623421363340 0.0000000000000000 0.0000000000000000 
lattice_vector 0.0003972008493561 9.2315018135911977 0.0000000000000000 
lattice_vector 0.0000000000000000 0.0000000000000000 45.3437232649684177 
atom 0.0000395610600712 0.0000140890291975 19.1855616199809447 V
atom 2.3078034446114764 2.3079167592991627 15.0013385100002079 V
atom 1.3830064678100387 1.3831737470360543 19.1854171123335178 O
atom 3.2324743768759565 3.2326566691499776 19.1854211276810851 O
atom 0.9250184650741943 3.6908142179842871 15.0011354349752608 O
atom 3.6907002497496242 0.9252833081373033 15.0008208249868993 O
atom 9.2316726033302015 9.2312585225328334 16.3961582000310671 V
atom 2.3078056599164332 2.3079219442253343 17.7908791899994867 V
atom 1.3832187772194595 1.3833852375424467 16.3963600022894163 O
atom 3.2322991586248624 3.2325120779934062 16.3963648977144771 O
atom 0.9252503802449344 3.6908110380099992 17.7910937149502288 O
atom 3.6904706250069688 0.9252811881498805 17.7913632250122618 O
atom 2.3081052035792449 6.9236009938551044 15.0011320549954945 V
atom 1.3832859382780571 5.9989258221082524 19.1855833573245569 O
atom 3.2327436546646870 7.8482842344408308 19.1855813426855093 O
atom 0.9248138733787727 8.3069370833439979 15.0000194699827070 O
atom 3.6912587061601414 5.5403856171363346 15.0002659200114614 O
atom 0.0002425580143944 4.6158445907660388 16.3961187249725882 V
atom 2.3081125390846853 6.9236134287112296 17.7910795849934935 V
atom 1.3833852388389731 5.9991927050096798 16.3961592072873543 O
atom 3.2325997381008360 7.8482199525743948 16.3961550427075622 O
atom 0.9248831282909523 8.3069109970801449 17.7921190199777328 O
atom 3.6911932422858298 5.5404183337243467 17.7918946700154272 O
atom 6.9238069065203121 2.3079567134242045 15.0011653549664796 V
atom 5.9992156827454881 1.3833548267261075 19.1851569272633711 O
atom 7.8486059358880276 3.2325624005108904 19.1851638026465707 O
atom 5.5405013860368371 3.6912786632374672 15.0002464799566404 O
atom 8.3071213013956839 0.9243846832145179 15.0000000000000000 O
atom 4.6161385567874742 9.2314691282871628 16.3961084349887400 V
atom 6.9238082716222173 2.3079503384097890 17.7911232249669879 V
atom 5.9994118981295168 1.3833764176327454 16.3966481672397428 O
atom 7.8484352658011680 3.2323296993103137 16.3966539826881501 O
atom 5.5405495701059158 3.6912155073858286 17.7919292099576225 O
atom 8.3070955485244440 0.9244613589998943 17.7921529299952894 O
atom 4.6158816718979132 4.6157345177113003 19.1855680599935425 V
atom 6.9240190735289113 6.9235493799172749 15.0010575199805931 V
atom 5.9991578058428114 5.9987643490546771 19.1853126723250789 O
atom 7.8490835378759467 7.8483852113189023 19.1853125776089577 O
atom 5.5413278249635161 8.3064925865748336 15.0007417649408801 O
atom 8.3067587998194217 5.5405020621851353 15.0010523250252650 O
atom 4.6160393404176991 4.6159063793597923 16.3961720899593182 V
atom 6.9240229187995821 6.9235501748625810 17.7911480499801229 V
atom 5.9996986522308315 5.9992990625156386 16.3964831922131680 O
atom 7.8483548065403292 7.8476312820922329 16.3964805677629712 O
atom 5.5413104756004987 8.3062748620367906 17.7914484549642680 O
atom 8.3067685297897818 5.5407211070078484 17.7911830050026367 O
atom 0.0000439815243607 0.0000178988777078 24.7646018899801490 V
atom 2.3078078650757656 2.3079205691476727 20.5803787799994069 V
atom 1.3830108882743284 1.3831775568845646 24.7644573823327221 O
atom 3.2324787973402462 3.2326604789984876 24.7644613976802859 O
atom 0.9250228855384838 3.6908180278327976 20.5801757049744616 O
atom 3.6907046702139144 0.9252871179858136 20.5798610949861001 O
atom 9.2316770237944894 9.2312623323813430 21.9751984700302678 V
atom 2.3078100803807224 2.3079257540738443 23.3699194599986839 V
atom 1.3832231976837492 1.3833890473909574 21.9754002722886170 O
atom 3.2323035790891521 3.2325158878419162 21.9754051677136744 O
atom 0.9252548007092242 3.6908148478585097 23.3701339849494296 O
atom 3.6904750454712585 0.9252849979983910 23.3704034950114625 O
atom 0.0003225918625578 4.6157821440164115 19.1856427249700161 V
atom 2.3081096240435346 6.9236048037036158 20.5801723249946953 V
atom 1.3832903587423466 5.9989296319567629 24.7646236273237577 O
atom 3.2327480751289768 7.8482880442893412 24.7646216126847101 O
atom 0.9248182938430624 8.3069408931925075 20.5790597399819077 O
atom 3.6912631266244311 5.5403894269848442 20.5793061900106622 O
atom 0.0002469784786840 4.6158484006145493 21.9751589949717889 V
atom 2.3081169595489750 6.9236172385597392 23.3701198549926978 V
atom 1.3833896593032631 5.9991965148581912 21.9751994772865586 O
atom 3.2326041585651262 7.8482237624229061 21.9751953127067594 O
atom 0.9248875487552418 8.3069148069286562 23.3711592899769336 O
atom 3.6911976627501195 5.5404221435728571 23.3709349400146280 O
atom 4.6156915628061137 0.0000452307395489 19.1856340949865398 V
atom 6.9238113269846009 2.3079605232727149 20.5802056249656786 V
atom 5.9992201032097778 1.3833586365746176 24.7641971972625683 O
atom 7.8486103563523173 3.2325662103593999 24.7642040726457715 O
atom 5.5405058065011268 3.6912824730859772 20.5792867499558412 O
atom 8.3071257218599754 0.9243884930630284 20.5790402699992008 O
atom 4.6161429772517639 9.2314729381356724 21.9751487049879444 V
atom 6.9238126920865071 2.3079541482582995 23.3701634949661923 V
atom 5.9994163185938056 1.3833802274812554 21.9756884372389436 O
atom 7.8484396862654577 3.2323335091588237 21.9756942526873509 O
atom 5.5405539905702064 3.6912193172343386 23.3709694799568268 O
atom 8.3070999689887319 0.9244651688484047 23.3711931999944902 O
atom 4.6158860923622038 4.6157383275598107 24.7646083299927398 V
atom 6.9240234939932011 6.9235531897657845 20.5800977899797957 V
atom 5.9991622263071012 5.9987681589031867 24.7643529423242761 O
atom 7.8490879583402355 7.8483890211674145 24.7643528476081620 O
atom 5.5413322454278049 8.3064963964233431 20.5797820349400808 O
atom 8.3067632202837114 5.5405058720336458 20.5800925950244675 O
atom 4.6160437608819880 4.6159101892083028 21.9752123599585190 V
atom 6.9240273392638718 6.9235539847110923 23.3701883199793237 V
atom 5.9997030726951204 5.9993028723641491 21.9755234622123723 O
atom 7.8483592270046190 7.8476350919407434 21.9755208377621756 O
atom 5.5413148960647884 8.3062786718853019 23.3704887249634723 O
atom 8.3067729502540697 5.5407249168563597 23.3702232750018410 O
atom 0.0000484019886503 0.0000217087262182 30.3436421599793498 V
atom 2.3078122855400554 2.3079243789961832 26.1594190499986112 V
atom 1.3830153087386179 1.3831813667330752 30.3434976523319229 O
atom 3.2324832178045360 3.2326642888469985 30.3435016676794831 O
atom 0.9250273060027733 3.6908218376813084 26.1592159749736624 O
atom 3.6907090906782041 0.9252909278343240 26.1589013649853008 O
atom 9.2316814442587809 9.2312661422298525 27.5542387400294686 V
atom 2.3078145008450122 2.3079295639223552 28.9489597299978882 V
atom 1.3832276181480387 1.3833928572394676 27.5544405422878178 O
atom 3.2323079995534418 3.2325196976904267 27.5544454377128787 O
atom 0.9252592211735137 3.6908186577070201 28.9491742549486304 O
atom 3.6904794659355473 0.9252888078469012 28.9494437650106633 O
atom 0.0003270123268474 4.6157859538649220 24.7646829949692204 V
atom 2.3081140445078243 6.9236086135521253 26.1592125949938961 V
atom 1.3832947792066366 5.9989334418052724 30.3436638973229584 O
atom 3.2327524955932661 7.8482918541378517 30.3436618826839108 O
atom 0.9248227143073521 8.3069447030410171 26.1581000099811121 O
atom 3.6912675470887204 5.5403932368333546 26.1583464600098665 O
atom 0.0002513989429736 4.6158522104630597 27.5541992649709897 V
atom 2.3081213800132643 6.9236210484082488 28.9491601249918986 V
atom 1.3833940797675524 5.9992003247067007 27.5542397472857559 O
atom 3.2326085790294159 7.8482275722714157 27.5542355827059602 O
atom 0.9248919692195317 8.3069186167771658 28.9501995599761344 O
atom 3.6912020832144088 5.5404259534213693 28.9499752100138288 O
atom 4.6156959832704025 0.0000490405880592 24.7646743649857406 V
atom 6.9238157474488906 2.3079643331212254 26.1592458949648794 V
atom 5.9992245236740676 1.3833624464231282 30.3432374672617726 O
atom 7.8486147768166070 3.2325700202079113 30.3432443426449723 O
atom 5.5405102269654156 3.6912862829344877 26.1583270199550419 O
atom 8.3071301423242634 0.9243923029115386 26.1580805399983980 O
atom 4.6161473977160536 9.2314767479841819 27.5541889749871416 V
atom 6.9238171125507968 2.3079579581068095 28.9492037649653895 V
atom 5.9994207390580945 1.3833840373297661 27.5547287072381444 O
atom 7.8484441067297466 3.2323373190073341 27.5547345226865517 O
atom 5.5405584110344952 3.6912231270828495 28.9500097499560241 O
atom 8.3071043894530252 0.9244689786969149 28.9502334699936910 O
atom 4.6158905128264927 4.6157421374083212 30.3436485999919405 V
atom 6.9240279144574908 6.9235569996142949 26.1591380599789929 V
atom 5.9991666467713909 5.9987719687516972 30.3433932123234804 O
atom 7.8490923788045253 7.8483928310159250 30.3433931176073628 O
atom 5.5413366658920955 8.3065002062718545 26.1588223049392816 O
atom 8.3067676407480011 5.5405096818821562 26.1591328650236683 O
atom 4.6160481813462777 4.6159139990568132 27.5542526299577197 V
atom 6.9240317597281607 6.9235577945596019 28.9492285899785244 V
atom 5.9997074931594110 5.9993066822126595 27.5545637322115695 O
atom 7.8483636474689087 7.8476389017892538 27.5545611077613728 O
atom 5.5413193165290773 8.3062824817338115 28.9495289949626695 O
atom 8.3067773707183594 5.5407287267048693 28.9492635450010418 O
atom 0.0003314327911370 4.6157897637134324 30.3437232649684212 V
atom 4.6157004037346923 0.0000528504365696 30.3437146349849414 V
