#===============================================================================
# Created using the Atomic Simulation Environment (ASE)

# Mon Mar 23 14:01:40 2026

#=======================================================
lattice_vector 15.1536015195045284 0.0000000000000000 0.0000000000000000 
lattice_vector -0.0000014388224574 3.7155747600000235 0.0000000000000000 
lattice_vector 0.0000000000000000 0.0000000000000000 44.2015081725981958 
atom 6.3849207239103656 3.7155742366754567 16.6227158625936973 V
atom 3.0912096235282993 3.7155742775268252 15.2324554155106142 V
atom 13.2601356048321470 1.8577869394665101 15.8122447333865850 V
atom 9.4279882369233139 1.8577867881117343 16.0446881334847369 O
atom 6.9232927768479442 3.7155744688828731 15.0000000000000000 O
atom 4.5294216002301537 3.7155742621366104 16.3670120575143834 O
atom 0.1052220444123805 1.8577867664688617 16.3756739894105188 O
atom 13.6395422147883778 3.7155743051935870 15.9379356036158022 O
atom 2.7118228888520206 1.8577869118047687 15.1067244299096934 O
atom 5.7136628731961991 1.8577864183105761 19.2632690822523571 V
atom 2.1321962867518223 3.7155736346709496 21.4639790193726832 V
atom 8.5416164783843787 1.8577866165219978 17.6531068709222403 V
atom 3.5569305875887105 3.7155740484636617 18.2328801240181235 V
atom 0.2632153029321533 3.7155740793163621 16.8426087782219440 V
atom 11.8353574410168321 1.8577865256746380 19.0433356573909549 V
atom 13.9920867058742768 3.7155736755223181 20.0737185722896001 V
atom 9.0074111676735988 1.8577863374620029 20.6535078901655673 V
atom 5.1752637997647710 1.8577861861072273 20.8859512902637228 O
atom 2.6705683396894035 3.7155738668783660 19.8412631567789859 O
atom 6.5429707607490162 1.8577867895196665 17.0896785732574337 O
atom 5.5555843366045004 3.7155738654663333 18.7963058629863191 O
atom 7.5691256505568507 1.8577864028481945 19.5189818590402275 O
atom 0.2766971630716071 3.7155736601321037 21.2082752142933693 O
atom 3.9363466535436484 1.8577866541906205 18.3585719638787026 O
atom 8.1622314667007689 3.7155740107988651 17.5273848741713643 O
atom 14.8784550315430675 3.7155738471114206 18.4653048750408360 O
atom 12.3737503299424905 1.8577867578792862 17.4206427669412740 O
atom 11.9934370679937174 3.7155738485197154 19.5102923733571636 O
atom 11.0060991267583574 1.8577861644643550 21.2169371461894976 O
atom 2.1187213157750473 3.7155740738536389 17.0983254720846638 O
atom 9.9798826632915869 1.8577865511365004 18.7876267612923975 O
atom 9.3868177776298314 3.7155737031890799 20.7791987603947881 O
atom 13.6126999711979995 1.8577863098002618 19.9479875866886793 O
atom 1.4609384360376518 1.8577858163060692 24.1045322390313430 V
atom 13.0330733690977993 3.7155730326664425 26.3052421761516690 V
atom 4.2888920412258340 1.8577860145174907 22.4943700277012262 V
atom 14.4578076699346951 3.7155734464591545 23.0741432807971059 V
atom 11.1640923852781366 3.7155734773118554 21.6838719350009299 V
atom 7.5826330038582919 1.8577859236701311 23.8845988141699337 V
atom 9.7393622687157393 3.7155730735178114 24.9149817290685895 V
atom 4.7546867305150586 1.8577857354574963 25.4947710469445532 V
atom 0.9225393626062203 1.8577855841027207 25.7272144470427016 O
atom 13.5714454220353886 3.7155732648738593 24.6825263135579682 O
atom 2.2902463235904693 1.8577861875151596 21.9309417300364196 O
atom 1.3028598994459570 3.7155732634618266 23.6375690197653050 O
atom 3.3164012133983025 1.8577858008436874 24.3602450158192099 O
atom 11.1775742454175919 3.7155730581275965 26.0495383710723516 O
atom 14.8372237358896299 1.8577860521861138 23.1998351206576849 O
atom 3.9095070295422185 3.7155734087943579 22.3686480309503501 O
atom 10.6257305943845175 3.7155732451069134 23.3065680318198183 O
atom 8.1210258927839494 1.8577861558747795 22.2619059237202599 O
atom 7.7407126308351746 3.7155732465152087 24.3515555301361495 O
atom 6.7533746895998039 1.8577855624598480 26.0582003029684834 O
atom 13.0195983981210315 3.7155734718491322 21.9395886288636497 O
atom 5.7271582261330369 1.8577859491319937 23.6288899180713798 O
atom 5.1340933404712876 3.7155731011845727 25.6204619171737704 O
atom 9.3599755340394548 1.8577857077957549 24.7892507434676652 O
atom 12.3618155183836294 1.8577852143015621 28.9457953958103325 V
atom 0.0361676040672832 1.8577854125129840 27.3356331844802085 V
atom 10.2050832327761469 3.7155728444546474 27.9154064375760917 V
atom 6.9113679481195911 3.7155728753073478 26.5251350917799122 V
atom 3.3299085666997410 1.8577853216656244 28.7258619709489231 V
atom 13.1911234059364588 1.8577855855106529 26.7722048868154019 O
atom 12.2037369817919270 3.7155726614573203 28.4788321765442838 O
atom 14.2172782957442880 1.8577851988391803 29.2015081725981922 O
atom 10.5844992987310889 1.8577854501816069 28.0410982774366708 O
atom 14.8103841118882027 3.7155728067898508 27.2099111877293360 O
atom 6.3730061572259729 3.7155726431024063 28.1478311885988042 O
atom 3.8683014556254065 1.8577855538702723 27.1031690804992458 O
atom 3.4879881936766308 3.7155726445107016 29.1928186869151354 O
atom 8.7668739609624886 3.7155728698446246 26.7808517856426356 O
atom 1.4744337889744998 1.8577853471274870 28.4701530748503622 O
