#===============================================================================
# Created using the Atomic Simulation Environment (ASE)

# Mon Mar 23 14:01:45 2026

#=======================================================
lattice_vector 18.4059850900857853 0.0000000000000000 0.0000000000000000 
lattice_vector -0.0015568314247998 9.2181866113943300 0.0000000000000000 
lattice_vector 0.0000000000000000 0.0000000000000000 39.8208511128585911 
atom 16.1061818790773081 2.3030464138118600 16.4065660312736341 V
atom 0.0009080030932461 0.0017234286175096 15.0029027200822789 V
atom 2.3021795708056474 2.3085007565526072 16.4032628412533761 V
atom -0.0006076182552670 4.6027309036702775 17.8040206423497658 V
atom 17.0305401532154121 1.3829022415290433 17.8065602826197491 O
atom 3.6768701636738115 3.6894036306867539 16.4006498712109661 O
atom 1.3800394112785990 3.2225586155752493 15.0013453007795903 O
atom 14.7288168840398370 0.9212402970218917 16.4039108077630864 O
atom 17.4853293512110461 3.6867487388352802 16.4067501208937401 O
atom 17.0287113779830506 1.3855989889311027 15.0006717107916927 O
atom 0.9220783319998231 0.9220040296508736 16.4044305657402418 O
atom 1.3750265183829093 3.2289501027952654 17.8074255561869030 O
atom 13.8060498172499493 0.0002241115459814 17.8067465029765302 V
atom 4.6004010013049195 4.6034589179703529 15.0000000000000000 V
atom 3.2254561308469016 1.3820883611189603 15.0026665963981216 O
atom 17.4818647106061924 3.6887987570366563 19.2049181844658499 O
atom 15.1845669521435536 3.2218091519468235 17.8052758220818355 O
atom 10.1280346091801885 0.9214134524521044 19.2080066378103602 O
atom 12.4274264215541113 1.3852684021208674 17.8058020394750152 O
atom 14.7280826590645102 0.9204871298657624 19.2081593920247187 O
atom 5.9765064721909997 3.2285936680534220 15.0022334615704054 O
atom 16.1058089184537323 6.9123573721878602 16.4062253662142297 V
atom 0.0004261980797878 4.6178473019367043 15.0032566045160500 V
atom 2.3018574037114736 6.9170287470270839 16.4030989986313287 V
atom 0.0013135016566456 0.0002348520321082 17.8045264301122508 V
atom 17.0266484088238919 5.9965170181797314 17.8059517423439679 O
atom 3.6764864572814453 8.2972266365598681 16.4041820529333613 O
atom 1.3767854838463007 7.8367343596128123 15.0010061573521476 O
atom 14.7288546731301508 5.5291225610607588 16.4074923930884253 O
atom 17.4840998575798601 8.2969112912434841 16.4045102666604592 O
atom 17.0314685285699525 5.9902481321733312 15.0007579820525514 O
atom 0.9220216588516068 5.5313831431237794 16.4013418143217535 O
atom 1.3779189622518098 7.8331951820055954 17.8072662019163701 O
atom 13.8058897241006786 4.6165385987120917 17.8071731925048944 V
atom 16.1064508977125875 6.9153229455778549 19.2082961497526448 V
atom 4.6022939294222365 0.0004779851765938 15.0003886770397692 V
atom 3.2211098458687775 5.9952918382009370 15.0019638139220923 O
atom 17.4813895993774260 8.2973752189675629 19.2084463519562085 O
atom 15.1810111736656168 7.8354375627612516 17.8053068635426612 O
atom 12.4300732662113536 5.9900048704036317 17.8062660619043420 O
atom 14.7282092317699984 5.5295326409562904 19.2056235869744931 O
atom 5.9804014833646555 7.8336978403357804 15.0024531770317715 O
atom 4.6028759460485853 0.0008704130732738 17.8079767427087781 V
atom 6.9021534475324611 2.3050282564389195 19.2054923814336824 V
atom 13.8044757695731715 4.6005600143888676 15.0005462364139710 V
atom 12.4281141763130361 1.3807465170250826 15.0020121636121182 O
atom 8.2793188225136412 3.6891801763408631 19.2048684018533216 O
atom 5.9814803646019898 3.2217576572294577 17.8065272722755168 O
atom 3.2247359018384980 1.3855541155530027 17.8050484688383150 O
atom 5.5252365809720771 0.9210322163915061 19.2077721653807423 O
atom 15.1796138685117459 3.2281152725936857 15.0030245929622730 O
atom 6.9023531230524400 2.3025887086145214 16.4048671961908639 V
atom 9.2029380071971403 9.2176782356593190 15.0029026082705137 V
atom 11.5044631573109690 2.3043264167075765 16.4018233026986557 V
atom 9.2031835183468420 4.6001373472073803 17.8057836097910531 V
atom 7.8276477851841735 1.3828937652028424 17.8077953217674114 O
atom 12.8811781297594639 3.6884452671682117 16.4012030480479005 O
atom 10.5835863169453344 3.2228868592576685 15.0018090830440300 O
atom 5.5270626496273190 0.9206699103714948 16.4040917367156922 O
atom 8.2806783736559293 3.6878326968751218 16.4074788613696718 O
atom 7.8247516540109139 1.3844830170198248 15.0009889519233042 O
atom 10.1275855156851868 0.9200431888665677 16.4031267012992359 O
atom 10.5784690331923912 3.2278386327205784 17.8064644130613203 O
atom 4.6028574153709911 4.6163941863019033 17.8084919293788460 V
atom 6.9017341979896081 6.9146289230403921 19.2047278339440624 V
atom 13.8038639364655804 9.2164873221554213 15.0007869638313736 V
atom 12.4249089783918070 5.9955823530783938 15.0018403277965788 O
atom 8.2800087680992807 8.2965567686978066 19.2081239333409464 O
atom 5.9785407269473225 7.8360991750011371 17.8058664498067110 O
atom 3.6791969681989376 8.2964944183907043 19.2078365542536815 O
atom 3.2274998636325738 5.9897324691792990 17.8049626667511838 O
atom 5.5230360828510419 5.5319698970482705 19.2052353050922946 O
atom 15.1826814760454702 7.8325767293381290 15.0029149001763891 O
atom 6.9024871267319527 6.9113152687882673 16.4046828019101802 V
atom 9.2045215862842760 4.6148538095774301 15.0031711881264584 V
atom 11.5037589866431116 6.9130466608362688 16.4013909798212367 V
atom 9.2032466457866278 9.2175194641127174 17.8060125319463509 V
atom 7.8242531794179930 5.9966531730598511 17.8076624097103640 O
atom 12.8819472289624830 8.2956475028174488 16.4046938782695619 O
atom 10.5797607999785921 7.8362241586524846 15.0014171704393320 O
atom 5.5275231401066867 5.5285850626876956 16.4076095327723941 O
atom 8.2806395033070554 8.2974059808387128 16.4049182093412433 O
atom 7.8285574098161632 5.9897654754593459 15.0011910932338957 O
atom 10.1257410854103220 5.5304713446499667 16.4010473743884191 O
atom 10.5816489215176155 7.8332369241186051 17.8067221280641483 O
atom 6.9036788465162697 2.3030364838259021 22.0154062660503484 V
atom 9.2043900606180014 0.0017134986315517 20.6117429548589932 V
atom 11.5056616283303939 2.3084908265666488 22.0121030760300904 V
atom 9.2028744392694772 4.6027209736843204 23.4128608771264872 V
atom 7.8280371206543684 1.3828923115430856 23.4154005173964670 O
atom 12.8803522211985655 3.6893937007007964 22.0094901059876840 O
atom 10.5835214688033439 3.2225486855892909 20.6101855355563046 O
atom 5.5263138514787924 0.9212303670359339 22.0127510425398007 O
atom 8.2828263186499989 3.6867388088493218 22.0155903556704544 O
atom 7.8262083454220148 1.3855890589451449 20.6095119455684070 O
atom 10.1255603895245603 0.9219940996649157 22.0132708005169526 O
atom 10.5785085759076463 3.2289401728093070 23.4162657909636174 O
atom 11.5050029202891722 2.3037378419183461 19.2110484050224564 V
atom 4.6035467846889011 0.0002141815600235 23.4155867377532481 V
atom 16.1065536628633375 2.3064124756116544 19.2085018188858996 V
atom 13.8038830588296602 4.6034489879843967 20.6088402347767143 V
atom 12.4289381883716477 1.3820784311330023 20.6115068311748360 O
atom 8.2793616780451451 3.6887888270506979 24.8137584192425678 O
atom 5.9820639195825160 3.2217992219608651 23.4141160568585569 O
atom 0.9255315766191442 0.9214035224661464 24.8168468725870781 O
atom 12.8833532894212119 3.6872258221291512 19.2120108780818732 O
atom 3.2249233889930755 1.3852584721349097 23.4146422742517366 O
atom 5.5255796265034709 0.9204771998798045 24.8169996268014330 O
atom 15.1799885297157413 3.2285837380674631 20.6110736963471197 O
atom 6.9033058858926895 6.9123474422019022 22.0150656009909476 V
atom 9.2039082556045244 4.6178373719507473 20.6120968392927644 V
atom 11.5053394612362272 6.9170188170411251 22.0119392334080466 V
atom 9.2047955591813828 0.0002249220461503 23.4133666648889687 V
atom 7.8241453762628561 5.9965070881937743 23.4147919771206858 O
atom 12.8799685148061904 8.2972167065739093 22.0130222877100792 O
atom 10.5802675413710539 7.8367244296268552 20.6098463921288619 O
atom 5.5263516405691018 5.5291126310748018 22.0163326278651361 O
atom 8.2815968250188146 8.2969013612575253 22.0133505014371735 O
atom 7.8289654960089141 5.9902382021873741 20.6095982168292657 O
atom 10.1255037163763610 5.5313732131378224 22.0101820490984679 O
atom 10.5814010197765551 7.8331852520196383 23.4161064366930880 O
atom 11.5041913153631565 6.9130769015280826 19.2103931084975095 V
atom 4.6033866915396393 4.6165286687261347 23.4160134272816123 V
atom 6.9039478651515447 6.9153130155918978 24.8171363845293627 V
atom 13.8057759869469816 0.0004680551906359 20.6092289118164871 V
atom 12.4245919033935230 5.9952819082149791 20.6108040486988067 O
atom 8.2788865668163876 8.2973652889816059 24.8172865867329300 O
atom 5.9785081411045784 7.8354276327752954 23.4141470983193756 O
atom 10.1275892699629608 5.5296524559805489 19.2109401224299106 O
atom 12.8817409235780662 8.2973673881583974 19.2094939546979830 O
atom 3.2275702336503183 5.9899949404176738 23.4151062966810564 O
atom 5.5257061992089538 5.5295227109703333 24.8144638217512146 O
atom 15.1838835408894059 7.8336879103498225 20.6112934118084894 O
atom 2.3009651680139886 2.3023111674191150 19.2098831363402880 V
atom 13.8063580035733313 0.0008604830873160 23.4168169774854995 V
atom 16.1056355050571973 2.3050183264529616 24.8143326162104003 V
atom 4.6019727370121357 4.6005500844029106 20.6093864711906889 V
atom 3.2256111437519830 1.3807365870391251 20.6108523983888361 O
atom 17.4828008800383934 3.6891702463549048 24.8137086366300359 O
atom 15.1849624221267430 3.2217477272435002 23.4153675070522311 O
atom 0.9252060731346561 0.9210038592770589 19.2084880019768285 O
atom 3.6799257419857896 3.6868763941618452 19.2104758358747070 O
atom 12.4282179593632431 1.3855441855670450 23.4138887036150329 O
atom 14.7287186384968134 0.9210222864055484 24.8166124001574602 O
atom 5.9771108359507004 3.2281053426077273 20.6118648277389909 O
atom 16.1058351805771771 2.3025787786285634 22.0137074309675782 V
atom 0.0004349746360910 9.2176683056733619 20.6117428430472351 V
atom 2.3019601247499262 2.3043164867216186 22.0106635374753701 V
atom 0.0006804857858024 4.6001274172214233 23.4146238445677710 V
atom 17.0311298427089106 1.3828838352168846 23.4166355565441258 O
atom 3.6786750971984321 3.6884353371822538 22.0100432828246149 O
atom 1.3810832843842988 3.2228769292717101 20.6106493178207408 O
atom 14.7305447071520508 0.9206599803855369 22.0129319714924065 O
atom 17.4841604311806798 3.6878227668891639 22.0163190961463897 O
atom 17.0282337115356590 1.3844730870338671 20.6098291867000221 O
atom 0.9250824831241458 0.9200332588806097 22.0119669360759467 O
atom 1.3759660006313592 3.2278287027346200 23.4153046478380382 O
atom 2.3006152418507630 6.9113670868674273 19.2093934910244712 V
atom 13.8063394728957363 4.6163842563159454 23.4173321641555674 V
atom 16.1052162555143354 6.9146189930544359 24.8135680687207767 V
atom 4.6013609039045402 9.2164773921694625 20.6096271986080914 V
atom 3.2224059458307623 5.9955724230924359 20.6106805625732932 O
atom 17.4834908256240453 8.2965468387118495 24.8169641681176643 O
atom 15.1820227844720677 7.8360892450151791 23.4147066845834289 O
atom 0.9250581131914069 5.5292856754469026 19.2117892333821665 O
atom 12.8826790257236912 8.2964844884047455 24.8166767890304030 O
atom 12.4309819211573274 5.9897225391933420 23.4138029015278946 O
atom 14.7265181403757879 5.5319599670623134 24.8140755398690125 O
atom 5.9801784434844407 7.8325667993521710 20.6117551349531034 O
atom 16.1059691842566970 6.9113053388023111 22.0135230366868946 V
atom 0.0020185537232392 4.6148438795914730 20.6120114229031728 V
atom 2.3012559540820763 6.9130367308503118 22.0102312145979511 V
atom 0.0007436132255877 9.2175095341267586 23.4148527667230688 V
atom 17.0277352369427284 5.9966432430738941 23.4165026444870783 O
atom 3.6794441964014477 8.2956375728314935 22.0135341130462763 O
atom 1.3772577674175486 7.8362142286665284 20.6102574052160534 O
atom 14.7310051976314327 5.5285751327017385 22.0164497675491120 O
atom 17.4841215608318059 8.2973960508527540 22.0137584441179612 O
atom 17.0320394673409119 5.9897555454733888 20.6100313280106171 O
atom 0.9232380528492942 5.5304614146640088 22.0098876091651370 O
atom 1.3791458889565793 7.8332269941326462 23.4155623628408591 O
atom 2.3024998877281324 2.3037279119323886 24.8198886397991743 V
atom 6.9040506303022999 2.3064025456256965 24.8173420536626175 V
atom 3.6808502568601718 3.6872158921431928 24.8208511128585876 O
atom 2.3016882828021177 6.9130669715421247 24.8192333432742274 V
atom 0.9250862374019179 5.5296425259945909 24.8197803572066320 O
atom 3.6792378910170274 8.2973574581724385 24.8183341894747009 O
atom 11.5044472255387422 2.3023012374331571 24.8187233711170023 V
atom 10.1286881306594090 0.9209939292911010 24.8173282367535464 O
atom 12.8834077995105432 3.6868664641758877 24.8193160706514178 O
atom 11.5040972993755162 6.9113571568814693 24.8182337258011891 V
atom 10.1285401707161533 5.5292757454609456 24.8206294681588879 O
