#===============================================================================
# Created using the Atomic Simulation Environment (ASE)

# Mon Mar 23 14:01:42 2026

#=======================================================
lattice_vector 10.7770659663771120 0.0000000000000000 0.0000000000000000 
lattice_vector -4.9397473237365723 9.5792519092132657 0.0000000000000000 
lattice_vector 0.0000000000000000 0.0000000000000000 41.0663951638986688 
atom 3.4281278275852509 1.1977732234958420 15.9223023834313437 V
atom -0.5032100483144832 3.5900188088732712 15.9277567203240622 V
atom 2.1921441523181335 3.5876503623970586 18.2219893473635324 V
atom 3.3674381555961985 2.8743004221330093 15.0021606897235600 O
atom -1.6784152324590873 4.3032325508009999 17.3086595898300004 O
atom -0.4454153727500176 1.9130037293591937 16.8418120973666561 O
atom 2.2505726335158265 1.9156949098976654 17.3060047087785094 O
atom 1.9086968356327250 0.4774091417171919 15.0048524695328567 O
atom 1.0192677781553503 4.3064979810352373 16.8482085525187770 O
atom 8.8166312543546184 1.1978641449382639 15.9229987766410304 V
atom 4.8860560665880559 3.5905309447505012 15.9256734058258189 V
atom 7.5810924472723311 3.5878650580835485 18.2227123973778617 V
atom 8.7565443634847995 2.8745675530716461 15.0013418452525045 O
atom 3.7098159018609227 4.3032387480675842 17.3080596809041225 O
atom 4.9430387355315517 1.9124784376703006 16.8410675978644235 O
atom 7.6401618078632287 1.9160356447934068 17.3064867585536462 O
atom 7.2976279975092906 0.4779981857548452 15.0045268489729722 O
atom 6.4072039300347940 4.3059576811690823 16.8478471514172341 O
atom 3.4282647539981821 1.1972812580631549 20.5316133411970014 V
atom 0.7336254867906973 1.1966247003448351 18.2371007871097319 V
atom -0.5030244677531058 3.5897042678499544 20.5362847105012492 V
atom 3.3704403429589411 2.8717483887138759 19.6157754652896443 O
atom -1.6762535358845827 4.3060420068597418 21.9164826019493262 O
atom -0.4428176103210487 1.9110136791010190 21.4559878407965670 O
atom 4.6047023804037464 0.4817401226553814 19.1483785323152347 O
atom 2.2504525317620176 1.9131354555146964 21.9161672572140134 O
atom 1.9063831698263434 0.4789107849807066 19.6095016129206030 O
atom 0.6742997371353119 2.8700811175426488 19.1506391034891621 O
atom 1.0167107523104455 4.3078602983713230 21.4524536314397736 O
atom 8.8169789902428093 1.1968752276169501 20.5323378350833963 V
atom 6.1212731092960233 1.1965746380894573 18.2357970479866509 V
atom 4.8860325318787687 3.5902948736579354 20.5345838754206795 V
atom 8.7598856343956708 2.8716984850371823 19.6145453210830283 O
atom 3.7120535588701777 4.3059972043102563 21.9166361490741437 O
atom 4.9460869079801508 1.9106473919305913 21.4546960087265859 O
atom 9.9927411492660436 0.4809025754026320 19.1489133905064719 O
atom 7.6402244410306261 1.9130403390907418 21.9166283201196634 O
atom 7.2956051191720830 0.4797649815675920 19.6092633180700346 O
atom 6.0615191562717277 2.8707197107337259 19.1487935660697346 O
atom 6.4039880981984352 4.3081654620317140 21.4529513240813685 O
atom 0.9585106547792027 5.9859511124246980 15.9215721000787909 V
atom -2.9727148102586831 8.3768545411282993 15.9242891813251219 V
atom -0.2779540176550059 8.3785206813114765 18.2198134947634429 V
atom 0.8980827533522232 7.6634606038855919 15.0000000000000000 O
atom -4.1489980514987019 9.0930546520188358 17.3084411001201914 O
atom -2.9146362993529800 6.7031240580862832 16.8410161053626481 O
atom -0.2186722904728113 6.7041244385580532 17.3061373278686759 O
atom -0.5614287362782082 5.2671378550466113 15.0048125610709775 O
atom -1.4508890475442755 9.0963189545832606 16.8473687573581401 O
atom 6.3466170417606262 5.9855133493056663 15.9218446752263603 V
atom 3.6525068341409308 5.9856912295735683 22.8369317201984217 V
atom 2.4153054576828583 8.3780465803445434 15.9235823779304582 V
atom 5.1110390838901827 8.3791973340980235 18.2193957940218212 V
atom 6.2866547026133617 7.6650331091778137 15.0021522155838909 O
atom 1.2394087524025692 9.0940154634927470 17.3077012272908064 O
atom 2.4730119533347854 6.7033142183782282 16.8421403418701630 O
atom 5.1710273515073171 6.7050800137727720 17.3070886681085341 O
atom 4.8283471347355791 5.2668026284663396 15.0037364981832297 O
atom 3.9370426532479863 9.0955374034718091 16.8470970807424720 O
atom 0.9585503767565020 5.9853439217069333 20.5306280186530046 V
atom -1.7364132551812723 5.9873059635182804 18.2356526379111656 V
atom -2.9727589644656840 8.3759765326635520 20.5338898465658062 V
atom -0.2773105436723249 8.3784008357719806 22.8357408029489548 V
atom 0.9007259791418657 7.6616387769731329 19.6148358357418644 O
atom -4.1478971230547863 9.0961866518081198 21.9158176982335675 O
atom -2.9124743234954620 6.7010228965193273 21.4553576219571696 O
atom 2.1343824397373310 5.2714937096992980 19.1485466114761067 O
atom -0.2194278337190965 6.7014845109490038 21.9157553474176794 O
atom -0.5638377719561763 5.2684961109662565 19.6089909145381540 O
atom -1.7952275584670838 7.6588792306249776 19.1512308214742859 O
atom -1.4535697993621191 9.0978148399473362 21.4518302139011610 O
atom 6.3464024033864188 5.9854186695192277 20.5305712350664322 V
atom 3.6512986422352554 5.9867516888414718 18.2341072945992408 V
atom 2.4156775012652467 8.3773039737860575 20.5323026212865329 V
atom 5.1111000658681816 8.3794186838545333 22.8367779113252070 V
atom 6.2894799217308197 7.6631459449276473 19.6159116231983575 O
atom 1.2405645513776593 9.0973895792861565 21.9149034691130566 O
atom 2.4760703317496611 6.7009816306201868 21.4554776405638989 O
atom 7.5220043336721112 5.2723305640835285 19.1478410341495575 O
atom 5.1697236240677000 6.7028662826784906 21.9166619475314803 O
atom 4.8251983712855795 5.2689489502839928 19.6090189569734079 O
atom 3.5921851384600756 7.6598339520228915 19.1497273044940712 O
atom 3.9344572388776551 9.0974054514504701 21.4524953725895529 O
atom 3.4294487074507645 1.1969490470525748 25.1404889948112285 V
atom 0.7343550317490356 1.1957560732035508 22.8391635245511395 V
atom -0.5018891684489701 3.5891946324300035 25.1459433317039469 V
atom 3.3687590354617121 2.8734762456897416 24.2203473011034376 O
atom -0.4440944928845040 1.9121795529159265 26.0599987087465408 O
atom 4.6041957657068089 0.4778449406118592 23.7586828733225772 O
atom 1.9100177154982385 0.4765849652739246 24.2230390809127414 O
atom 0.6771839877304299 2.8719308796515897 23.7594466068717480 O
atom 1.0205886580208643 4.3056738045919696 26.0663951638986688 O
atom 8.8179521342201301 1.1970399684949955 25.1411853880209151 V
atom 6.1222394723422147 1.1954764107532851 22.8376691714522337 V
atom 4.8873769464535712 3.5897067683072343 25.1438600172056965 V
atom 8.7578652433503112 2.8737433766283784 24.2195284566323821 O
atom 4.9443596153970670 1.9116542612270335 26.0592542092443082 O
atom 9.9921592921181048 0.4778122454440261 23.7588609931716448 O
atom 7.2989488773748041 0.4771740093115784 24.2227134603528498 O
atom 6.0642721029822049 2.8720019442776534 23.7579346708557395 O
atom 6.4085248099003085 4.3051335047258155 26.0660337627971259 O
atom 2.1920920679290194 3.5882648663164618 22.8376799080079067 V
atom 7.5810034868499150 3.5883648900545086 22.8379180766593208 V
atom 0.9598315346447169 5.9851269359814294 25.1397587114586756 V
atom -1.7353720707600944 5.9860584924650109 22.8383154751575574 V
atom -2.9713939303931705 8.3760303646850325 25.1424757927050067 V
atom 0.8994036332177369 7.6626364274423242 24.2181866113798918 O
atom -2.9133154194874664 6.7022998816430155 26.0592027167425329 O
atom 2.1338631229068912 5.2679345932392065 23.7584514008488128 O
atom -0.5601078564126943 5.2663136786033427 24.2229991724508551 O
atom -1.7944611393470336 7.6613734740222696 23.7584797566959267 O
atom -1.4495681676787624 9.0954947781399937 26.0655553687380177 O
atom 6.3479379216261398 5.9846891728623985 25.1400312866062450 V
atom 2.4166263375483723 8.3772224039012766 25.1417689893103358 V
atom 6.2879755824788734 7.6642089327345451 24.2203388269637756 O
atom 2.4743328332003003 6.7024900419349613 26.0603269532500477 O
atom 7.5218918610330405 5.2682698598941808 23.7581124869925020 O
atom 4.8296680146010926 5.2659784520230728 24.2219231095631145 O
atom 3.5930174826435470 7.6617521955814771 23.7574857637790515 O
atom 3.9383635331135003 9.0947132270285422 26.0652836921223567 O
