#===============================================================================
# Created using the Atomic Simulation Environment (ASE)

# Mon Mar 23 14:01:45 2026

#=======================================================
lattice_vector 18.4059850900857853 0.0000000000000000 0.0000000000000000 
lattice_vector -0.0015568314247998 9.2181866113943300 0.0000000000000000 
lattice_vector 0.0000000000000000 0.0000000000000000 37.0168304705088218 
atom -0.0006076182552670 4.6027309036702775 15.0000000000000000 V
atom 17.0305401532154121 1.3829022415290433 15.0025396402699833 O
atom 1.3750265183829093 3.2289501027952654 15.0034049138371373 O
atom 13.8060498172499493 0.0002241115459814 15.0027258606267644 V
atom 17.4818647106061924 3.6887987570366563 16.4008975421160841 O
atom 15.1845669521435536 3.2218091519468235 15.0012551797320697 O
atom 10.1280346091801885 0.9214134524521044 16.4039859954605944 O
atom 12.4274264215541113 1.3852684021208674 15.0017813971252494 O
atom 14.7280826590645102 0.9204871298657624 16.4041387496749529 O
atom 0.0013135016566456 0.0002348520321082 15.0005057877624850 V
atom 17.0266484088238919 5.9965170181797314 15.0019310999942022 O
atom 1.3779189622518098 7.8331951820055954 15.0032455595666043 O
atom 13.8058897241006786 4.6165385987120917 15.0031525501551286 V
atom 16.1064508977125875 6.9153229455778549 16.4042755074028790 V
atom 17.4813895993774260 8.2973752189675629 16.4044257096064428 O
atom 15.1810111736656168 7.8354375627612516 15.0012862211928955 O
atom 12.4300732662113536 5.9900048704036317 15.0022454195545762 O
atom 14.7282092317699984 5.5295326409562904 16.4016029446247273 O
atom 4.6028759460485853 0.0008704130732738 15.0039561003590123 V
atom 6.9021534475324611 2.3050282564389195 16.4014717390839166 V
atom 8.2793188225136412 3.6891801763408631 16.4008477595035558 O
atom 5.9814803646019898 3.2217576572294577 15.0025066299257510 O
atom 3.2247359018384980 1.3855541155530027 15.0010278264885493 O
atom 5.5252365809720771 0.9210322163915061 16.4037515230309765 O
atom 9.2031835183468420 4.6001373472073803 15.0017629674412873 V
atom 7.8276477851841735 1.3828937652028424 15.0037746794176456 O
atom 10.5784690331923912 3.2278386327205784 15.0024437707115545 O
atom 4.6028574153709911 4.6163941863019033 15.0044712870290802 V
atom 6.9017341979896081 6.9146289230403921 16.4007071915942966 V
atom 8.2800087680992807 8.2965567686978066 16.4041032909911806 O
atom 5.9785407269473225 7.8360991750011371 15.0018458074569452 O
atom 3.6791969681989376 8.2964944183907043 16.4038159119039157 O
atom 3.2274998636325738 5.9897324691792990 15.0009420244014180 O
atom 5.5230360828510419 5.5319698970482705 16.4012146627425288 O
atom 9.2032466457866278 9.2175194641127174 15.0019918895965851 V
atom 7.8242531794179930 5.9966531730598511 15.0036417673605982 O
atom 10.5816489215176155 7.8332369241186051 15.0027014857143826 O
atom 6.9036788465162697 2.3030364838259021 19.2113856237005827 V
atom 9.2043900606180014 0.0017134986315517 17.8077223125092274 V
atom 11.5056616283303939 2.3084908265666488 19.2080824336803246 V
atom 9.2028744392694772 4.6027209736843204 20.6088402347767214 V
atom 7.8280371206543684 1.3828923115430856 20.6113798750467012 O
atom 12.8803522211985655 3.6893937007007964 19.2054694636379182 O
atom 10.5835214688033439 3.2225486855892909 17.8061648932065388 O
atom 5.5263138514787924 0.9212303670359339 19.2087304001900350 O
atom 8.2828263186499989 3.6867388088493218 19.2115697133206886 O
atom 7.8262083454220148 1.3855890589451449 17.8054913032186413 O
atom 10.1255603895245603 0.9219940996649157 19.2092501581671868 O
atom 10.5785085759076463 3.2289401728093070 20.6122451486138516 O
atom 11.5050029202891722 2.3037378419183461 16.4070277626726906 V
atom 4.6035467846889011 0.0002141815600235 20.6115660954034823 V
atom 16.1065536628633375 2.3064124756116544 16.4044811765361338 V
atom 13.8038830588296602 4.6034489879843967 17.8048195924269486 V
atom 12.4289381883716477 1.3820784311330023 17.8074861888250702 O
atom 8.2793616780451451 3.6887888270506979 22.0097377768928020 O
atom 5.9820639195825160 3.2217992219608651 20.6100954145087911 O
atom 0.9255315766191442 0.9214035224661464 22.0128262302373123 O
atom 12.8833532894212119 3.6872258221291512 16.4079902357321075 O
atom 3.2249233889930755 1.3852584721349097 20.6106216319019708 O
atom 5.5255796265034709 0.9204771998798045 22.0129789844516672 O
atom 15.1799885297157413 3.2285837380674631 17.8070530539973539 O
atom 6.9033058858926895 6.9123474422019022 19.2110449586411818 V
atom 9.2039082556045244 4.6178373719507473 17.8080761969429986 V
atom 11.5053394612362272 6.9170188170411251 19.2079185910582808 V
atom 9.2047955591813828 0.0002249220461503 20.6093460225392029 V
atom 7.8241453762628561 5.9965070881937743 20.6107713347709200 O
atom 12.8799685148061904 8.2972167065739093 19.2090016453603134 O
atom 10.5802675413710539 7.8367244296268552 17.8058257497790962 O
atom 5.5263516405691018 5.5291126310748018 19.2123119855153703 O
atom 8.2815968250188146 8.2969013612575253 19.2093298590874078 O
atom 7.8289654960089141 5.9902382021873741 17.8055775744795000 O
atom 10.1255037163763610 5.5313732131378224 19.2061614067487021 O
atom 10.5814010197765551 7.8331852520196383 20.6120857943433222 O
atom 11.5041913153631565 6.9130769015280826 16.4063724661477437 V
atom 4.6033866915396393 4.6165286687261347 20.6119927849318465 V
atom 6.9039478651515447 6.9153130155918978 22.0131157421795969 V
atom 13.8057759869469816 0.0004680551906359 17.8052082694667213 V
atom 12.4245919033935230 5.9952819082149791 17.8067834063490409 O
atom 8.2788865668163876 8.2973652889816059 22.0132659443831642 O
atom 5.9785081411045784 7.8354276327752954 20.6101264559696098 O
atom 10.1275892699629608 5.5296524559805489 16.4069194800801448 O
atom 12.8817409235780662 8.2973673881583974 16.4054733123482173 O
atom 3.2275702336503183 5.9899949404176738 20.6110856543312906 O
atom 5.5257061992089538 5.5295227109703333 22.0104431794014488 O
atom 15.1838835408894059 7.8336879103498225 17.8072727694587236 O
atom 2.3009651680139886 2.3023111674191150 16.4058624939905222 V
atom 13.8063580035733313 0.0008604830873160 20.6127963351357337 V
atom 16.1056355050571973 2.3050183264529616 22.0103119738606345 V
atom 4.6019727370121357 4.6005500844029106 17.8053658288409231 V
atom 3.2256111437519830 1.3807365870391251 17.8068317560390703 O
atom 17.4828008800383934 3.6891702463549048 22.0096879942802701 O
atom 15.1849624221267430 3.2217477272435002 20.6113468647024654 O
atom 0.9252060731346561 0.9210038592770589 16.4044673596270627 O
atom 3.6799257419857896 3.6868763941618452 16.4064551935249412 O
atom 12.4282179593632431 1.3855441855670450 20.6098680612652672 O
atom 14.7287186384968134 0.9210222864055484 22.0125917578076944 O
atom 5.9771108359507004 3.2281053426077273 17.8078441853892251 O
atom 16.1058351805771771 2.3025787786285634 19.2096867886178124 V
atom 0.0004349746360910 9.2176683056733619 17.8077222006974694 V
atom 2.3019601247499262 2.3043164867216186 19.2066428951256043 V
atom 0.0006804857858024 4.6001274172214233 20.6106032022180052 V
atom 17.0311298427089106 1.3828838352168846 20.6126149141943600 O
atom 3.6786750971984321 3.6884353371822538 19.2060226404748491 O
atom 1.3810832843842988 3.2228769292717101 17.8066286754709751 O
atom 14.7305447071520508 0.9206599803855369 19.2089113291426408 O
atom 17.4841604311806798 3.6878227668891639 19.2122984537966239 O
atom 17.0282337115356590 1.3844730870338671 17.8058085443502563 O
atom 0.9250824831241458 0.9200332588806097 19.2079462937261809 O
atom 1.3759660006313592 3.2278287027346200 20.6112840054882724 O
atom 2.3006152418507630 6.9113670868674273 16.4053728486747055 V
atom 13.8063394728957363 4.6163842563159454 20.6133115218058016 V
atom 16.1052162555143354 6.9146189930544359 22.0095474263710109 V
atom 4.6013609039045402 9.2164773921694625 17.8056065562583257 V
atom 3.2224059458307623 5.9955724230924359 17.8066599202235274 O
atom 17.4834908256240453 8.2965468387118495 22.0129435257678985 O
atom 15.1820227844720677 7.8360892450151791 20.6106860422336631 O
atom 0.9250581131914069 5.5292856754469026 16.4077685910324007 O
atom 12.8826790257236912 8.2964844884047455 22.0126561466806372 O
atom 12.4309819211573274 5.9897225391933420 20.6097822591781288 O
atom 14.7265181403757879 5.5319599670623134 22.0100548975192467 O
atom 5.9801784434844407 7.8325667993521710 17.8077344926033376 O
atom 16.1059691842566970 6.9113053388023111 19.2095023943371288 V
atom 0.0020185537232392 4.6148438795914730 17.8079907805534070 V
atom 2.3012559540820763 6.9130367308503118 19.2062105722481853 V
atom 0.0007436132255877 9.2175095341267586 20.6108321243733030 V
atom 17.0277352369427284 5.9966432430738941 20.6124820021373125 O
atom 3.6794441964014477 8.2956375728314935 19.2095134706965105 O
atom 1.3772577674175486 7.8362142286665284 17.8062367628662876 O
atom 14.7310051976314327 5.5285751327017385 19.2124291251993462 O
atom 17.4841215608318059 8.2973960508527540 19.2097378017681955 O
atom 17.0320394673409119 5.9897555454733888 17.8060106856608513 O
atom 0.9232380528492942 5.5304614146640088 19.2058669668153712 O
atom 1.3791458889565793 7.8332269941326462 20.6115417204910933 O
atom 2.3024998877281324 2.3037279119323886 22.0158679974494085 V
atom 6.9040506303022999 2.3064025456256965 22.0133214113128517 V
atom 3.6808502568601718 3.6872158921431928 22.0168304705088218 O
atom 2.3016882828021177 6.9130669715421247 22.0152127009244616 V
atom 0.9250862374019179 5.5296425259945909 22.0157597148568662 O
atom 3.6792378910170274 8.2973574581724385 22.0143135471249352 O
atom 11.5044472255387422 2.3023012374331571 22.0147027287672366 V
atom 10.1286881306594090 0.9209939292911010 22.0133075944037806 O
atom 12.8834077995105432 3.6868664641758877 22.0152954283016520 O
atom 11.5040972993755162 6.9113571568814693 22.0142130834514234 V
atom 10.1285401707161533 5.5292757454609456 22.0166088258091222 O
