#===============================================================================
# Created using the Atomic Simulation Environment (ASE)

# Mon Mar 23 14:01:48 2026

#=======================================================
lattice_vector 10.7863573876396668 0.0000000000000000 0.0000000000000000 
lattice_vector 0.0003366819931270 9.2315018159967526 0.0000000000000000 
lattice_vector 0.0000000000000000 0.0000000000000000 33.8204715303368957 
atom 2.1294707880955639 0.0003336259784721 15.7163666813722926 V
atom 4.8259349638450635 2.3082424333674241 15.7163308791930589 V
atom 6.3384447126950798 3.2328171820528802 15.0009980547473560 O
atom 3.6425694826273953 3.6911151985403237 15.0013830165606947 O
atom 6.3388088755936494 7.8485250550826589 15.0008711989374817 O
atom 3.6417232214373683 8.3072151714699540 15.0019678352342751 O
atom 10.2194468799591771 2.3082791070531457 15.7163059357169779 V
atom 0.9461298000179273 3.2328655928144676 15.0006773702613856 O
atom 9.0360255379821908 3.6915846980114568 15.0000000000000000 O
atom 7.5225916034313158 0.0002887575115295 15.7164099301685738 V
atom 10.2196826075306628 6.9238717728751045 15.7162206661863877 V
atom 0.9464599722377828 7.8486884109276058 15.0009490053829921 O
atom 9.0364750352372969 8.3067986393114985 15.0007486371335901 O
atom 3.3831207097254534 2.3082936792461743 18.1037133345402523 V
atom 3.3131513664633347 1.3835096180953561 16.4315258166786187 O
atom 4.8960078506693927 3.2330143878461417 17.3880905468186100 O
atom 2.1997746365800386 3.6911747987284782 17.3882892626347285 O
atom 4.5669352877998151 0.9256765550117149 18.8185783808553388 O
atom 0.6863935851776820 0.0001326766356452 18.1037506083535966 V
atom 1.8702705948736271 1.3837775510628587 18.8194330873547067 O
atom 6.0090330017842097 0.9256180203769906 16.4319333285789000 O
atom 2.1296694384359429 4.6161016846958063 15.7164797643725294 V
atom 3.3834841235082593 6.9239779123289846 18.1035899992037699 V
atom 3.3133029326493322 5.9992616984616944 16.4317099252257037 O
atom 4.8961538124353456 7.8486419581970095 17.3882642254268731 O
atom 2.2001751190711984 8.3072976394764186 17.3871256169498167 O
atom 4.5676986243852946 5.5407788589970224 18.8182896109687228 O
atom 0.6867799562075511 4.6162205616457088 18.1038362435466951 V
atom 4.8260923242254927 6.9239339241154605 15.7165583928569461 V
atom 1.8705152874252098 5.9995850155654118 18.8192446133588689 O
atom 6.0093749406634291 5.5407551833698134 16.4326592150264332 O
atom 6.0797193625524883 0.0004192943890277 18.1037878005103998 V
atom 7.2640488915573869 1.3837452247927355 18.8189504348050818 O
atom 0.6175964582079879 0.9247233964865332 16.4308326877846227 O
atom 8.7763948701800896 2.3083253616301826 18.1040801736534966 V
atom 8.7065204748952230 1.3837142157778743 16.4325186059030983 O
atom 10.2889955693656123 3.2326893398749639 17.3888549577725584 O
atom 7.5921214466772735 3.6915742048420062 17.3892746694967784 O
atom 9.9597432737846354 0.9248527429504559 18.8204715303368957 O
atom 6.0799145916566220 4.6161085812175831 18.1037268941328442 V
atom 7.2639171714480986 5.9991547482323266 18.8189510780801257 O
atom 0.6167402870172107 5.5408407898824512 16.4314430880636912 O
atom 7.5228120774455096 4.6162278257529108 15.7165158093471291 V
atom 8.7765641045041587 6.9239251999436480 18.1041097232777233 V
atom 8.7068495920052342 5.9996368597927958 16.4324230047384106 O
atom 10.2890147740853166 7.8479909172919147 17.3885622129807267 O
atom 7.5930196957801241 8.3066335582695778 17.3891540744886228 O
atom 9.9599634411283056 5.5411124676552515 18.8193695462351798 O
