#===============================================================================
# Created using the Atomic Simulation Environment (ASE)

# Mon Mar 23 14:01:43 2026

#=======================================================
lattice_vector 10.7779019647855687 0.0000000000000000 0.0000000000000000 
lattice_vector -0.0013379047791915 9.2181866457684922 0.0000000000000000 
lattice_vector 0.0000000000000000 0.0000000000000000 36.2256137486613881 
atom 6.2337660185142676 2.3058637926989727 18.1159860860881068 V
atom 7.4679258780311093 0.0043313788923245 15.7202757001239277 V
atom 10.1617790010535813 2.3111110226603953 15.7182845490712708 V
atom 8.9243343955912025 4.6055504722820002 18.1125948221585205 V
atom 7.7516558700485509 1.3857838145716468 18.8305143591565809 O
atom 0.5563938028472120 3.6919519005236907 15.0005403720576069 O
atom 8.6447823676103894 3.2251044425790920 15.0009601620544473 O
atom 5.0562239455672779 0.9241193944943277 18.8306234826987549 O
atom 7.4115442025301919 3.6895041323614528 17.3983107641131056 O
atom 6.2899046039615989 1.3882687158614637 16.4354572918323996 O
atom 8.9838898643349854 0.9246764261053635 16.4376108016984475 O
atom 10.1007911304034064 3.2317080978932164 17.3997405301576435 O
atom 4.9982924753475952 0.0032506477379684 20.5088256627805166 V
atom 7.6922160864549394 2.3094414675275203 20.5084254742574856 V
atom 8.8647575358677333 3.6917656514718136 19.7895294098344436 O
atom 6.1746695619030652 3.2247735990284170 19.7899037955597166 O
atom 3.8205635605549602 1.3883568319904158 21.2253356122105856 O
atom 6.5149331563378201 0.9235780647841066 21.2256137486613881 O
atom 6.2332660100052095 6.9151747243052650 18.1154841661645492 V
atom 7.4676943635304713 4.6204552827673604 15.7204229149750319 V
atom 10.1614143856773804 6.9196389974403436 15.7179072573927314 V
atom 8.9262423344628363 0.0030543902677496 18.1124314799785608 V
atom 7.7480116897506210 5.9993987023759301 18.8316144981852531 O
atom 0.5579000563368921 8.2997751726313673 15.0033512820913941 O
atom 8.6418230270220739 7.8392802894451377 15.0019583744052696 O
atom 5.0581158327779843 5.5320019095523696 18.8332572272896925 O
atom 7.4093244397186711 8.2996665530531413 17.3966327522783359 O
atom 6.2922996474179627 5.9929177238971070 16.4336914360354882 O
atom 8.9822298311799003 5.5340552910283778 16.4345976292176132 O
atom 10.1031738800888871 7.8359530172649112 17.3976945580802891 O
atom 4.9983735652510362 4.6195651564969040 20.5088676112609818 V
atom 7.6920170561655556 6.9183519087762502 20.5078982552276017 V
atom 8.8661836470957276 8.3003423834399062 19.7923843930554426 O
atom 6.1716451096302825 7.8384021542019227 19.7913752486888157 O
atom 3.8230609937384199 5.9930931985560933 21.2239497219872675 O
atom 6.5137173553805061 5.5326233608529165 21.2229774168001342 O
atom 0.8434104606190569 2.3051334717131673 18.1155504330875345 V
atom 2.0795089568269458 0.0034833675337024 15.7207160718207746 V
atom 4.7701790323093958 2.3076434015342153 15.7173339020968825 V
atom 3.5365922841385902 4.6033746517169645 18.1129657896445764 V
atom 2.3620533854323735 1.3836231462041477 18.8307616940102136 O
atom 5.9458441398506290 3.6917333641371992 15.0000000000000000 O
atom 3.2559716153813412 3.2243085202607311 15.0017669554185389 O
atom 10.4457974173834049 0.9238879051421786 18.8304280896236591 O
atom 2.0212416888434959 3.6896367523551072 17.3983212182074283 O
atom 0.9011604079784267 1.3882287921284271 16.4352804976402922 O
atom 3.5955878149774683 0.9237094326771156 16.4359523931687406 O
atom 4.7121432583335201 3.2308682887174722 17.3995783119859979 O
atom 10.3877021979829056 0.0025132306257331 20.5092209556858407 V
atom 2.3017914053122830 2.3073502887713428 20.5066790311567928 V
atom 3.4770738429444483 3.6914072024604900 19.7895827030788709 O
atom 0.7868640347912633 3.2258463791702758 19.7903221013076234 O
atom 9.2085127016648922 1.3875664941908734 21.2254860354062984 O
atom 1.1267255705085140 0.9231290566123346 21.2244433783181066 O
atom 0.8428525923629637 6.9141893521048843 18.1149093309617513 V
atom 2.0797569847721915 4.6190071626790230 15.7207599900334358 V
atom 4.7694189072253907 6.9172440114298208 15.7164940832376345 V
atom 3.5375287536930946 0.0011153415697758 18.1130840614263491 V
atom 2.3592227226048994 5.9984590955296726 18.8318773569819697 O
atom 5.9481232389468142 8.2991101535734551 15.0020159812053109 O
atom 3.2531132510625107 7.8386501024362785 15.0023269075714367 O
atom 10.4473847924337271 5.5321699595041549 18.8329190630056900 O
atom 2.0192416392113124 8.2992545921930603 17.3960415990661303 O
atom 0.9034717208142534 5.9924069972471150 16.4333642015273895 O
atom 3.5923843273516201 5.5346470028290771 16.4345260058989737 O
atom 4.7147014277655401 7.8353295814996029 17.3974835724032744 O
atom 10.3878605555794543 4.6178754171940142 20.5090307423117864 V
atom 2.3009608710753930 6.9160705140978997 20.5062712568933492 V
atom 3.4795429830747717 8.2986096494037636 19.7917584345623823 O
atom 0.7833891412130117 7.8391838031046301 19.7915727828705670 O
atom 9.2118634700530961 5.9928487790372609 21.2232733717679949 O
atom 1.1240642385572406 5.5335571204447511 21.2232224350411158 O
