#===============================================================================
# Created using the Atomic Simulation Environment (ASE)

# Mon Mar 23 14:01:39 2026

#=======================================================
lattice_vector 12.3188787347632243 0.0000000000000000 0.0000000000000000 
lattice_vector -1.5101125036326633 6.2644276927716032 0.0000000000000000 
lattice_vector 0.0000000000000000 0.0000000000000000 34.5006006734163009 
atom 4.9231748911967754 1.8648665696268909 16.1751445414299369 V
atom 7.4573003939545135 3.1435551577649008 15.1227280460040951 V
atom 3.1524497365475144 4.9022722437381017 15.8456493258164457 V
atom 10.3275473813703424 4.9970852345253460 16.1751415072559404 V
atom 2.0529191497272490 0.0113791230467284 15.1227315106123328 V
atom 10.0669646673843864 1.7700940493345005 15.8456581480605898 V
atom 6.6714479176075718 4.7988616071629782 15.0000000000000000 O
atom 3.9382792849851684 3.2469943170002482 15.9683722683776530 O
atom 4.6739147749512009 6.1904369640133350 16.4268903792015912 O
atom 8.3990350960554387 1.2683955149530184 15.2780983981357821 O
atom 3.7208330781440657 0.5130003055904382 15.6902804340190762 O
atom 6.5934014162860262 2.7749101222841834 16.7746640024170510 O
atom 1.2670687822989251 1.6666798552064255 15.0000036964433789 O
atom 10.8527935792875052 0.1147887439625195 15.9683787946868954 O
atom -0.7304278054006988 3.0582843919006995 16.4269079052778473 O
atom 1.4845388290441588 4.4006520877222064 15.2781014498935512 O
atom 9.1252147056532600 3.6452416352897643 15.6902820323280814 O
atom -0.3211011030715125 5.9071644661554945 16.7746648894853578 O
atom 4.5659142536894191 5.9108383482377471 18.3254627950485904 V
atom 6.3366213018477273 2.8734019251518692 18.6549499247335042 V
atom 2.0317706444407118 4.6321190111250719 19.3778712045458583 V
atom 11.4803828163252604 2.7786345380689750 18.3254549572925320 V
atom -0.5778724460122096 6.0056535832052944 18.6549533893417454 V
atom 8.9462855752775852 1.4999408167214658 19.3778800267899989 V
atom 5.5507688255007848 4.5287083745499519 18.5322218787294091 O
atom 2.8176001928783769 2.9768410843872188 19.5005941471070585 O
atom 4.8151585896591476 1.5852451952981788 18.0737102099994900 O
atom 7.2783560039486366 0.9982422823399836 18.8103202768651947 O
atom 2.6001539860372844 0.2428470729774091 19.2225023127484853 O
atom 2.8956626781884776 5.0008067602601018 17.7259363118527524 O
atom 0.1463896901921331 1.3965266225933963 18.5322255751727916 O
atom 8.2220019835480507 6.1090632041210906 19.5006006734163044 O
atom 10.2195431105003998 4.7174924577314918 18.0737131905519739 O
atom 0.3638597369373678 4.1304988551091748 18.8103233286229603 O
atom 8.0045356135464729 3.3750884026767349 19.2225039110574905 O
atom 9.8101725202582966 1.8686226458884883 17.7259430667971323 O
