#===============================================================================
# Created using the Atomic Simulation Environment (ASE)

# Mon Mar 23 14:01:42 2026

#=======================================================
lattice_vector 10.7770659663771120 0.0000000000000000 0.0000000000000000 
lattice_vector -4.9397473237365723 9.5792519092132657 0.0000000000000000 
lattice_vector 0.0000000000000000 0.0000000000000000 57.1967636778799218 
atom 2.1895023925871078 3.5892987152835927 15.9159846385850088 V
atom -1.6810569921901144 4.3048809036875344 15.0026548810514839 O
atom 2.2479308737847998 1.9173432627842002 15.0000000000000000 O
atom 7.5784506875413022 3.5895134109700830 15.9167076885993453 V
atom 3.7071741421298965 4.3048871009541188 15.0020549721256096 O
atom 7.6375200481321999 1.9176839976799409 15.0004820497751297 O
atom 3.4256229942671550 1.1989296109496894 18.2256086324184885 V
atom 0.7309837270596703 1.1982730532313697 15.9310960783312190 V
atom -0.5056662274841329 3.5913526207364885 18.2302800017227327 V
atom 3.3677985832279140 2.8733967416004105 17.3097707565111314 O
atom -1.6788952956156098 4.3076903597462763 19.6104778931708132 O
atom -0.4454593700520755 1.9126620319875534 19.1499831320180540 O
atom 4.6020606206727193 0.4833884755419157 16.8423738235367217 O
atom 2.2478107720309910 1.9147838084012312 19.6101625484355004 O
atom 1.9037414100953163 0.4805591378672411 17.3034969041420936 O
atom 0.6716579774042847 2.8717294704291834 16.8446343947106527 O
atom 1.0140689925794184 4.3095086512578584 19.1464489226612606 O
atom 8.8143372305117822 1.1985235805034846 18.2263331263048798 V
atom 6.1186313495649953 1.1982229909759918 15.9297923392081309 V
atom 4.8833907721477408 3.5919432265444700 18.2285791666421559 V
atom 8.7572438746646419 2.8733468379237164 17.3085406123045118 O
atom 3.7094117991391520 4.3076455571967918 19.6106314402956201 O
atom 4.9434451482491246 1.9122957448171258 19.1486912999480658 O
atom 9.9900993895350165 0.4825509282891660 16.8429086817279554 O
atom 7.6375826812995991 1.9146886919772759 19.6106236113411505 O
atom 7.2929633594410568 0.4814133344541268 17.3032586092915182 O
atom 6.0588773965407006 2.8723680636202600 16.8427888572912146 O
atom 6.4013463384674081 4.3098138149182486 19.1469466153028556 O
atom -0.2805957773860328 8.3801690341980102 15.9138087859849264 V
atom -4.1516398112297299 9.0947030049053712 15.0024363913416785 O
atom -0.2213140502038386 6.7057727914445868 15.0001326190901629 O
atom 3.6498650744099050 5.9873395824601028 20.5309270114199052 V
atom 5.1083973241591565 8.3808456869845571 15.9133910852433047 V
atom 1.2367669926715428 9.0956638163792807 15.0016965185122970 O
atom 5.1683855917762909 6.7067283666593083 15.0010839593300140 O
atom 0.9559086170254751 5.9869922745934669 18.2246233098744881 V
atom -1.7390550149122994 5.9889543164048149 15.9296479291326563 V
atom -2.9754007241967111 8.3776248855500857 18.2278851377872897 V
atom -0.2799523034033513 8.3800491886585142 20.5297360941704383 V
atom 0.8980842194108379 7.6632871298596665 17.3088311269633479 O
atom -4.1505388827858143 9.0978350046946570 19.6098129894550510 O
atom -2.9151160832264891 6.7026712494058609 19.1493529131786531 O
atom 2.1317406800063039 5.2731420625858316 16.8425419026975938 O
atom -0.2220695934501234 6.7031328638355374 19.6097506386391700 O
atom -0.5664795316872033 5.2701444638527910 17.3029862057596340 O
atom -1.7978693181981114 7.6605275835115121 16.8452261126957694 O
atom -1.4562115590931457 9.0994631928338734 19.1458255051226480 O
atom 6.3437606436553899 5.9870670224057623 18.2245665262879193 V
atom 3.6486568825042287 5.9884000417280063 15.9281025858207279 V
atom 2.4130357415342192 8.3789523266725912 18.2262979125080165 V
atom 5.1084583061371536 8.3810670367410669 20.5307732025466940 V
atom 6.2868381619997908 7.6647942978141819 17.3099069144198445 O
atom 1.2379227916466320 9.0990379321726902 19.6088987603345402 O
atom 2.4734285720186331 6.7026299835067222 19.1494729317853896 O
atom 7.5193625739410832 5.2739789169700613 16.8418363253710446 O
atom 5.1670818643366738 6.7045146355650234 19.6106572387529567 O
atom 4.8225566115545533 5.2705973031705291 17.3030142481948950 O
atom 3.5895433787290489 7.6614823049094261 16.8437225957155583 O
atom 3.9318154791466289 9.0990538043370055 19.1464906638110328 O
atom 3.4268069477197374 1.1985973999391093 22.8344842860327191 V
atom 0.7317132720180085 1.1974044260900853 20.5331588157726195 V
atom -0.5045309281799971 3.5908429853165376 22.8399386229254304 V
atom 2.1908232724526213 3.5884745388403254 25.1341712499648935 V
atom 3.3661172757306850 2.8751245985762761 21.9143425923249282 O
atom -1.6797361123246006 4.3040567272442667 24.2208414924313686 O
atom -0.4467362526155312 1.9138279058024612 23.7539939999680314 O
atom 4.6015540059757818 0.4794932934983939 21.4526781645440607 O
atom 2.2492517536503129 1.9165190863409329 24.2181866113798847 O
atom 1.9073759557672114 0.4782333181604591 21.9170343721342284 O
atom 0.6745422279994027 2.8735792325381242 21.4534418980932315 O
atom 1.0179468982898374 4.3073221574785041 23.7603904551201524 O
atom 8.8153103744891048 1.1986883213815307 22.8351806792424021 V
atom 6.1195977126111876 1.1971247636398197 20.5316644626737208 V
atom 4.8847351867225433 3.5913551211937689 22.8378553084271836 V
atom 7.5797715674068167 3.5886892345268162 25.1348942999792300 V
atom 8.7552234836192842 2.8753917295149138 21.9135237478538691 O
atom 3.7084950219954105 4.3040629245108510 24.2202415835054907 O
atom 4.9417178556660390 1.9133026141135678 23.7532495004657989 O
atom 9.9895175323870795 0.4794605983305608 21.4528562843931283 O
atom 7.6388409279977161 1.9168598212366739 24.2186686611550144 O
atom 7.2963071176437762 0.4788223621981127 21.9167087515743404 O
atom 6.0616303432511787 2.8736502971641884 21.4519299620772266 O
atom 6.4058830501692814 4.3067818576123500 23.7600290540186094 O
atom 3.4269438741326685 1.1981054345064222 27.4437952437983697 V
atom 0.7323046069251836 1.1974488767881022 25.1492826897111037 V
atom -0.5043453476186200 3.5905284442932222 27.4484666131026174 V
atom 2.1894503081979924 3.5899132192029963 20.5316751992293902 V
atom 3.3691194630934285 2.8725725651571437 26.5279573678910197 O
atom -1.6775744157500962 4.3068661833030086 28.8286645045506944 O
atom -0.4441384901865622 1.9118378555442859 28.3681697433979423 O
atom 4.6033815005382337 0.4825642990986487 26.0605604349166065 O
atom 2.2491316518965050 1.9139596319579637 28.8283491598153816 O
atom 1.9050622899608298 0.4797349614239738 26.5216835155219783 O
atom 0.6729788572697982 2.8709052939859161 26.0628210060905374 O
atom 1.0153898724449317 4.3086844748145907 28.3646355340411418 O
atom 8.8156581103772957 1.1976994040602171 27.4445197376847645 V
atom 6.1199522294305098 1.1973988145327246 25.1479789505880191 V
atom 4.8847116520132561 3.5911190501012031 27.4467657780220406 V
atom 7.5783617271188914 3.5900132429410436 20.5319133678808043 V
atom 8.7585647545301555 2.8725226614804491 26.5267272236843965 O
atom 3.7107326790046664 4.3068213807535249 28.8288180516755048 O
atom 4.9447660281146382 1.9114715683738586 28.3668779113279470 O
atom 9.9914202694005301 0.4817267518458992 26.0610952931078401 O
atom 7.6389035611651135 1.9138645155340088 28.8288102227210317 O
atom 7.2942842393065694 0.4805891580108596 26.5214452206714029 O
atom 6.0601982764062150 2.8715438871769927 26.0609754686711028 O
atom 6.4026672183329199 4.3089896384749817 28.3651332266827367 O
atom 0.9571897749136895 5.9867752888679648 22.8337540026801591 V
atom -1.7380138304911208 5.9877068453515463 20.5323107663790481 V
atom -2.9740356901241967 8.3776787175715661 22.8364710839264937 V
atom -0.2792748975205194 8.3793448577547416 25.1319953973648147 V
atom 0.8967618734867100 7.6642847803288578 21.9121819026013753 O
atom -4.1503189313642164 9.0938788284621044 24.2206230027215632 O
atom -2.9159571792184935 6.7039482345295509 23.7531980079640199 O
atom 2.1312213631758641 5.2695829461257402 21.4524466920702999 O
atom -0.2199931703383245 6.7049486150013191 24.2183192304700441 O
atom -0.5627496161437217 5.2679620314898763 21.9169944636723457 O
atom -1.7971028990780604 7.6630218269088042 21.4524750479174173 O
atom -1.4522099274097888 9.0971431310265274 23.7595506599595048 O
atom 6.3452961618951118 5.9863375257489340 22.8340265778277285 V
atom 3.6511859542754181 5.9865154060168360 29.7491136227997899 V
atom 2.4139845778173452 8.3788707567878120 22.8357642805318264 V
atom 5.1097182040246691 8.3800215105412885 25.1315776966231894 V
atom 6.2853338227478472 7.6658572856210805 21.9143341181852591 O
atom 1.2380878725370568 9.0948396399360139 24.2198831298921817 O
atom 2.4716910734692723 6.7041383948214950 23.7543222444715383 O
atom 7.5192501013020152 5.2699182127807154 21.4521077782139855 O
atom 5.1697064716418035 6.7059041902160406 24.2192705707098952 O
atom 4.8270262548700655 5.2676268049096082 21.9159184007845980 O
atom 3.5903757229125191 7.6634005484680134 21.4514810550005421 O
atom 3.9357217733824741 9.0963615799150759 23.7592789833438474 O
atom 0.9572294968909889 5.9861680981501992 27.4428099212543728 V
atom -1.7377341350467859 5.9881301399615481 25.1478345405125374 V
atom -2.9740798443311975 8.3768007091068188 27.4460717491671744 V
atom -0.2786314235378381 8.3792250122152474 29.7479227055503159 V
atom 0.8994050992763526 7.6624629534163988 26.5270177383432326 O
atom -4.1492180029203007 9.0970108282513884 28.8279996008349286 O
atom -2.9137952033609751 6.7018470729625950 28.3675395245585307 O
atom 2.1330615598718179 5.2723178861425657 26.0607285140774749 O
atom -0.2207487135846101 6.7023086873922697 28.8279372500190476 O
atom -0.5651586518216896 5.2693202874095233 26.5211728171395187 O
atom -1.7965484383325978 7.6597034070682426 26.0634127240756541 O
atom -1.4548906792276330 9.0986390163906066 28.3640121165025292 O
atom 6.3450815235209044 5.9862428459624946 27.4427531376678076 V
atom 3.6499777623697427 5.9875758652847395 25.1462891972006126 V
atom 2.4143566213997341 8.3781281502293243 27.4444845238879012 V
atom 5.1097791860026680 8.3802428602978001 29.7489598139265752 V
atom 6.2881590418653053 7.6639701213709142 26.5280935257997328 O
atom 1.2392436715121471 9.0982137557294234 28.8270853717144249 O
atom 2.4747494518841475 6.7018058070634554 28.3676595431652743 O
atom 7.5206834538065976 5.2731547405267944 26.0600229367509293 O
atom 5.1684027442021883 6.7036904591217565 28.8288438501328415 O
atom 4.8238774914200668 5.2697731267272614 26.5212008595747832 O
atom 3.5908642585945634 7.6606581284661592 26.0619092070954395 O
atom 3.9331363590121420 9.0982296278937369 28.3646772751909140 O
atom 3.4281278275852509 1.1977732234958420 32.0526708974125967 V
atom 0.7330341518835225 1.1965802496468181 29.7513454271525077 V
atom -0.5032100483144832 3.5900188088732712 32.0581252343053151 V
atom 2.1921441523181335 3.5876503623970586 34.3523578613447853 V
atom 3.3674381555961985 2.8743004221330093 31.1325292037048129 O
atom -1.6784152324590873 4.3032325508009999 33.4390281038112533 O
atom -0.4454153727500176 1.9130037293591937 32.9721806113479090 O
atom 4.6028748858412953 0.4786691170551264 30.6708647759239454 O
atom 2.2505726335158265 1.9156949098976654 33.4363732227597623 O
atom 1.9086968356327250 0.4774091417171919 31.1352209835141096 O
atom 0.6758631078649164 2.8727550560948569 30.6716285094731163 O
atom 1.0192677781553503 4.3064979810352373 32.9785770665000300 O
atom 8.8166312543546184 1.1978641449382639 32.0533672906222833 V
atom 6.1209185924767011 1.1963005871965524 29.7498510740536091 V
atom 4.8860560665880559 3.5905309447505012 32.0560419198070718 V
atom 7.5810924472723311 3.5878650580835485 34.3530809113591147 V
atom 8.7565443634847995 2.8745675530716461 31.1317103592337574 O
atom 3.7098159018609227 4.3032387480675842 33.4384281948853754 O
atom 4.9430387355315517 1.9124784376703006 32.9714361118456765 O
atom 9.9908384122525931 0.4786364218872935 30.6710428957730059 O
atom 7.6401618078632287 1.9160356447934068 33.4368552725348991 O
atom 7.2976279975092906 0.4779981857548452 31.1348953629542251 O
atom 6.0629512231166913 2.8728261207209207 30.6701165734571077 O
atom 6.4072039300347940 4.3059576811690823 32.9782156653984870 O
atom 3.4282647539981821 1.1972812580631549 36.6619818551782544 V
atom 0.7336254867906973 1.1966247003448351 34.3674693010909849 V
atom -0.5030244677531058 3.5897042678499544 36.6666532244825021 V
atom 2.1907711880635055 3.5890890427597291 29.7498618106092749 V
atom 3.3704403429589411 2.8717483887138759 35.7461439792708973 O
atom -1.6762535358845827 4.3060420068597418 38.0468511159305791 O
atom -0.4428176103210487 1.9110136791010190 37.5863563547778199 O
atom 4.6047023804037464 0.4817401226553814 35.2787470462964876 O
atom 2.2504525317620176 1.9131354555146964 38.0465357711952663 O
atom 1.9063831698263434 0.4789107849807066 35.7398701269018559 O
atom 0.6742997371353119 2.8700811175426488 35.2810076174704150 O
atom 1.0167107523104455 4.3078602983713230 37.5828221454210265 O
atom 8.8169789902428093 1.1968752276169501 36.6627063490646492 V
atom 6.1212731092960233 1.1965746380894573 34.3661655619679038 V
atom 4.8860325318787687 3.5902948736579354 36.6649523894019325 V
atom 7.5796826069844041 3.5891890664977764 29.7500999792606891 V
atom 8.7598856343956708 2.8716984850371823 35.7449138350642812 O
atom 3.7120535588701777 4.3059972043102563 38.0470046630553966 O
atom 4.9460869079801508 1.9106473919305913 37.5850645227078388 O
atom 9.9927411492660436 0.4809025754026320 35.2792819044877248 O
atom 7.6402244410306261 1.9130403390907418 38.0469968341009164 O
atom 7.2956051191720830 0.4797649815675920 35.7396318320512876 O
atom 6.0615191562717277 2.8707197107337259 35.2791620800509875 O
atom 6.4039880981984352 4.3081654620317140 37.5833198380626214 O
atom 0.9585106547792027 5.9859511124246980 32.0519406140600438 V
atom -1.7366929506256077 5.9868826689082795 29.7504973777589328 V
atom -2.9727148102586831 8.3768545411282993 32.0546576953063749 V
atom -0.2779540176550059 8.3785206813114765 34.3501820087446958 V
atom 0.8980827533522232 7.6634606038855919 31.1303685139812529 O
atom -4.1489980514987019 9.0930546520188358 33.4388096141014444 O
atom -2.9146362993529800 6.7031240580862832 32.9713846193439011 O
atom 2.1325422430413772 5.2687587696824743 30.6706333034501810 O
atom -0.2186722904728113 6.7041244385580532 33.4365058418499288 O
atom -0.5614287362782082 5.2671378550466113 31.1351810750522304 O
atom -1.7957820192125473 7.6621976504655374 30.6706616592973020 O
atom -1.4508890475442755 9.0963189545832606 32.9777372713393930 O
atom 6.3466170417606262 5.9855133493056663 32.0522131892076132 V
atom 3.6525068341409308 5.9856912295735683 38.9673002341796746 V
atom 2.4153054576828583 8.3780465803445434 32.0539508919117111 V
atom 5.1110390838901827 8.3791973340980235 34.3497643080030741 V
atom 6.2866547026133617 7.6650331091778137 31.1325207295651438 O
atom 1.2394087524025692 9.0940154634927470 33.4380697412720593 O
atom 2.4730119533347854 6.7033142183782282 32.9725088558514159 O
atom 7.5205709811675279 5.2690940363374477 30.6702943895938702 O
atom 5.1710273515073171 6.7050800137727720 33.4374571820897870 O
atom 4.8283471347355791 5.2668026284663396 31.1341050121644827 O
atom 3.5916966027780317 7.6625763720247457 30.6696676663804269 O
atom 3.9370426532479863 9.0955374034718091 32.9774655947237250 O
atom 0.9585503767565020 5.9853439217069333 36.6609965326342575 V
atom -1.7364132551812723 5.9873059635182804 34.3660211518924186 V
atom -2.9727589644656840 8.3759765326635520 36.6642583605470591 V
atom -0.2773105436723249 8.3784008357719806 38.9661093169302077 V
atom 0.9007259791418657 7.6616387769731329 35.7452043497231173 O
atom -4.1478971230547863 9.0961866518081198 38.0461862122148204 O
atom -2.9124743234954620 6.7010228965193273 37.5857261359384225 O
atom 2.1343824397373310 5.2714937096992980 35.2789151254573596 O
atom -0.2194278337190965 6.7014845109490038 38.0461238613989323 O
atom -0.5638377719561763 5.2684961109662565 35.7393594285194069 O
atom -1.7952275584670838 7.6588792306249776 35.2815993354555388 O
atom -1.4535697993621191 9.0978148399473362 37.5821987278824139 O
atom 6.3464024033864188 5.9854186695192277 36.6609397490476852 V
atom 3.6512986422352554 5.9867516888414718 34.3644758085804938 V
atom 2.4156775012652467 8.3773039737860575 36.6626711352677859 V
atom 5.1111000658681816 8.3794186838545333 38.9671464253064599 V
atom 6.2894799217308197 7.6631459449276473 35.7462801371796104 O
atom 1.2405645513776593 9.0973895792861565 38.0452719830943096 O
atom 2.4760703317496611 6.7009816306201868 37.5858461545451519 O
atom 7.5220043336721112 5.2723305640835285 35.2782095481308104 O
atom 5.1697236240677000 6.7028662826784906 38.0470304615127333 O
atom 4.8251983712855795 5.2689489502839928 35.7393874709546608 O
atom 3.5921851384600756 7.6598339520228915 35.2800958184753242 O
atom 3.9344572388776551 9.0974054514504701 37.5828638865708058 O
atom 3.4294487074507645 1.1969490470525748 41.2708575087924814 V
atom 0.7343550317490356 1.1957560732035508 38.9695320385323924 V
atom -0.5018891684489701 3.5891946324300035 41.2763118456851998 V
atom 3.3687590354617121 2.8734762456897416 40.3507158150846905 O
atom -0.4440944928845040 1.9121795529159265 42.1903672227277937 O
atom 4.6041957657068089 0.4778449406118592 39.8890513873038302 O
atom 1.9100177154982385 0.4765849652739246 40.3534075948939943 O
atom 0.6771839877304299 2.8719308796515897 39.8898151208530010 O
atom 1.0205886580208643 4.3056738045919696 42.1967636778799218 O
atom 8.8179521342201301 1.1970399684949955 41.2715539020021680 V
atom 6.1222394723422147 1.1954764107532851 38.9680376854334867 V
atom 4.8873769464535712 3.5897067683072343 41.2742285311869495 V
atom 8.7578652433503112 2.8737433766283784 40.3498969706136350 O
atom 4.9443596153970670 1.9116542612270335 42.1896227232255612 O
atom 9.9921592921181048 0.4778122454440261 39.8892295071528977 O
atom 7.2989488773748041 0.4771740093115784 40.3530819743341027 O
atom 6.0642721029822049 2.8720019442776534 39.8883031848369924 O
atom 6.4085248099003085 4.3051335047258155 42.1964022767783788 O
atom 2.1920920679290194 3.5882648663164618 38.9680484219891596 V
atom 7.5810034868499150 3.5883648900545086 38.9682865906405738 V
atom 0.9598315346447169 5.9851269359814294 41.2701272254399285 V
atom -1.7353720707600944 5.9860584924650109 38.9686839891388104 V
atom -2.9713939303931705 8.3760303646850325 41.2728443066862596 V
atom 0.8994036332177369 7.6626364274423242 40.3485551253611447 O
atom -2.9133154194874664 6.7022998816430155 42.1895712307237858 O
atom 2.1338631229068912 5.2679345932392065 39.8888199148300657 O
atom -0.5601078564126943 5.2663136786033427 40.3533676864321080 O
atom -1.7944611393470336 7.6613734740222696 39.8888482706771796 O
atom -1.4495681676787624 9.0954947781399937 42.1959238827192706 O
atom 6.3479379216261398 5.9846891728623985 41.2703998005874979 V
atom 2.4166263375483723 8.3772224039012766 41.2721375032915887 V
atom 6.2879755824788734 7.6642089327345451 40.3507073409450285 O
atom 2.4743328332003003 6.7024900419349613 42.1906954672313006 O
atom 7.5218918610330405 5.2682698598941808 39.8884810009737549 O
atom 4.8296680146010926 5.2659784520230728 40.3522916235443674 O
atom 3.5930174826435470 7.6617521955814771 39.8878542777603045 O
atom 3.9383635331135003 9.0947132270285422 42.1956522061036097 O
