#===============================================================================
# Created using the Atomic Simulation Environment (ASE)

# Mon Mar 23 14:01:41 2026

#=======================================================
lattice_vector 9.2181867428585846 0.0000000000000000 0.0000000000000000 
lattice_vector 0.0015442526650186 10.7770658557386358 0.0000000000000000 
lattice_vector 0.0000000000000000 0.0000000000000000 33.8362433738090118 
atom 2.3038425146196566 8.6989506855304448 15.7176867943517138 V
atom 4.5982085276812468 0.6163166676085590 15.7195581719720181 V
atom 1.3786275257452982 1.7928147865117696 15.0042102214329276 O
atom 3.6877618295246277 7.5224691295300792 16.4340106561556709 O
atom 0.9200790375971651 9.8760817690134832 15.0029061667064738 O
atom 3.2270758152475039 10.2206441731774529 16.4372337353105067 O
atom 2.3023634048578363 3.3099051437129536 15.7188787703695638 V
atom 4.5985629587108070 6.0053097736910592 15.7202347874102202 V
atom 1.3815517326204616 7.1813863720810689 15.0057829191434138 O
atom 3.6862497263890797 2.1338101284039328 16.4349714014754511 O
atom 0.9183127334212638 4.4864946223917439 15.0032847993935903 O
atom 3.2260319960217183 4.8315100018367119 16.4364521599122142 O
atom 6.9134431862875445 8.6982460186920747 15.7172209194722896 V
atom 9.2141358729488410 0.6162987224138246 15.7198510256651218 V
atom 5.9934638373006823 1.7947967494794415 15.0028009961738817 O
atom 8.2951382396511253 7.5229098640702450 16.4375545906656271 O
atom 5.5310170241309109 9.8759755255090234 15.0000000000000000 O
atom 7.8315366882470059 10.2173036451862131 16.4391412947658324 O
atom 6.9110837021849578 3.3096168008176505 15.7185482186794019 V
atom 9.2159449991044031 6.0047091280414637 15.7208689664690340 V
atom 5.9953116479834074 7.1835504826159235 15.0043082603060114 O
atom 8.2934517664423453 2.1343057584614336 16.4387574363997757 O
atom 5.5287411349537008 4.4863225268419473 15.0009545869681773 O
atom 7.8314296846986826 4.8282646770570512 16.4387319657408781 O
atom 2.3018504844150671 10.1600463000768446 18.1178571987044279 V
atom 9.2183257148042834 7.4652824104229856 18.1164584687485544 V
atom 3.2207411956754437 6.2863713915371697 18.8331699129155439 O
atom 0.9187327536368204 0.5579254812023693 17.3986295510941247 O
atom 3.6853198696975866 8.9822928557047188 18.8359025958157034 O
atom 1.3842472694269143 8.6407467764777284 17.3974110927604215 O
atom 2.3017747389180783 4.7714837160031767 18.1179481824093713 V
atom 9.2160591674680710 2.0761011540881711 18.1161786726928042 V
atom 3.2192246055143796 0.8977596954347534 18.8326445546648031 O
atom 0.9196829211412295 5.9458889267769477 17.3985968718517015 O
atom 3.6850299140113330 3.5948160499145483 18.8362433738090118 O
atom 1.3831495269293972 3.2526120739582556 17.3980001076827548 O
atom 6.9111614400440216 10.1595227553738656 18.1177773409534595 V
atom 4.6162628608030838 7.4652122979893516 18.1169156362529975 V
atom 7.8349174234542742 6.2883079857275295 18.8315924052941455 O
atom 5.5266149455787490 0.5590927093947303 17.4021125366262694 O
atom 8.2954825640038425 8.9815121607861794 18.8337553252614285 O
atom 5.9888958813536499 8.6377733076004919 17.3993244268957881 O
atom 6.9111138698616630 4.7711709767403612 18.1173713752841721 V
atom 4.6141868729781326 2.0757941962588582 18.1168654574335619 V
atom 7.8328535510565827 0.9001467780697875 18.8312260026255132 O
atom 5.5279219341617116 5.9471313462919611 17.4012750371972871 O
atom 8.2951716866010514 3.5942180929169765 18.8336602500604116 O
atom 5.9878854825246535 3.2499293800376470 17.4001786021738738 O
