#===============================================================================
# Created using the Atomic Simulation Environment (ASE)

# Mon Mar 23 14:01:43 2026

#=======================================================
lattice_vector 14.1833344881180565 0.0000000000000000 0.0000000000000000 
lattice_vector 3.7544216431755140 10.1019537203898881 0.0000000000000000 
lattice_vector 0.0000000000000000 0.0000000000000000 39.3032516212241347 
atom 6.8612765709287107 0.3840292577418857 15.4939875228861652 V
atom 9.2866070803526277 3.6118762032563607 15.3320150504266195 O
atom 8.6482784068453853 0.9711441713279962 15.0024846471565496 O
atom 8.7380177925986899 5.4347375791694770 15.4946574051678851 V
atom 11.1643171426913153 8.6629895405057340 15.3315870614651715 O
atom 10.5255670897551017 6.0227288115946669 15.0018496012431939 O
atom 3.3149864434192389 0.3832883259172546 15.5008702761199970 V
atom 8.8157958165024919 9.8978805751959911 16.0019483620208121 O
atom 6.3018127904063181 2.2112374222409810 15.6656216141567270 O
atom 5.1913889990711448 5.4343722144169240 15.5011108086623679 V
atom 6.9390329742361168 4.8457639444427194 16.0010273359149480 O
atom 8.1811120270480444 7.2628394660328102 15.6647345244307843 O
atom 10.4060739119747510 0.3826716711834562 15.4992385523108069 V
atom 15.9135720661889781 9.8975554960413756 15.9982941053910963 O
atom 13.3955404954865358 2.2099890700320484 15.6661601240161730 O
atom 12.2829605071534935 5.4342241366794681 15.4991314362219939 V
atom 14.0360110209946392 4.8466672273385969 16.0009352828068216 O
atom 15.2740204589785513 7.2616190738200013 15.6657064592194786 O
atom 13.9510383573274854 0.3849950385768622 15.4984095506668638 V
atom 2.1988175035793813 3.6107216802371700 15.3332139246625729 O
atom 1.5628504328898711 0.9726918985212401 15.0000000000000000 O
atom 15.8283052630517282 5.4360816067958613 15.4998626172627567 V
atom 4.0774598653206819 8.6612425785167755 15.3333892126012117 O
atom 3.4395286842719841 6.0244064472268670 15.0001954480763899 O
atom 14.5022336235225371 1.4955301556254932 18.8217308961382628 V
atom 2.7526893385329849 3.4662111017129007 17.1626009675474620 V
atom 3.3007525380601410 4.5813839949735344 20.4843621096923840 V
atom 15.0524103742246584 2.6096396054237445 22.1359116687434891 V
atom 2.0704736888700710 0.9092977318212110 19.3211360918342763 O
atom 3.2944063955305154 5.8374865509382170 21.9739391962839505 O
atom 15.7371471544732593 5.1689823939456643 19.9802329199853901 O
atom 0.3220133042646000 0.2411175148286558 17.3274187625041804 O
atom 14.4980666666602716 2.7533298714289556 20.3165895581703424 O
atom 15.1412719236905549 2.8790040056840644 17.6611536900647224 O
atom 3.3066512453648902 3.3213212615629670 18.9879460312686490 O
atom 2.6560777220232734 3.1967545190098550 21.6444087930138735 O
atom 16.3790635468139989 6.5466801094947185 18.8222957490933780 V
atom 4.6309084231202311 8.5175051225278384 17.1613302493909501 V
atom 5.1794078879921450 9.6310418650312979 20.4832159999916641 V
atom 16.9291515958946306 7.6603479268513350 22.1365815510252020 V
atom 3.9481974401588236 5.9594724269101738 19.3207312634416297 O
atom 1.4176948146936901 0.7866461677977041 21.9735112073225025 O
atom 13.8600928776876984 0.1180314995083847 19.9793322249079424 O
atom 2.1992846589077319 5.2926793912297603 17.3275244434558147 O
atom 16.3748263904392495 7.8033476072125545 20.3171731703269742 O
atom 17.0189535294747216 7.9293811085913566 17.6613274753668037 O
atom 5.1853960718020629 8.3732694324896411 18.9869058252137037 O
atom 4.5333664049329929 8.2483391592765241 21.6437737471005249 O
atom 11.5061202467151826 2.6088986735991111 22.1427944219773210 V
atom 13.9356865426435981 4.5806646710138157 20.4889457174591385 V
atom 6.2974516117512733 3.4688628950031850 17.1630603142331708 V
atom 3.8618300996336807 1.4988381727285920 18.8204152886510343 V
atom 13.2525079766229226 2.0215372024879610 22.6438725078781289 O
atom 6.2929853251225945 4.7221586172507362 18.6542954757941359 O
atom 4.5448690398360938 4.0559850329026759 16.6618390755385022 O
atom 11.5119806123944208 1.3516618518535302 20.6499232380010440 O
atom 3.3089590757007481 1.6420536743658363 16.9949090566071206 O
atom 12.1503886950711841 3.9930430882472385 20.9802402778127188 O
atom 14.4929465937022695 4.4368477699228377 22.3075457600140581 O
atom 5.6576484647309195 2.0853487429538866 18.3211834679226371 O
atom 13.3825228023670917 7.6599825620987829 22.1430349545196918 V
atom 15.8140193245043470 9.6321690805029867 20.4879715499386919 V
atom 8.1759842284905453 8.5187894696399624 17.1622442221744365 V
atom 5.7388218525095276 6.5494927239298297 18.8206562626542677 V
atom 15.1301667775320592 7.0713742921245784 22.6429514817722719 O
atom 8.1701447830676326 9.7733955514270825 18.6543750551438876 O
atom 6.4225426235341114 9.1063935414045609 16.6606542285819330 O
atom 13.3884502653705493 6.4034414122089407 20.6497279228016311 O
atom 5.1853743858555266 6.6920044654421051 16.9951753415909153 O
atom 14.0280913393631685 9.0431021513717784 20.9806608364599398 O
atom 16.3722458303439851 9.4884498137146664 22.3066586702881153 O
atom 7.5351793702160563 7.1375461943777525 18.3217536882363845 O
atom 4.4138732271526422 2.6082820188653151 22.1411626981681380 V
atom 6.8492132718754410 4.5785042379290539 20.4834209853618816 V
atom 13.3887606264705727 3.4680958844015604 17.1589667326274125 V
atom 10.9591763393605373 1.4962069265413742 18.8142445064951858 V
atom 6.1669497381913523 2.0212121233333455 22.6402182512484202 O
atom 13.3826955217227077 4.7252440953350492 18.6529556840647786 O
atom 11.6422041212862286 4.0552490000272394 16.6590400484449361 O
atom 4.4182037458052923 1.3541806027504690 20.6485355518999683 O
atom 10.4013864163934677 1.6402677206184759 16.9948934880487030 O
atom 5.0536874411820891 3.9920098735419001 20.9821582548848937 O
atom 7.4033398106644217 4.4355994177139051 22.3080842698734969 O
atom 12.7446214882143920 2.0839629632620005 18.3229767949391231 O
atom 6.2907598223313768 7.6598344843613253 22.1410555820793107 V
atom 8.7273032344320498 9.6298521529788079 20.4821692235330204 V
atom 15.2674145948021369 8.5190833746857724 17.1592839390796499 V
atom 12.8369553878619023 6.5464817354796292 18.8144126850099696 V
atom 8.0438103361725339 7.0722775750204541 22.6428594286641456 O
atom 15.2610801429774092 9.7759193211673754 18.6530887357756328 O
atom 13.5191209246997914 9.1072789898900322 16.6599820080706351 O
atom 6.2960369570355033 6.4054640936469909 20.6485237977218787 O
atom 12.2782179414721266 6.6901409210617864 16.9962415734650278 O
atom 6.9309382152116674 9.0416459354350049 20.9811504245118741 O
atom 9.2818197741564425 9.4872294215018584 22.3076306050768096 O
atom 14.6216904548636393 7.1356340102939413 18.3222391279036856 O
atom 7.4100823277972889 1.4960986251532917 18.8200384072423930 V
atom 9.8418311509363239 3.4673995217141376 17.1676718432903499 V
atom 10.3922612919395032 4.5818010269442020 20.4799713486231099 V
atom 7.9588376725053713 2.6106053862587211 22.1403336965241877 V
atom 9.1576748849617200 0.9082893620276559 19.3224167003241618 O
atom 10.3899513068753251 5.8363320279190267 21.9751380705198969 O
atom 8.6410288347475053 5.1683384088229332 19.9826127629019865 O
atom 7.4165461505031747 0.2392835599284282 17.3291707764981240 O
atom 7.4039335491821419 2.7550861775404614 20.3146889551169636 O
atom 8.0552472520103500 2.8804502800215164 17.6588820323236391 O
atom 10.3963152899594498 3.3240686704605080 18.9864360738722482 O
atom 9.7539842361858184 3.1983022462030966 21.6419241458573168 O
atom 9.2876177686930266 6.5476813043973419 18.8200493173535008 V
atom 11.7199579990242935 8.5189118967174906 17.1661739756209641 V
atom 12.2714339388748783 9.6321517365238787 20.4797480184796541 V
atom 9.8361045782296195 7.6616919544777193 22.1417867631200806 V
atom 11.0351275536754265 5.9589406129187941 19.3242369161081342 O
atom 8.5141720254411144 0.7848992058087473 21.9753133584585427 O
atom 6.7637080702689509 0.1173899571371876 19.9826706342650908 O
atom 9.2950981959263270 5.2907339274592484 17.3292425934788810 O
atom 9.2812729966653151 7.8053554263577229 20.3163003114476979 O
atom 9.9325704298693687 7.9308485964947950 17.6592162225320948 O
atom 12.2755384320335263 8.3754928005082494 18.9860146317006198 O
atom 11.6306624875679248 8.2500167949087242 21.6421195939337139 O
atom 10.9438231418289362 5.6918214493947596 23.8045251134047859 V
atom 8.5131471075605365 2.4667278625105125 23.9693429083615044 O
atom 9.1490712388684390 5.1046143533659256 24.3030778359220463 O
atom 9.0676205832406556 0.6411617498198076 23.8032543952482811 V
atom 10.3904184622036748 7.5182897389116157 23.9694485893131386 O
atom 7.2723312014771020 0.0530377358833266 24.3032516212241347 O
atom 14.4885854150472220 5.6944732426850413 23.8049844600904947 V
atom 12.7360028431320345 6.2815953805845348 23.3037632213958332 O
atom 11.5000928789966910 3.8676640220476930 23.6368332024644445 O
atom 12.6126963886109795 0.6424460969319306 23.8041683680317675 V
atom 10.8592547836545368 1.2300501686965299 23.3025783744392498 O
atom 13.3765081891514672 8.9176148131239632 23.6370994874482392 O
atom 7.3965599416484675 5.6937062320834171 23.8008908784847364 V
atom 5.6500034364641172 6.2808593477090984 23.3009641943022601 O
atom 4.4091857315713590 3.8658780683003351 23.6368176339060270 O
atom 5.5207922668045137 0.6427400019777423 23.8012080849369738 V
atom 3.7724985967021714 1.2309356171819994 23.3019061539279591 O
atom 6.2860172566500072 8.9157512687436444 23.6381657193223518 O
atom 3.8496304661142120 5.6930098693959943 23.8095959891476809 V
atom 1.4243454656810630 2.4648939076102869 23.9710949223554479 O
atom 2.0630465671882403 5.1060606277033749 24.3008061781809630 O
atom 1.9733356710266667 0.6425685240094601 23.8080981214782881 V
atom 3.3028975111042151 7.5163442751411074 23.9711667393362049 O
atom 0.1859481018717452 0.0545052237867638 24.3011403683894187 O
