#===============================================================================
# Created using the Atomic Simulation Environment (ASE)

# Mon Mar 23 14:01:39 2026

#=======================================================
lattice_vector 11.9275710066048966 0.0000000000000000 0.0000000000000000 
lattice_vector 1.9216468690445472 7.1858371422673297 0.0000000000000000 
lattice_vector 0.0000000000000000 0.0000000000000000 31.3887066208935508 
atom 10.1449826824338381 3.2633438842893141 15.0342970346048048 V
atom 1.7919138736829603 3.3201185142172931 15.0000000000000000 V
atom 8.0896860973624491 3.0097301405576844 15.1875033256503471 O
atom 4.3384535269466333 5.7901228763910844 15.6783439449867821 O
atom 11.9199352044122797 2.8755263192747567 15.2685748211779995 O
atom 3.7834551939228431 3.2299199009071340 15.0544881886927939 O
atom 8.2139981054542375 1.0212874229288027 16.3887066208935508 V
atom 11.7885110716357229 1.0780567658018165 16.3544127918422575 V
atom 7.5890945308056521 5.7371504854190860 15.7103443942197742 O
atom 10.0135383890519396 1.4658724181716400 16.1201361606834013 O
atom 6.2224624892784925 1.1115305372104942 16.3341915728618829 O
atom 1.9162756445057085 1.3316844352653221 16.2011980883661373 O
