#===============================================================================
# Created using the Atomic Simulation Environment (ASE)

# Mon Mar 23 14:01:40 2026

#=======================================================
lattice_vector 15.1536015195045284 0.0000000000000000 0.0000000000000000 
lattice_vector -0.0000014388224574 3.7155747600000235 0.0000000000000000 
lattice_vector 0.0000000000000000 0.0000000000000000 40.4138814113057947 
atom 5.7136628731961991 1.8577864183105761 15.4756423209599596 V
atom 2.1321962867518223 3.7155736346709496 17.6763522580802857 V
atom 11.8353574410168321 1.8577865256746380 15.2557088960985574 V
atom 13.9920867058742768 3.7155736755223181 16.2860918109972026 V
atom 9.0074111676735988 1.8577863374620029 16.8658811288731698 V
atom 5.1752637997647710 1.8577861861072273 17.0983245289713253 O
atom 2.6705683396894035 3.7155738668783660 16.0536363954865884 O
atom 5.5555843366045004 3.7155738654663333 15.0086791016939216 O
atom 7.5691256505568507 1.8577864028481945 15.7313550977478300 O
atom 0.2766971630716071 3.7155736601321037 17.4206484530009718 O
atom 11.9934370679937174 3.7155738485197154 15.7226656120647661 O
atom 11.0060991267583574 1.8577861644643550 17.4293103848971001 O
atom 9.9798826632915869 1.8577865511365004 15.0000000000000000 O
atom 9.3868177776298314 3.7155737031890799 16.9915719991023906 O
atom 13.6126999711979995 1.8577863098002618 16.1603608253962818 O
atom 1.4609384360376518 1.8577858163060692 20.3169054777389455 V
atom 13.0330733690977993 3.7155730326664425 22.5176154148592715 V
atom 4.2888920412258340 1.8577860145174907 18.7067432664088287 V
atom 14.4578076699346951 3.7155734464591545 19.2865165195047084 V
atom 11.1640923852781366 3.7155734773118554 17.8962451737085324 V
atom 7.5826330038582919 1.8577859236701311 20.0969720528775362 V
atom 9.7393622687157393 3.7155730735178114 21.1273549677761920 V
atom 4.7546867305150586 1.8577857354574963 21.7071442856521557 V
atom 0.9225393626062203 1.8577855841027207 21.9395876857503040 O
atom 13.5714454220353886 3.7155732648738593 20.8948995522655707 O
atom 2.2902463235904693 1.8577861875151596 18.1433149687440221 O
atom 1.3028598994459570 3.7155732634618266 19.8499422584729075 O
atom 3.3164012133983025 1.8577858008436874 20.5726182545268124 O
atom 11.1775742454175919 3.7155730581275965 22.2619116097799541 O
atom 14.8372237358896299 1.8577860521861138 19.4122083593652874 O
atom 3.9095070295422185 3.7155734087943579 18.5810212696579526 O
atom 10.6257305943845175 3.7155732451069134 19.5189412705274208 O
atom 8.1210258927839494 1.8577861558747795 18.4742791624278624 O
atom 7.7407126308351746 3.7155732465152087 20.5639287688437520 O
atom 6.7533746895998039 1.8577855624598480 22.2705735416760859 O
atom 13.0195983981210315 3.7155734718491322 18.1519618675712522 O
atom 5.7271582261330369 1.8577859491319937 19.8412631567789823 O
atom 5.1340933404712876 3.7155731011845727 21.8328351558813729 O
atom 9.3599755340394548 1.8577857077957549 21.0016239821752677 O
atom 12.3618155183836294 1.8577852143015621 25.1581686345179349 V
atom 0.0361676040672832 1.8577854125129840 23.5480064231878110 V
atom 10.2050832327761469 3.7155728444546474 24.1277796762836942 V
atom 6.9113679481195911 3.7155728753073478 22.7375083304875147 V
atom 3.3299085666997410 1.8577853216656244 24.9382352096565256 V
atom 13.1911234059364588 1.8577855855106529 22.9845781255230044 O
atom 12.2037369817919270 3.7155726614573203 24.6912054152518863 O
atom 14.2172782957442880 1.8577851988391803 25.4138814113057947 O
atom 10.5844992987310889 1.8577854501816069 24.2534715161442733 O
atom 14.8103841118882027 3.7155728067898508 23.4222844264369385 O
atom 6.3730061572259729 3.7155726431024063 24.3602044273064067 O
atom 3.8683014556254065 1.8577855538702723 23.3155423192068483 O
atom 3.4879881936766308 3.7155726445107016 25.4051919256227379 O
atom 8.7668739609624886 3.7155728698446246 22.9932250243502381 O
atom 1.4744337889744998 1.8577853471274870 24.6825263135579647 O
