#===============================================================================
# Created using the Atomic Simulation Environment (ASE)

# Mon Mar 23 14:01:37 2026

#=======================================================
lattice_vector 3.7155747600003020 0.0000000000000000 0.0000000000000000 
lattice_vector 0.0000010448242668 6.4438726005089801 0.0000000000000000 
lattice_vector 0.0000000000000000 0.0000000000000000 43.3745648782401858 
atom 1.8577756040312527 1.0976021536191287 17.8011421555194076 V
atom 3.7155642072817754 5.1146280875075982 16.5627865399833922 V
atom 1.8577757519676843 4.4654166718317265 18.8631264370559464 V
atom 3.7155640693591163 1.7468392187608279 15.5007761656987810 V
atom 1.8577755803180369 2.6720427290784157 18.4675564296882229 O
atom 3.7155642310095223 3.5401800600116249 15.8963297545790283 O
atom 1.8577766989226892 5.3611489718746919 16.9897071572655207 O
atom 3.7155631124013433 0.8510996959538035 17.3741997907946342 O
atom 1.8577748700578229 0.0651796550717933 19.3639073096216521 O
atom 3.7155649512680515 6.1470813137393145 15.0000000000000000 O
atom 1.8577765281608014 1.5908706413288263 15.8687819355641864 O
atom 3.7155632931578002 4.6213420977742921 18.4951240957119651 O
atom 3.7155593840119829 1.5576680384289032 27.9476442609580715 V
atom 3.7155602909135901 4.6337517701911137 26.8856338866734390 V
atom 3.7155615972275116 5.7629786321866243 23.4935458150768213 V
atom 1.8577743856491604 3.3361408885928769 22.2552057128155312 V
atom 3.7155607003229520 2.6869003271257101 24.5555665257540738 V
atom 1.8577752925329420 6.4122016612177140 21.1932335534666336 V
atom 3.7155604525639960 6.4270926114419096 27.2811874755536934 O
atom 1.8577718756528963 1.8041889227959966 28.3745648782401858 O
atom 3.7155601279982586 2.5901212646606186 26.3848577209746651 O
atom 1.8577727497152756 4.4777831927591105 27.2536396565388728 O
atom 3.7155605286739997 0.8935324366228468 24.1599972656242770 O
atom 1.8577744093660691 1.7616963689997138 21.5887797422195860 O
atom 3.7155616472792032 3.5826367911613426 22.6821456857825510 O
atom 1.8577743455616003 5.5164422033480456 23.0666852016204444 O
atom 3.7155608732369991 4.7305305426613247 25.0563460370025837 O
atom 1.8577751296267175 4.3685742225006008 20.6924341039890436 O
atom 3.7155625113381276 6.2562376463527585 21.5612326601284607 O
atom 1.8577734815150904 2.8428210864552041 24.1875558766292613 O
