#===============================================================================
# Created using the Atomic Simulation Environment (ASE)

# Mon Mar 23 14:01:37 2026

#=======================================================
lattice_vector 6.4438726005090654 0.0000000000000000 0.0000000000000000 
lattice_vector -3.5569600490794309 11.3848577209754627 0.0000000000000000 
lattice_vector 0.0000000000000000 0.0000000000000000 35.5733623108655621 
atom 1.7676511573965112 9.1578228515234219 15.0000000304250207 V
atom -1.3084069248999748 10.2198071330600300 15.0000000284149522 V
atom 3.5461153857599879 3.4653680971536462 16.8577873904249600 V
atom 1.1192773409403967 2.2270286878443666 15.0000001104406557 V
atom 0.4700370806989703 4.5273888078309898 16.8577873884150407 V
atom 4.1953381135653451 1.1650565284953822 15.0000001224507535 V
atom 3.3420917328557729 9.8242371256922834 15.0000000000000000 O
atom -0.4126746248568689 8.3463878532694338 15.0000001313510722 O
atom 1.5211490009571134 8.7308797938464924 16.8577874195145192 O
atom 0.7352286588490723 10.7205880056257712 15.0000000467601744 O
atom 2.2609196451063527 7.2254626315680195 15.0000001538071999 O
atom -1.1524811977314844 9.8518040987639139 16.8577874070584457 O
atom 5.1205417907051682 4.1318195477011717 16.8577873600000814 O
atom -0.4551671786527405 1.5606027172483603 15.0000001408656445 O
atom 3.2995786556955311 3.0385081766493673 15.0000000195147720 O
atom 2.5136672962345847 5.0281683190795201 16.8577874167602673 O
atom 2.1517106748482284 0.6642570790177689 15.0000001041054638 O
atom 0.6259575388025846 4.1593788516582677 15.0000000070585209 O
atom 1.7676517598483152 9.1578214656191896 18.7155747904250163 V
atom -0.6591952079980350 7.9194665430351590 16.8577875204406737 V
atom -1.3084063224481706 10.2198057471557959 18.7155747884149477 V
atom 2.4168885237642810 6.8574561687504652 16.8577875324506188 V
atom 3.5461159882117919 3.4653667112494140 20.5733621504249591 V
atom 1.1192779433922007 2.2270273019401343 18.7155748704406548 V
atom 0.4700376831507746 4.5273874219267567 20.5733621484150362 V
atom 4.1953387160171483 1.1650551425911495 18.7155748824507526 V
atom 3.3420923353075773 9.8242357397880475 18.7155747599999955 O
atom -2.2336432354939864 7.2530097576307355 16.8577875508655737 O
atom -0.4126740224050643 8.3463864673651997 18.7155748913510749 O
atom 1.5211496034089174 8.7308784079422583 20.5733621795145112 O
atom 0.7352292613008776 10.7205866197215354 18.7155748067601664 O
atom 0.3732580182337859 6.3566800030516628 16.8577875141054037 O
atom 2.2609202475581571 7.2254612456637854 18.7155749138071954 O
atom -1.1524805952796802 9.8518027128596817 20.5733621670584412 O
atom 5.1205423931569714 4.1318181617969394 20.5733621200000769 O
atom -0.4551665762009364 1.5606013313441276 18.7155749008656400 O
atom 1.3657735447347445 2.6539679678592982 16.8577874913511536 O
atom 3.2995792581473347 3.0385067907451346 18.7155747795147676 O
atom 2.5136678986863892 5.0281669331752870 20.5733621767602592 O
atom 2.1517112773000329 0.6642556931135363 18.7155748641054629 O
atom 4.0393743999262641 1.5330549422051210 16.8577875038073053 O
atom 0.6259581412543891 4.1593774657540354 18.7155747670585164 O
atom -0.6591946055462304 7.9194651571309258 20.5733622804406657 V
atom 2.4168891262160845 6.8574547828462347 20.5733622924506108 V
atom -2.2336426330421819 7.2530083717265033 20.5733623108655657 O
atom 0.3732586206855896 6.3566786171474305 20.5733622741053992 O
atom 1.3657741471865485 2.6539665819550655 20.5733622513511492 O
atom 4.0393750023780681 1.5330535563008885 20.5733622638073044 O
