#===============================================================================
# Created using the Atomic Simulation Environment (ASE)

# Mon Mar 23 14:01:47 2026

#=======================================================
lattice_vector 9.2314623421363340 0.0000000000000000 0.0000000000000000 
lattice_vector 0.0003972008493561 9.2315018135911977 0.0000000000000000 
lattice_vector 0.0000000000000000 0.0000000000000000 41.1585663377050466 
atom 0.0000395610600712 0.0000140890291975 15.0004046927175736 V
atom 1.3830064678100387 1.3831737470360543 15.0002601850701467 O
atom 3.2324743768759565 3.2326566691499776 15.0002642004177140 O
atom 1.3832859382780571 5.9989258221082524 15.0004264300611858 O
atom 3.2327436546646870 7.8482842344408308 15.0004244154221382 O
atom 5.9992156827454881 1.3833548267261075 15.0000000000000000 O
atom 7.8486059358880276 3.2325624005108904 15.0000068753831997 O
atom 4.6158816718979132 4.6157345177113003 15.0004111327301715 V
atom 5.9991578058428114 5.9987643490546771 15.0001557450617078 O
atom 7.8490835378759467 7.8483852113189023 15.0001556503455866 O
atom 0.0000439815243607 0.0000178988777078 20.5794449627167779 V
atom 2.3078078650757656 2.3079205691476727 16.3952218527360358 V
atom 1.3830108882743284 1.3831775568845646 20.5793004550693510 O
atom 3.2324787973402462 3.2326604789984876 20.5793044704169148 O
atom 0.9250228855384838 3.6908180278327976 16.3950187777110905 O
atom 3.6907046702139144 0.9252871179858136 16.3947041677227290 O
atom 9.2316770237944894 9.2312623323813430 17.7900415427668968 V
atom 2.3078100803807224 2.3079257540738443 19.1847625327353128 V
atom 1.3832231976837492 1.3833890473909574 17.7902433450252460 O
atom 3.2323035790891521 3.2325158878419162 17.7902482404503033 O
atom 0.9252548007092242 3.6908148478585097 19.1849770576860585 O
atom 3.6904750454712585 0.9252849979983910 19.1852465677480915 O
atom 0.0003225918625578 4.6157821440164115 15.0004857977066450 V
atom 2.3081096240435346 6.9236048037036158 16.3950153977313242 V
atom 1.3832903587423466 5.9989296319567629 20.5794667000603866 O
atom 3.2327480751289768 7.8482880442893412 20.5794646854213390 O
atom 0.9248182938430624 8.3069408931925075 16.3939028127185367 O
atom 3.6912631266244311 5.5403894269848442 16.3941492627472911 O
atom 0.0002469784786840 4.6158484006145493 17.7900020677084179 V
atom 2.3081169595489750 6.9236172385597392 19.1849629277293268 V
atom 1.3833896593032631 5.9991965148581912 17.7900425500231876 O
atom 3.2326041585651262 7.8482237624229061 17.7900383854433883 O
atom 0.9248875487552418 8.3069148069286562 19.1860023627135625 O
atom 3.6911976627501195 5.5404221435728571 19.1857780127512569 O
atom 4.6156915628061137 0.0000452307395489 15.0004771677231687 V
atom 6.9238113269846009 2.3079605232727149 16.3950486977023075 V
atom 5.9992201032097778 1.3833586365746176 20.5790402699991972 O
atom 7.8486103563523173 3.2325662103593999 20.5790471453824004 O
atom 5.5405058065011268 3.6912824730859772 16.3941298226924701 O
atom 8.3071257218599754 0.9243884930630284 16.3938833427358297 O
atom 4.6161429772517639 9.2314729381356724 17.7899917777245733 V
atom 6.9238126920865071 2.3079541482582995 19.1850065677028212 V
atom 5.9994163185938056 1.3833802274812554 17.7905315099755725 O
atom 7.8484396862654577 3.2323335091588237 17.7905373254239798 O
atom 5.5405539905702064 3.6912193172343386 19.1858125526934558 O
atom 8.3070999689887319 0.9244651688484047 19.1860362727311191 O
atom 4.6158860923622038 4.6157383275598107 20.5794514027293687 V
atom 6.9240234939932011 6.9235531897657845 16.3949408627164246 V
atom 5.9991622263071012 5.9987681589031867 20.5791960150609050 O
atom 7.8490879583402355 7.8483890211674145 20.5791959203447909 O
atom 5.5413322454278049 8.3064963964233431 16.3946251076767098 O
atom 8.3067632202837114 5.5405058720336458 16.3949356677610965 O
atom 4.6160437608819880 4.6159101892083028 17.7900554326951479 V
atom 6.9240273392638718 6.9235539847110923 19.1850313927159526 V
atom 5.9997030726951204 5.9993028723641491 17.7903665349490012 O
atom 7.8483592270046190 7.8476350919407434 17.7903639104988045 O
atom 5.5413148960647884 8.3062786718853019 19.1853317977001012 O
atom 8.3067729502540697 5.5407249168563597 19.1850663477384700 O
atom 0.0000484019886503 0.0000217087262182 26.1584852327159787 V
atom 2.3078122855400554 2.3079243789961832 21.9742621227352402 V
atom 1.3830153087386179 1.3831813667330752 26.1583407250685518 O
atom 3.2324832178045360 3.2326642888469985 26.1583447404161120 O
atom 0.9250273060027733 3.6908218376813084 21.9740590477102913 O
atom 3.6907090906782041 0.9252909278343240 21.9737444377219298 O
atom 9.2316814442587809 9.2312661422298525 23.3690818127660975 V
atom 2.3078145008450122 2.3079295639223552 24.7638028027345172 V
atom 1.3832276181480387 1.3833928572394676 23.3692836150244467 O
atom 3.2323079995534418 3.2325196976904267 23.3692885104495076 O
atom 0.9252592211735137 3.6908186577070201 24.7640173276852593 O
atom 3.6904794659355473 0.9252888078469012 24.7642868377472922 O
atom 0.0003270123268474 4.6157859538649220 20.5795260677058494 V
atom 2.3081140445078243 6.9236086135521253 21.9740556677305250 V
atom 1.3832947792066366 5.9989334418052724 26.1585069700595874 O
atom 3.2327524955932661 7.8482918541378517 26.1585049554205398 O
atom 0.9248227143073521 8.3069447030410171 21.9729430827177410 O
atom 3.6912675470887204 5.5403932368333546 21.9731895327464954 O
atom 0.0002513989429736 4.6158522104630597 23.3690423377076186 V
atom 2.3081213800132643 6.9236210484082488 24.7640031977285275 V
atom 1.3833940797675524 5.9992003247067007 23.3690828200223848 O
atom 3.2326085790294159 7.8482275722714157 23.3690786554425891 O
atom 0.9248919692195317 8.3069186167771658 24.7650426327127633 O
atom 3.6912020832144088 5.5404259534213693 24.7648182827504577 O
atom 4.6156959832704025 0.0000490405880592 20.5795174377223695 V
atom 6.9238157474488906 2.3079643331212254 21.9740889677015083 V
atom 5.9992245236740676 1.3833624464231282 26.1580805399984015 O
atom 7.8486147768166070 3.2325700202079113 26.1580874153816012 O
atom 5.5405102269654156 3.6912862829344877 21.9731700926916709 O
atom 8.3071301423242634 0.9243923029115386 21.9729236127350269 O
atom 4.6161473977160536 9.2314767479841819 23.3690320477237705 V
atom 6.9238171125507968 2.3079579581068095 24.7640468377020184 V
atom 5.9994207390580945 1.3833840373297661 23.3695717799747733 O
atom 7.8484441067297466 3.2323373190073341 23.3695775954231806 O
atom 5.5405584110344952 3.6912231270828495 24.7648528226926530 O
atom 8.3071043894530252 0.9244689786969149 24.7650765427303199 O
atom 4.6158905128264927 4.6157421374083212 26.1584916727285695 V
atom 6.9240279144574908 6.9235569996142949 21.9739811327156218 V
atom 5.9991666467713909 5.9987719687516972 26.1582362850601093 O
atom 7.8490923788045253 7.8483928310159250 26.1582361903439917 O
atom 5.5413366658920955 8.3065002062718545 21.9736653776759105 O
atom 8.3067676407480011 5.5405096818821562 21.9739759377602972 O
atom 4.6160481813462777 4.6159139990568132 23.3690957026943487 V
atom 6.9240317597281607 6.9235577945596019 24.7640716627151534 V
atom 5.9997074931594110 5.9993066822126595 23.3694068049481984 O
atom 7.8483636474689087 7.8476389017892538 23.3694041804980017 O
atom 5.5413193165290773 8.3062824817338115 24.7643720676992984 O
atom 8.3067773707183594 5.5407287267048693 24.7641066177376707 O
atom 0.0003314327911370 4.6157897637134324 26.1585663377050501 V
atom 4.6157004037346923 0.0000528504365696 26.1585577077215703 V
