#===============================================================================
# Created using the Atomic Simulation Environment (ASE)

# Mon Mar 23 14:01:42 2026

#=======================================================
lattice_vector 10.7770659663771120 0.0000000000000000 0.0000000000000000 
lattice_vector -4.9397473237365723 9.5792519092132657 0.0000000000000000 
lattice_vector 0.0000000000000000 0.0000000000000000 50.2845817752785464 
atom 3.4268069477197374 1.1985973999391093 15.9223023834313437 V
atom -0.5045309281799971 3.5908429853165376 15.9277567203240551 V
atom 2.1908232724526213 3.5884745388403254 18.2219893473635182 V
atom 3.3661172757306850 2.8751245985762761 15.0021606897235529 O
atom -1.6797361123246006 4.3040567272442667 17.3086595898299933 O
atom -0.4467362526155312 1.9138279058024612 16.8418120973666561 O
atom 2.2492517536503129 1.9165190863409329 17.3060047087785094 O
atom 1.9073759557672114 0.4782333181604591 15.0048524695328531 O
atom 1.0179468982898374 4.3073221574785041 16.8482085525187770 O
atom 8.8153103744891048 1.1986883213815307 15.9229987766410268 V
atom 4.8847351867225433 3.5913551211937689 15.9256734058258083 V
atom 7.5797715674068167 3.5886892345268162 18.2227123973778546 V
atom 8.7552234836192842 2.8753917295149138 15.0013418452524938 O
atom 3.7084950219954105 4.3040629245108510 17.3080596809041154 O
atom 4.9417178556660390 1.9133026141135678 16.8410675978644235 O
atom 7.6388409279977161 1.9168598212366739 17.3064867585536390 O
atom 7.2963071176437762 0.4788223621981127 15.0045268489729651 O
atom 6.4058830501692814 4.3067818576123500 16.8478471514172341 O
atom 3.4269438741326685 1.1981054345064222 20.5316133411969943 V
atom 0.7323046069251836 1.1974488767881022 18.2371007871097284 V
atom -0.5043453476186200 3.5905284442932222 20.5362847105012420 V
atom 3.3691194630934285 2.8725725651571437 19.6157754652896443 O
atom -1.6775744157500962 4.3068661833030086 21.9164826019493191 O
atom -0.4441384901865622 1.9118378555442859 21.4559878407965670 O
atom 4.6033815005382337 0.4825642990986487 19.1483785323152311 O
atom 2.2491316518965050 1.9139596319579637 21.9161672572140063 O
atom 1.9050622899608298 0.4797349614239738 19.6095016129206030 O
atom 0.6729788572697982 2.8709052939859161 19.1506391034891621 O
atom 1.0153898724449317 4.3086844748145907 21.4524536314397665 O
atom 8.8156581103772957 1.1976994040602171 20.5323378350833892 V
atom 6.1199522294305098 1.1973988145327246 18.2357970479866438 V
atom 4.8847116520132561 3.5911190501012031 20.5345838754206653 V
atom 8.7585647545301555 2.8725226614804491 19.6145453210830212 O
atom 3.7107326790046664 4.3068213807535249 21.9166361490741295 O
atom 4.9447660281146382 1.9114715683738586 21.4546960087265717 O
atom 9.9914202694005301 0.4817267518458992 19.1489133905064648 O
atom 7.6389035611651135 1.9138645155340088 21.9166283201196563 O
atom 7.2942842393065694 0.4805891580108596 19.6092633180700275 O
atom 6.0601982764062150 2.8715438871769927 19.1487935660697275 O
atom 6.4026672183329199 4.3089896384749817 21.4529513240813614 O
atom 0.9571897749136895 5.9867752888679648 15.9215721000787838 V
atom -2.9740356901241967 8.3776787175715661 15.9242891813251184 V
atom -0.2792748975205194 8.3793448577547416 18.2198134947634394 V
atom 0.8967618734867100 7.6642847803288578 15.0000000000000000 O
atom -4.1503189313642164 9.0938788284621044 17.3084411001201879 O
atom -2.9159571792184935 6.7039482345295509 16.8410161053626446 O
atom -0.2199931703383245 6.7049486150013191 17.3061373278686688 O
atom -0.5627496161437217 5.2679620314898763 15.0048125610709704 O
atom -1.4522099274097888 9.0971431310265274 16.8473687573581294 O
atom 6.3452961618951118 5.9863375257489340 15.9218446752263532 V
atom 3.6511859542754181 5.9865154060168360 22.8369317201984146 V
atom 2.4139845778173452 8.3788707567878120 15.9235823779304511 V
atom 5.1097182040246691 8.3800215105412885 18.2193957940218141 V
atom 6.2853338227478472 7.6658572856210805 15.0021522155838838 O
atom 1.2380878725370568 9.0948396399360139 17.3077012272908064 O
atom 2.4716910734692723 6.7041383948214950 16.8421403418701630 O
atom 5.1697064716418035 6.7059041902160406 17.3070886681085199 O
atom 4.8270262548700655 5.2676268049096082 15.0037364981832226 O
atom 3.9357217733824741 9.0963615799150759 16.8470970807424720 O
atom 0.9572294968909889 5.9861680981501992 20.5306280186529975 V
atom -1.7377341350467859 5.9881301399615481 18.2356526379111621 V
atom -2.9740798443311975 8.3768007091068188 20.5338898465657991 V
atom -0.2786314235378381 8.3792250122152474 22.8357408029489406 V
atom 0.8994050992763526 7.6624629534163988 19.6148358357418573 O
atom -4.1492180029203007 9.0970108282513884 21.9158176982335533 O
atom -2.9137952033609751 6.7018470729625950 21.4553576219571553 O
atom 2.1330615598718179 5.2723178861425657 19.1485466114760996 O
atom -0.2207487135846101 6.7023086873922697 21.9157553474176723 O
atom -0.5651586518216896 5.2693202874095233 19.6089909145381434 O
atom -1.7965484383325978 7.6597034070682426 19.1512308214742788 O
atom -1.4548906792276330 9.0986390163906066 21.4518302139011539 O
atom 6.3450815235209044 5.9862428459624946 20.5305712350664322 V
atom 3.6499777623697427 5.9875758652847395 18.2341072945992373 V
atom 2.4143566213997341 8.3781281502293243 20.5323026212865258 V
atom 5.1097791860026680 8.3802428602978001 22.8367779113251999 V
atom 6.2881590418653053 7.6639701213709142 19.6159116231983575 O
atom 1.2392436715121471 9.0982137557294234 21.9149034691130495 O
atom 2.4747494518841475 6.7018058070634554 21.4554776405638989 O
atom 7.5206834538065976 5.2731547405267944 19.1478410341495540 O
atom 5.1684027442021883 6.7036904591217565 21.9166619475314661 O
atom 4.8238774914200668 5.2697731267272614 19.6090189569734079 O
atom 3.5908642585945634 7.6606581284661592 19.1497273044940641 O
atom 3.9331363590121420 9.0982296278937369 21.4524953725895386 O
atom 3.4281278275852509 1.1977732234958420 25.1404889948112213 V
atom 0.7330341518835225 1.1965802496468181 22.8391635245511324 V
atom -0.5032100483144832 3.5900188088732712 25.1459433317039398 V
atom 2.1921441523181335 3.5876503623970586 27.4401759587434100 V
atom 3.3674381555961985 2.8743004221330093 24.2203473011034376 O
atom -1.6784152324590873 4.3032325508009999 26.5268462012098780 O
atom -0.4454153727500176 1.9130037293591937 26.0599987087465337 O
atom 4.6028748858412953 0.4786691170551264 23.7586828733225701 O
atom 2.2505726335158265 1.9156949098976654 26.5241913201583870 O
atom 1.9086968356327250 0.4774091417171919 24.2230390809127343 O
atom 0.6758631078649164 2.8727550560948569 23.7594466068717409 O
atom 1.0192677781553503 4.3064979810352373 26.0663951638986546 O
atom 8.8166312543546184 1.1978641449382639 25.1411853880209080 V
atom 6.1209185924767011 1.1963005871965524 22.8376691714522337 V
atom 4.8860560665880559 3.5905309447505012 25.1438600172056965 V
atom 7.5810924472723311 3.5878650580835485 27.4408990087577394 V
atom 8.7565443634847995 2.8745675530716461 24.2195284566323821 O
atom 3.7098159018609227 4.3032387480675842 26.5262462922840001 O
atom 4.9430387355315517 1.9124784376703006 26.0592542092443011 O
atom 9.9908384122525931 0.4786364218872935 23.7588609931716306 O
atom 7.6401618078632287 1.9160356447934068 26.5246733699335238 O
atom 7.2976279975092906 0.4779981857548452 24.2227134603528498 O
atom 6.0629512231166913 2.8728261207209207 23.7579346708557324 O
atom 6.4072039300347940 4.3059576811690823 26.0660337627971117 O
atom 3.4282647539981821 1.1972812580631549 29.7497999525768790 V
atom 0.7336254867906973 1.1966247003448351 27.4552873984896095 V
atom -0.5030244677531058 3.5897042678499544 29.7544713218811268 V
atom 2.1907711880635055 3.5890890427597291 22.8376799080078996 V
atom 3.3704403429589411 2.8717483887138759 28.8339620766695219 O
atom -1.6762535358845827 4.3060420068597418 31.1346692133292038 O
atom -0.4428176103210487 1.9110136791010190 30.6741744521764446 O
atom 4.6047023804037464 0.4817401226553814 28.3665651436951123 O
atom 2.2504525317620176 1.9131354555146964 31.1343538685938910 O
atom 1.9063831698263434 0.4789107849807066 28.8276882243004806 O
atom 0.6742997371353119 2.8700811175426488 28.3688257148690397 O
atom 1.0167107523104455 4.3078602983713230 30.6706402428196512 O
atom 8.8169789902428093 1.1968752276169501 29.7505244464632739 V
atom 6.1212731092960233 1.1965746380894573 27.4539836593665285 V
atom 4.8860325318787687 3.5902948736579354 29.7527704868005571 V
atom 7.5796826069844041 3.5891890664977764 22.8379180766593137 V
atom 8.7598856343956708 2.8716984850371823 28.8327319324629059 O
atom 3.7120535588701777 4.3059972043102563 31.1348227604540213 O
atom 4.9460869079801508 1.9106473919305913 30.6728826201064635 O
atom 9.9927411492660436 0.4809025754026320 28.3671000018863495 O
atom 7.6402244410306261 1.9130403390907418 31.1348149314995410 O
atom 7.2956051191720830 0.4797649815675920 28.8274499294499122 O
atom 6.0615191562717277 2.8707197107337259 28.3669801774496122 O
atom 6.4039880981984352 4.3081654620317140 30.6711379354612461 O
atom 0.9585106547792027 5.9859511124246980 25.1397587114586685 V
atom -1.7366929506256077 5.9868826689082795 22.8383154751575574 V
atom -2.9727148102586831 8.3768545411282993 25.1424757927049995 V
atom -0.2779540176550059 8.3785206813114765 27.4380001061433205 V
atom 0.8980827533522232 7.6634606038855919 24.2181866113798776 O
atom -4.1489980514987019 9.0930546520188358 26.5266277115000690 O
atom -2.9146362993529800 6.7031240580862832 26.0592027167425258 O
atom 2.1325422430413772 5.2687587696824743 23.7584514008488057 O
atom -0.2186722904728113 6.7041244385580532 26.5243239392485535 O
atom -0.5614287362782082 5.2671378550466113 24.2229991724508551 O
atom -1.7957820192125473 7.6621976504655374 23.7584797566959267 O
atom -1.4508890475442755 9.0963189545832606 26.0655553687380177 O
atom 6.3466170417606262 5.9855133493056663 25.1400312866062379 V
atom 3.6525068341409308 5.9856912295735683 32.0551183315782993 V
atom 2.4153054576828583 8.3780465803445434 25.1417689893103358 V
atom 5.1110390838901827 8.3791973340980235 27.4375824054016988 V
atom 6.2866547026133617 7.6650331091778137 24.2203388269637685 O
atom 1.2394087524025692 9.0940154634927470 26.5258878386706840 O
atom 2.4730119533347854 6.7033142183782282 26.0603269532500406 O
atom 7.5205709811675279 5.2690940363374477 23.7581124869924949 O
atom 5.1710273515073171 6.7050800137727720 26.5252752794884117 O
atom 4.8283471347355791 5.2668026284663396 24.2219231095631073 O
atom 3.5916966027780317 7.6625763720247457 23.7574857637790515 O
atom 3.9370426532479863 9.0955374034718091 26.0652836921223496 O
atom 0.9585503767565020 5.9853439217069333 29.7488146300328822 V
atom -1.7364132551812723 5.9873059635182804 27.4538392492910432 V
atom -2.9727589644656840 8.3759765326635520 29.7520764579456838 V
atom -0.2773105436723249 8.3784008357719806 32.0539274143288324 V
atom 0.9007259791418657 7.6616387769731329 28.8330224471217420 O
atom -4.1478971230547863 9.0961866518081198 31.1340043096134451 O
atom -2.9124743234954620 6.7010228965193273 30.6735442333370472 O
atom 2.1343824397373310 5.2714937096992980 28.3667332228559843 O
atom -0.2194278337190965 6.7014845109490038 31.1339419587975570 O
atom -0.5638377719561763 5.2684961109662565 28.8271775259180316 O
atom -1.7952275584670838 7.6588792306249776 28.3694174328541635 O
atom -1.4535697993621191 9.0978148399473362 30.6700168252810386 O
atom 6.3464024033864188 5.9854186695192277 29.7487578464463098 V
atom 3.6512986422352554 5.9867516888414718 27.4522939059791184 V
atom 2.4156775012652467 8.3773039737860575 29.7504892326664105 V
atom 5.1111000658681816 8.3794186838545333 32.0549645227050846 V
atom 6.2894799217308197 7.6631459449276473 28.8340982345782351 O
atom 1.2405645513776593 9.0973895792861565 31.1330900804929342 O
atom 2.4760703317496611 6.7009816306201868 30.6736642519437765 O
atom 7.5220043336721112 5.2723305640835285 28.3660276455294351 O
atom 5.1697236240677000 6.7028662826784906 31.1348485589113579 O
atom 4.8251983712855795 5.2689489502839928 28.8272055683532855 O
atom 3.5921851384600756 7.6598339520228915 28.3679139158739488 O
atom 3.9344572388776551 9.0974054514504701 30.6706819839694305 O
atom 3.4294487074507645 1.1969490470525748 34.3586756061911061 V
atom 0.7343550317490356 1.1957560732035508 32.0573501359310171 V
atom -0.5018891684489701 3.5891946324300035 34.3641299430838245 V
atom 3.3687590354617121 2.8734762456897416 33.4385339124833152 O
atom -0.4440944928845040 1.9121795529159265 35.2781853201264184 O
atom 4.6041957657068089 0.4778449406118592 32.9768694847024548 O
atom 1.9100177154982385 0.4765849652739246 33.4412256922926190 O
atom 0.6771839877304299 2.8719308796515897 32.9776332182516256 O
atom 1.0205886580208643 4.3056738045919696 35.2845817752785464 O
atom 8.8179521342201301 1.1970399684949955 34.3593719994007927 V
atom 6.1222394723422147 1.1954764107532851 32.0558557828321113 V
atom 4.8873769464535712 3.5897067683072343 34.3620466285855741 V
atom 8.7578652433503112 2.8737433766283784 33.4377150680122597 O
atom 4.9443596153970670 1.9116542612270335 35.2774408206241858 O
atom 9.9921592921181048 0.4778122454440261 32.9770476045515224 O
atom 7.2989488773748041 0.4771740093115784 33.4409000717327274 O
atom 6.0642721029822049 2.8720019442776534 32.9761212822356171 O
atom 6.4085248099003085 4.3051335047258155 35.2842203741770035 O
atom 2.1920920679290194 3.5882648663164618 32.0558665193877843 V
atom 7.5810034868499150 3.5883648900545086 32.0561046880391984 V
atom 0.9598315346447169 5.9851269359814294 34.3579453228385532 V
atom -1.7353720707600944 5.9860584924650109 32.0565020865374350 V
atom -2.9713939303931705 8.3760303646850325 34.3606624040848843 V
atom 0.8994036332177369 7.6626364274423242 33.4363732227597694 O
atom -2.9133154194874664 6.7022998816430155 35.2773893281224105 O
atom 2.1338631229068912 5.2679345932392065 32.9766380122286904 O
atom -0.5601078564126943 5.2663136786033427 33.4411857838307327 O
atom -1.7944611393470336 7.6613734740222696 32.9766663680758043 O
atom -1.4495681676787624 9.0954947781399937 35.2837419801178953 O
atom 6.3479379216261398 5.9846891728623985 34.3582178979861226 V
atom 2.4166263375483723 8.3772224039012766 34.3599556006902134 V
atom 6.2879755824788734 7.6642089327345451 33.4385254383436532 O
atom 2.4743328332003003 6.7024900419349613 35.2785135646299253 O
atom 7.5218918610330405 5.2682698598941808 32.9762990983723796 O
atom 4.8296680146010926 5.2659784520230728 33.4401097209429921 O
atom 3.5930174826435470 7.6617521955814771 32.9756723751589291 O
atom 3.9383635331135003 9.0947132270285422 35.2834703035022343 O
