#===============================================================================
# Created using the Atomic Simulation Environment (ASE)

# Mon Mar 23 14:01:47 2026

#=======================================================
lattice_vector 9.2314623421363340 0.0000000000000000 0.0000000000000000 
lattice_vector 0.0003972008493561 9.2315018135911977 0.0000000000000000 
lattice_vector 0.0000000000000000 0.0000000000000000 31.3947635349705294 
atom 0.0000484019886503 0.0000217087262182 16.3946824299814615 V
atom 1.3830153087386179 1.3831813667330752 16.3945379223340346 O
atom 3.2324832178045360 3.2326642888469985 16.3945419376815948 O
atom 2.3078145008450122 2.3079295639223552 15.0000000000000000 V
atom 0.9252592211735137 3.6908186577070201 15.0002145249507421 O
atom 3.6904794659355473 0.9252888078469012 15.0004840350127751 O
atom 1.3832947792066366 5.9989334418052724 16.3947041673250702 O
atom 3.2327524955932661 7.8482918541378517 16.3947021526860226 O
atom 2.3081213800132643 6.9236210484082488 15.0002003949940104 V
atom 0.9248919692195317 8.3069186167771658 15.0012398299782461 O
atom 3.6912020832144088 5.5404259534213693 15.0010154800159405 O
atom 5.9992245236740676 1.3833624464231282 16.3942777372638844 O
atom 7.8486147768166070 3.2325700202079113 16.3942846126470840 O
atom 6.9238171125507968 2.3079579581068095 15.0002440349675012 V
atom 5.5405584110344952 3.6912231270828495 15.0010500199581358 O
atom 8.3071043894530252 0.9244689786969149 15.0012737399958027 O
atom 4.6158905128264927 4.6157421374083212 16.3946888699940523 V
atom 5.9991666467713909 5.9987719687516972 16.3944334823255922 O
atom 7.8490923788045253 7.8483928310159250 16.3944333876094746 O
atom 6.9240317597281607 6.9235577945596019 15.0002688599806362 V
atom 5.5413193165290773 8.3062824817338115 15.0005692649647813 O
atom 8.3067773707183594 5.5407287267048693 15.0003038150031536 O
atom 0.0003314327911370 4.6157897637134324 16.3947635349705330 V
atom 4.6157004037346923 0.0000528504365696 16.3947549049870531 V
