#===============================================================================
# Created using the Atomic Simulation Environment (ASE)

# Mon Mar 23 14:01:43 2026

#=======================================================
lattice_vector 10.7779019647855687 0.0000000000000000 0.0000000000000000 
lattice_vector -0.0013379047791915 9.2181866457684922 0.0000000000000000 
lattice_vector 0.0000000000000000 0.0000000000000000 33.8295721495952577 
atom 6.2337660185142676 2.3058637926989727 15.7199444870219764 V
atom 8.9243343955912025 4.6055504722820002 15.7165532230923901 V
atom 7.7516558700485509 1.3857838145716468 16.4344727600904505 O
atom 5.0562239455672779 0.9241193944943277 16.4345818836326245 O
atom 7.4115442025301919 3.6895041323614528 15.0022691650469753 O
atom 10.1007911304034064 3.2317080978932164 15.0036989310915132 O
atom 4.9982924753475952 0.0032506477379684 18.1127840637143862 V
atom 7.6922160864549394 2.3094414675275203 18.1123838751913553 V
atom 8.8647575358677333 3.6917656514718136 17.3934878107683133 O
atom 6.1746695619030652 3.2247735990284170 17.3938621964935862 O
atom 3.8205635605549602 1.3883568319904158 18.8292940131444553 O
atom 6.5149331563378201 0.9235780647841066 18.8295721495952577 O
atom 6.2332660100052095 6.9151747243052650 15.7194425670984188 V
atom 8.9262423344628363 0.0030543902677496 15.7163898809124305 V
atom 7.7480116897506210 5.9993987023759301 16.4355728991191228 O
atom 5.0581158327779843 5.5320019095523696 16.4372156282235622 O
atom 7.4093244397186711 8.2996665530531413 15.0005911532122056 O
atom 10.1031738800888871 7.8359530172649112 15.0016529590141587 O
atom 4.9983735652510362 4.6195651564969040 18.1128260121948514 V
atom 7.6920170561655556 6.9183519087762502 18.1118566561614713 V
atom 8.8661836470957276 8.3003423834399062 17.3963427939893123 O
atom 6.1716451096302825 7.8384021542019227 17.3953336496226854 O
atom 3.8230609937384199 5.9930931985560933 18.8279081229211371 O
atom 6.5137173553805061 5.5326233608529165 18.8269358177340038 O
atom 0.8434104606190569 2.3051334717131673 15.7195088340214042 V
atom 3.5365922841385902 4.6033746517169645 15.7169241905784460 V
atom 2.3620533854323735 1.3836231462041477 16.4347200949440833 O
atom 10.4457974173834049 0.9238879051421786 16.4343864905575288 O
atom 2.0212416888434959 3.6896367523551072 15.0022796191412979 O
atom 4.7121432583335201 3.2308682887174722 15.0035367129198676 O
atom 10.3877021979829056 0.0025132306257331 18.1131793566197103 V
atom 2.3017914053122830 2.3073502887713428 18.1106374320906625 V
atom 3.4770738429444483 3.6914072024604900 17.3935411040127406 O
atom 0.7868640347912633 3.2258463791702758 17.3942805022414930 O
atom 9.2085127016648922 1.3875664941908734 18.8294444363401681 O
atom 1.1267255705085140 0.9231290566123346 18.8284017792519762 O
atom 0.8428525923629637 6.9141893521048843 15.7188677318956209 V
atom 3.5375287536930946 0.0011153415697758 15.7170424623602187 V
atom 2.3592227226048994 5.9984590955296726 16.4358357579158394 O
atom 10.4473847924337271 5.5321699595041549 16.4368774639395596 O
atom 2.0192416392113124 8.2992545921930603 15.0000000000000000 O
atom 4.7147014277655401 7.8353295814996029 15.0014419733371440 O
atom 10.3878605555794543 4.6178754171940142 18.1129891432456560 V
atom 2.3009608710753930 6.9160705140978997 18.1102296578272188 V
atom 3.4795429830747717 8.2986096494037636 17.3957168354962519 O
atom 0.7833891412130117 7.8391838031046301 17.3955311838044366 O
atom 9.2118634700530961 5.9928487790372609 18.8272317727018645 O
atom 1.1240642385572406 5.5335571204447511 18.8271808359749855 O
