#===============================================================================
# Created using the Atomic Simulation Environment (ASE)

# Mon Mar 23 14:01:37 2026

#=======================================================
lattice_vector 3.7155747600003020 0.0000000000000000 0.0000000000000000 
lattice_vector 0.0000010448242668 6.4438726005089801 0.0000000000000000 
lattice_vector 0.0000000000000000 0.0000000000000000 58.0775951185690786 
atom 1.8577804273010454 4.6545622026978242 21.1193146748736353 V
atom 3.7155679857273021 2.2277155360773131 19.8809590593376129 V
atom 1.8577795304132103 1.5785041204014429 22.1812989564101670 V
atom 3.7155688926289092 5.3037992678395218 18.8189486850530017 V
atom 3.7155701989428302 6.4330261298350333 15.4268606134563626 V
atom 3.7155693020382703 3.3569478247741200 16.4888813241336294 V
atom 1.8577804035878300 6.2290027781571116 21.7857289490424364 O
atom 3.7155680094550481 0.6532675085813390 19.2145022739332489 O
atom 1.8577804773682152 2.4742364204444058 20.3078796766197414 O
atom 3.7155679356711353 4.4080597450324994 20.6923723101488619 O
atom 1.8577796933276156 3.6221397041504897 22.6820798289758727 O
atom 3.7155687297135782 3.2601687623090267 18.3181725193542277 O
atom 1.8577813514305945 5.1478306904075213 19.1869544549184070 O
atom 3.7155670716033260 1.7344295463440069 21.8132966150661858 O
atom 3.7155691303893188 1.5635799342712564 16.0933120640038325 O
atom 1.8577829472769192 6.1864897009964546 15.0000000000000000 O
atom 3.7155694749523178 5.4005780403097328 16.9896608353821357 O
atom 1.8577820832304091 3.5128685841036136 16.1208706750088169 O
atom 1.8577756040312527 1.0976021536191287 32.5041723958483004 V
atom 3.7155642072817754 5.1146280875075982 31.2658167803122851 V
atom 1.8577757519676843 4.4654166718317265 33.5661566773848392 V
atom 3.7155640693591163 1.7468392187608279 30.2038064060276739 V
atom 3.7155653756730382 2.8760660807563387 26.8117183344310277 V
atom 1.8577781640946862 0.4492283371625900 25.5733782321697589 V
atom 3.7155655235927449 6.2438603762044069 27.8737390451083016 V
atom 1.8577790709784681 3.5252891097874302 24.5114060728208472 V
atom 1.8577755803180369 2.6720427290784157 33.1705866700171157 O
atom 3.7155642310095223 3.5401800600116249 30.5993599949079211 O
atom 1.8577766989226892 5.3611489718746919 31.6927373975944136 O
atom 3.7155631124013433 0.8510996959538035 32.0772300311235270 O
atom 1.8577748700578229 0.0651796550717933 34.0669375499505449 O
atom 3.7155649512680515 6.1470813137393145 29.7030302403288928 O
atom 1.8577765281608014 1.5908706413288263 30.5718121758930792 O
atom 3.7155632931578002 4.6213420977742921 33.1981543360408580 O
atom 3.7155653519437930 4.4504924857015418 27.4781697849784976 O
atom 1.8577792326358618 5.3186564180784091 24.9069522615738066 O
atom 3.7155654257247290 0.6957242397310579 26.0003182051367787 O
atom 1.8577781240071263 2.6295296519177609 26.3848577209746722 O
atom 3.7155646516825254 1.8436179912310395 28.3745185563568043 O
atom 1.8577789080722433 1.4816616710703152 24.0106066233432642 O
atom 3.7155662897836539 3.3693250949224733 24.8794051794826814 O
atom 1.8577783047848833 6.3997811355338996 27.5057283959834891 O
atom 3.7155593840119829 1.5576680384289032 42.6506745012869644 V
atom 3.7155602909135901 4.6337517701911137 41.5886641270023318 V
atom 3.7155615972275116 5.7629786321866243 38.1965760554057141 V
atom 1.8577743856491604 3.3361408885928769 36.9582359531444240 V
atom 3.7155607003229520 2.6869003271257101 39.2585967660829667 V
atom 1.8577752925329420 6.4122016612177140 35.8962637937955265 V
atom 3.7155604525639960 6.4270926114419096 41.9842177158825862 O
atom 1.8577718756528963 1.8041889227959966 43.0775951185690786 O
atom 3.7155601279982586 2.5901212646606186 41.0878879613035579 O
atom 1.8577727497152756 4.4777831927591105 41.9566698968677656 O
atom 3.7155605286739997 0.8935324366228468 38.8630275059531698 O
atom 1.8577744093660691 1.7616963689997138 36.2918099825484788 O
atom 3.7155616472792032 3.5826367911613426 37.3851759261114438 O
atom 1.8577743455616003 5.5164422033480456 37.7697154419493373 O
atom 3.7155608732369991 4.7305305426613247 39.7593762773314765 O
atom 1.8577751296267175 4.3685742225006008 35.3954643443179364 O
atom 3.7155625113381276 6.2562376463527585 36.2642629004573536 O
atom 1.8577734815150904 2.8428210864552041 38.8905861169581542 O
