#===============================================================================
# Created using the Atomic Simulation Environment (ASE)

# Mon Mar 23 14:01:38 2026

#=======================================================
lattice_vector 11.9275710066048966 0.0000000000000000 0.0000000000000000 
lattice_vector -0.0000015025036944 3.7155747599999982 0.0000000000000000 
lattice_vector 0.0000000000000000 0.0000000000000000 42.2394807746256618 
atom 4.3707043673651453 1.8577880628201862 19.3872731819721267 V
atom 3.9124134975138767 0.0000006759223797 16.7015557426566303 V
atom 6.3016889443447477 1.8577879467836722 16.7678758269762724 V
atom 1.9813963660142062 0.0000008019595014 19.3209697988447395 V
atom 10.3344713681094902 0.0000006628191386 19.3872503017617426 V
atom 9.8761911421987634 1.8577880259219364 16.7015460057332170 V
atom 0.3379257407690376 0.0000005467824008 16.7678445078055489 V
atom 7.9452173335466325 1.8577881519587514 19.3209495436429037 V
atom 4.5372772150120984 1.8577881064656800 21.0888091342503294 O
atom 3.7458022952202521 0.0000006322759073 15.0000000000000000 O
atom 4.2463923592733561 1.8577880626180805 17.0641731415531908 O
atom 4.0366992526005729 0.0000006761248723 19.0246668859726391 O
atom 6.1702446509628501 1.8577880565446498 18.8678639886644177 O
atom 2.1128436377049180 0.0000006921988026 17.2209878879626785 O
atom 2.3791687511894013 1.8577881816127919 19.2818421137941911 O
atom 5.9039327000378492 0.0000005671287095 16.8069633463926245 O
atom 10.5010839264178895 0.0000007064646614 21.0887838147844633 O
atom 9.7096083065138270 1.8577879822760976 15.0000028007522630 O
atom 10.2101974313529329 0.0000006626169506 17.0641453316436724 O
atom 10.0005529130215116 1.8577880361237751 19.0246359596162016 O
atom 0.2064817488833930 0.0000006665431413 18.8678271395750592 O
atom 8.0766414663231867 1.8577880421978028 17.2209636164999473 O
atom 8.3429835005845465 0.0000007716121206 19.2818242265034527 O
atom 11.8677324624386458 1.8577879271271169 16.8069250954526126 O
atom 2.4490559958169054 1.8577883305685050 25.5379448223474590 V
atom 1.9907651259656349 0.0000009436706988 22.8522273830319627 V
atom 4.3800405727965064 1.8577882145319913 22.9185474673516083 V
atom 0.0597479944659649 0.0000010697078206 25.4716414392200790 V
atom 8.4128229965612480 0.0000009305674587 25.5379219421370749 V
atom 7.9545427706505221 1.8577882936702552 22.8522176461085564 V
atom 10.3438483758256936 0.0000008145307192 22.9185161481808848 V
atom 6.0235689619983903 1.8577884197070706 25.4716211840182467 V
atom 2.6156288434638570 1.8577883742139989 27.2394807746256618 O
atom 1.8241539236720108 0.0000009000242265 21.1506716403753288 O
atom 2.3247439877251144 1.8577883303663998 23.2148447819285231 O
atom 2.1150508810523321 0.0000009438731916 25.1753385263479714 O
atom 4.2485962794146079 1.8577883242929687 25.0185356290397465 O
atom 0.1911952661566771 0.0000009599471217 23.3716595283380109 O
atom 0.4575203796411599 1.8577884493611110 25.4325137541695270 O
atom 3.9822843284896070 0.0000008348770288 22.9576349867679603 O
atom 8.5794355548696473 0.0000009742129798 27.2394554551597921 O
atom 7.7879599349655848 1.8577882500244165 21.1506744411275989 O
atom 8.2885490598046925 0.0000009303652697 23.2148169720190118 O
atom 8.0789045414732694 1.8577883038720944 25.1753075999915339 O
atom 10.2124043839400471 0.0000009342914597 25.0184987799503986 O
atom 6.1549930947749445 1.8577883099461217 23.3716352568752797 O
atom 6.4213351290363070 0.0000010393604397 25.4324958668787851 O
atom 9.9460840908904053 1.8577881948754358 22.9575967358279449 O
