#===============================================================================
# Created using the Atomic Simulation Environment (ASE)

# Mon Mar 23 14:01:47 2026

#=======================================================
lattice_vector 9.2315018221363143 0.0000000000000000 0.0000000000000000 
lattice_vector 0.0000038100387047 5.5790402700009523 0.0000000000000000 
lattice_vector 0.0000000000000000 0.0000000000000000 41.0809213463778349 
atom 2.3088066425394143 1.3947633066793359 15.9247605023915391 V
atom 1.3840238401912583 5.5788411763217791 15.0000000000000000 O
atom 3.2335863370520035 5.5788466569485857 16.8493883302454499 O
atom 0.9262326941118798 1.3942467173889306 17.3077167967825893 O
atom 0.0009444883117540 2.7895884822884707 22.8483306611852122 V
atom 2.3088118275608993 4.1843039866794927 15.9247605073069458 V
atom 1.3842353398324228 2.7897840664467566 15.0002145100928175 O
atom 3.2334417383565075 2.7897904268440326 16.8492153279984258 O
atom 0.9262305642444688 4.1847891172314835 17.3074849611712374 O
atom 6.9244908858065477 1.3945568517563567 15.9248636639667929 V
atom 5.9997759230155827 5.5790074213768897 15.0000808698612857 O
atom 7.8492139096565401 5.5790068720090131 16.8494590127894774 O
atom 5.5413350228674751 1.3936918126986304 17.3080766811147519 O
atom 6.9245033209782818 4.1845043817592948 15.9248687884483964 V
atom 6.0000428101893348 2.7895832714192319 15.0001823690131566 O
atom 7.8491496215979142 2.7895805719179179 16.8493173090674269 O
atom 5.5413677366387679 4.1853205626498529 17.3080090040119750 O
atom 0.0010306068345428 0.0000204502928972 18.2327446032550746 V
atom 2.3090452079555219 1.3945938089272809 20.5407639584442343 V
atom 1.3844035400251140 5.5785846486963173 19.6162092030759148 O
atom 3.2336906852156981 5.5785929892972428 21.4655198892431152 O
atom 3.6923076374481592 1.3936738378706870 19.1573989202226151 O
atom 0.9255326984485264 1.3934295500145946 21.9241378834692036 O
atom 0.0009565029721707 2.7895350603363807 18.2327966098940557 V
atom 2.3090388329998466 4.1845516789279964 20.5407631133234254 V
atom 1.3844251393742280 2.7900758888290285 19.6164076268796386 O
atom 3.2334579766719695 2.7900831692044843 21.4653514385184714 O
atom 3.6922444836697794 4.1853565679089728 19.1574448951454208 O
atom 0.9256093731257713 4.1855824799886010 21.9241099150627328 O
atom 4.6167237077522616 5.5789946852941261 18.2327361146258262 V
atom 6.9246378793050214 1.3944859739521485 20.5407775319221351 V
atom 5.9998130555911899 5.5787403935548312 19.6159527403140324 O
atom 7.8495135123007147 5.5787417644806832 21.4657988875944206 O
atom 8.3075215920723817 1.3941691233523847 19.1580267814362308 O
atom 5.5416500575490089 1.3944818745952841 21.9235767648669402 O
atom 4.6168955761845476 2.7895987153856963 18.2328959858026316 V
atom 6.9246386744157755 4.1845765039538501 20.5407791665564794 V
atom 6.0003477923224802 2.7899109138722942 19.6164957732975829 O
atom 7.8487595517198514 2.7899097540582209 21.4650723983035299 O
atom 8.3073038667880628 4.1848758133611605 19.1580072303509077 O
atom 5.5418691027901668 4.1846125545794841 21.9235842747786016 O
atom 0.0012018781446493 5.5789919024169219 22.8485549407686541 V
atom 2.3092038416900773 1.3947706208112125 25.1562228359798929 V
atom 1.3844210393419207 5.5788484904536562 24.2314623335883574 O
atom 3.2339835362026665 5.5788539710804628 26.0808506638338038 O
atom 3.6920418024521164 1.3945664501519510 23.7733783564012988 O
atom 2.3092090267115619 4.1843113008113697 25.1562228408952997 V
atom 1.3846325389830851 2.7897913805786332 24.2316768436811749 O
atom 3.2338389375071697 2.7897977409759092 26.0806776615867797 O
atom 3.6920386324563719 4.1845247303097919 23.7736080612113234 O
atom 4.6169661309984606 0.0000327374719370 22.8486393703442978 V
atom 6.9248880849572103 1.3945641658882335 25.1563259975551468 V
atom 6.0001731221662462 5.5790147355087667 24.2315432034496361 O
atom 7.8496111088072036 5.5790141861408902 26.0809213463778384 O
atom 8.3081646547360215 1.3934504848399354 23.7729751491616135 O
atom 4.6170323843431440 2.7895490074129219 22.8485615439625782 V
atom 6.9249005201289444 4.1845116958911719 25.1563311220367432 V
atom 6.0004400093399983 2.7895905855511085 24.2316447026015176 O
atom 7.8495468207485777 2.7895878860497945 26.0807796426557807 O
atom 8.3081385714520053 4.1855500348889558 23.7730421930022722 O
