#===============================================================================
# Created using the Atomic Simulation Environment (ASE)

# Mon Mar 23 14:01:39 2026

#=======================================================
lattice_vector 12.3188787347632243 0.0000000000000000 0.0000000000000000 
lattice_vector -1.5101125036326633 6.2644276927716032 0.0000000000000000 
lattice_vector 0.0000000000000000 0.0000000000000000 40.3899029236191822 
atom 7.1645330754103567 2.4051730348529587 15.0000030341739965 V
atom 0.2500268308207005 5.5373916997514083 15.0000000000000000 V
atom 8.4253854627974416 0.4663157364677930 15.2517488719456473 O
atom 8.8347596004996074 3.3152165875102471 15.5995224951611107 O
atom 1.5109303788128752 3.5985908571267631 15.2517663980219016 O
atom 3.4303695847747386 0.1830432386099556 15.5995233822294157 O
atom 8.3173849415356749 0.1867171206922133 17.1503212877926501 V
atom 6.0438539833035652 2.1350198022399285 18.5322249129034056 V
atom 8.5779794860613112 3.4137083903779315 17.4798084174775639 V
atom 4.2731288286542988 5.1724254763511377 18.2027296972899109 V
atom 1.4028622657756245 3.3189410032950390 17.1503134500365917 V
atom -0.8706522612860853 5.2672384671383767 18.5322218787294091 V
atom 3.1735982418340409 0.2815323556597575 17.4798118820858015 V
atom 11.1876437594911771 2.0402472819475324 18.2027385195340585 V
atom 7.7921270097143660 5.0690148397760142 17.3570803714734687 O
atom 5.0589583770919484 3.5171475496132802 18.3254526398511182 O
atom 7.0565167738727350 2.1255516605242426 16.8985687027435496 O
atom 7.3047063706906474 0.1961625038547638 18.7839707506750564 O
atom 9.5197141881622258 1.5385487475660475 17.6351787696092508 O
atom 4.8415121702508621 0.7831535382034701 18.0473608054925414 O
atom 5.1370208624020703 5.5411132254861659 16.5507948045968121 O
atom 7.7140805083928159 3.0450633548972150 19.1317443738905197 O
atom 2.3877478744057163 1.9368330878194560 17.3570840679168441 O
atom 11.9734726713942958 0.3849419765755514 18.3254591661603605 O
atom 0.1420225599507594 5.2577989229575541 16.8985716832960335 O
atom 0.3902512867060862 3.3284376245137341 18.7839882767513124 O
atom 2.6052179211509494 4.6708053203352398 17.6351818213670164 O
atom 10.2458937977600542 3.9153948679027990 18.0473624038015501 O
atom -0.2673480302913566 2.4089291111145510 16.5508015595411884 O
atom 0.7995779890352840 6.1773176987685270 19.1317452609588230 O
atom 5.6865933457962159 6.1809915808507814 20.6825431665220592 V
atom 4.9231748911967754 1.8648665696268909 22.0644467916328146 V
atom 7.4573003939545135 3.1435551577649008 21.0120302962069729 V
atom 3.1524497365475144 4.9022722437381017 21.7349515760193235 V
atom 0.2821831736688334 3.0487877706820070 20.6825353287660008 V
atom 10.3275473813703424 4.9970852345253460 22.0644437574588181 V
atom 2.0529191497272490 0.0113791230467284 21.0120337608152106 V
atom 10.0669646673843864 1.7700940493345005 21.7349603982634676 V
atom 6.6714479176075718 4.7988616071629782 20.8893022502028778 O
atom 3.9382792849851684 3.2469943170002482 21.8576745185805308 O
atom 5.9358376817659435 1.8553984279112135 20.4307905814729587 O
atom 4.6739147749512009 6.1904369640133350 22.3161926294044690 O
atom 8.3990350960554387 1.2683955149530184 21.1674006483386599 O
atom 3.7208330781440657 0.5130003055904382 21.5795826842219540 O
atom 4.0163417702952788 5.2709599928731334 20.0830166833262211 O
atom 6.5934014162860262 2.7749101222841834 22.6639662526199288 O
atom 1.2670687822989251 1.6666798552064255 20.8893059466462567 O
atom 10.8527935792875052 0.1147887439625195 21.8576810448897731 O
atom -0.9786565321560210 4.9876456903445234 20.4307935620254426 O
atom -0.7304278054006988 3.0582843919006995 22.3162101554807251 O
atom 1.4845388290441588 4.4006520877222064 21.1674037000964290 O
atom 9.1252147056532600 3.6452416352897643 21.5795842825309592 O
atom 10.9308516123650730 2.1387758785015176 20.0830234382705974 O
atom -0.3211011030715125 5.9071644661554945 22.6639671396882356 O
atom 4.5659142536894191 5.9108383482377471 24.2147650452514682 V
atom 6.3366213018477273 2.8734019251518692 24.5442521749363820 V
atom 2.0317706444407118 4.6321190111250719 25.2671734547487361 V
atom 11.4803828163252604 2.7786345380689750 24.2147572074954098 V
atom -0.5778724460122096 6.0056535832052944 24.5442556395446232 V
atom 8.9462855752775852 1.4999408167214658 25.2671822769928767 V
atom 5.5507688255007848 4.5287083745499519 24.4215241289322869 O
atom 2.8176001928783769 2.9768410843872188 25.3898963973099363 O
atom 4.8151585896591476 1.5852451952981788 23.9630124602023677 O
atom 7.2783560039486366 0.9982422823399836 24.6996225270680725 O
atom 2.6001539860372844 0.2428470729774091 25.1118045629513631 O
atom 2.8956626781884776 5.0008067602601018 23.6152385620556302 O
atom 0.1463896901921331 1.3965266225933963 24.4215278253756694 O
atom 8.2220019835480507 6.1090632041210906 25.3899029236191822 O
atom 10.2195431105003998 4.7174924577314918 23.9630154407548517 O
atom 0.3638597369373678 4.1304988551091748 24.6996255788258381 O
atom 8.0045356135464729 3.3750884026767349 25.1118061612603682 O
atom 9.8101725202582966 1.8686226458884883 23.6152453170000101 O
