#===============================================================================
# Created using the Atomic Simulation Environment (ASE)

# Mon Mar 23 14:01:43 2026

#=======================================================
lattice_vector 14.1833344881180565 0.0000000000000000 0.0000000000000000 
lattice_vector 3.7544216431755140 10.1019537203898881 0.0000000000000000 
lattice_vector 0.0000000000000000 0.0000000000000000 37.6442115727791986 
atom 14.5022336235225371 1.4955301556254932 17.1626908476933266 V
atom 2.7526893385329849 3.4662111017129007 15.5035609191025259 V
atom 3.3007525380601410 4.5813839949735344 18.8253220612474479 V
atom 15.0524103742246584 2.6096396054237445 20.4768716202985530 V
atom 2.0704736888700710 0.9092977318212110 17.6620960433893401 O
atom 3.2944063955305154 5.8374865509382170 20.3148991478390144 O
atom 15.7371471544732593 5.1689823939456643 18.3211928715404540 O
atom 0.3220133042646000 0.2411175148286558 15.6683787140592443 O
atom 14.4980666666602716 2.7533298714289556 18.6575495097254063 O
atom 15.1412719236905549 2.8790040056840644 16.0021136416197862 O
atom 3.3066512453648902 3.3213212615629670 17.3289059828237129 O
atom 2.6560777220232734 3.1967545190098550 19.9853687445689374 O
atom 16.3790635468139989 6.5466801094947185 17.1632557006484419 V
atom 4.6309084231202311 8.5175051225278384 15.5022902009460140 V
atom 5.1794078879921450 9.6310418650312979 18.8241759515467280 V
atom 16.9291515958946306 7.6603479268513350 20.4775415025802658 V
atom 3.9481974401588236 5.9594724269101738 17.6616912149966936 O
atom 1.4176948146936901 0.7866461677977041 20.3144711588775664 O
atom 13.8600928776876984 0.1180314995083847 18.3202921764630062 O
atom 2.1992846589077319 5.2926793912297603 15.6684843950108785 O
atom 16.3748263904392495 7.8033476072125545 18.6581331218820381 O
atom 17.0189535294747216 7.9293811085913566 16.0022874269218676 O
atom 5.1853960718020629 8.3732694324896411 17.3278657767687676 O
atom 4.5333664049329929 8.2483391592765241 19.9847336986555888 O
atom 11.5061202467151826 2.6088986735991111 20.4837543735323848 V
atom 13.9356865426435981 4.5806646710138157 18.8299056690142024 V
atom 6.2974516117512733 3.4688628950031850 15.5040202657882347 V
atom 3.8618300996336807 1.4988381727285920 17.1613752402060982 V
atom 13.2525079766229226 2.0215372024879610 20.9848324594331928 O
atom 6.2929853251225945 4.7221586172507362 16.9952554273491998 O
atom 4.5448690398360938 4.0559850329026759 15.0027990270935661 O
atom 11.5119806123944208 1.3516618518535302 18.9908831895561079 O
atom 3.3089590757007481 1.6420536743658363 15.3358690081621845 O
atom 12.1503886950711841 3.9930430882472385 19.3212002293677827 O
atom 14.4929465937022695 4.4368477699228377 20.6485057115691220 O
atom 5.6576484647309195 2.0853487429538866 16.6621434194777009 O
atom 13.3825228023670917 7.6599825620987829 20.4839949060747557 V
atom 15.8140193245043470 9.6321690805029867 18.8289315014937557 V
atom 8.1759842284905453 8.5187894696399624 15.5032041737295003 V
atom 5.7388218525095276 6.5494927239298297 17.1616162142093316 V
atom 15.1301667775320592 7.0713742921245784 20.9839114333273358 O
atom 8.1701447830676326 9.7733955514270825 16.9953350066989515 O
atom 6.4225426235341114 9.1063935414045609 15.0016141801369969 O
atom 13.3884502653705493 6.4034414122089407 18.9906878743566949 O
atom 5.1853743858555266 6.6920044654421051 15.3361352931459791 O
atom 14.0280913393631685 9.0431021513717784 19.3216207880150037 O
atom 16.3722458303439851 9.4884498137146664 20.6476186218431792 O
atom 7.5351793702160563 7.1375461943777525 16.6627136397914484 O
atom 4.4138732271526422 2.6082820188653151 20.4821226497232018 V
atom 6.8492132718754410 4.5785042379290539 18.8243809369169455 V
atom 13.3887606264705727 3.4680958844015604 15.4999266841824763 V
atom 10.9591763393605373 1.4962069265413742 17.1552044580502496 V
atom 6.1669497381913523 2.0212121233333455 20.9811782028034841 O
atom 13.3826955217227077 4.7252440953350492 16.9939156356198424 O
atom 11.6422041212862286 4.0552490000272394 15.0000000000000000 O
atom 4.4182037458052923 1.3541806027504690 18.9894955034550321 O
atom 10.4013864163934677 1.6402677206184759 15.3358534396037669 O
atom 5.0536874411820891 3.9920098735419001 19.3231182064399576 O
atom 7.4033398106644217 4.4355994177139051 20.6490442214285608 O
atom 12.7446214882143920 2.0839629632620005 16.6639367464941870 O
atom 6.2907598223313768 7.6598344843613253 20.4820155336343745 V
atom 8.7273032344320498 9.6298521529788079 18.8231291750880843 V
atom 15.2674145948021369 8.5190833746857724 15.5002438906347138 V
atom 12.8369553878619023 6.5464817354796292 17.1553726365650334 V
atom 8.0438103361725339 7.0722775750204541 20.9838193802192094 O
atom 15.2610801429774092 9.7759193211673754 16.9940486873306966 O
atom 13.5191209246997914 9.1072789898900322 15.0009419596256990 O
atom 6.2960369570355033 6.4054640936469909 18.9894837492769426 O
atom 12.2782179414721266 6.6901409210617864 15.3372015250200917 O
atom 6.9309382152116674 9.0416459354350049 19.3221103760669379 O
atom 9.2818197741564425 9.4872294215018584 20.6485905566318735 O
atom 14.6216904548636393 7.1356340102939413 16.6631990794587495 O
atom 7.4100823277972889 1.4960986251532917 17.1609983587974568 V
atom 9.8418311509363239 3.4673995217141376 15.5086317948454138 V
atom 10.3922612919395032 4.5818010269442020 18.8209313001781737 V
atom 7.9588376725053713 2.6106053862587211 20.4812936480792516 V
atom 9.1576748849617200 0.9082893620276559 17.6633766518792257 O
atom 10.3899513068753251 5.8363320279190267 20.3160980220749607 O
atom 8.6410288347475053 5.1683384088229332 18.3235727144570504 O
atom 7.4165461505031747 0.2392835599284282 15.6701307280531879 O
atom 7.4039335491821419 2.7550861775404614 18.6556489066720275 O
atom 8.0552472520103500 2.8804502800215164 15.9998419838787029 O
atom 10.3963152899594498 3.3240686704605080 17.3273960254273121 O
atom 9.7539842361858184 3.1983022462030966 19.9828840974123807 O
atom 9.2876177686930266 6.5476813043973419 17.1610092689085647 V
atom 11.7199579990242935 8.5189118967174906 15.5071339271760280 V
atom 12.2714339388748783 9.6321517365238787 18.8207079700347180 V
atom 9.8361045782296195 7.6616919544777193 20.4827467146751445 V
atom 11.0351275536754265 5.9589406129187941 17.6651968676631981 O
atom 8.5141720254411144 0.7848992058087473 20.3162733100136066 O
atom 6.7637080702689509 0.1173899571371876 18.3236305858201547 O
atom 9.2950981959263270 5.2907339274592484 15.6702025450339448 O
atom 9.2812729966653151 7.8053554263577229 18.6572602630027617 O
atom 9.9325704298693687 7.9308485964947950 16.0001761740871586 O
atom 12.2755384320335263 8.3754928005082494 17.3269745832556836 O
atom 11.6306624875679248 8.2500167949087242 19.9830795454887777 O
atom 10.9438231418289362 5.6918214493947596 22.1454850649598498 V
atom 8.5131471075605365 2.4667278625105125 22.3103028599165683 O
atom 9.1490712388684390 5.1046143533659256 22.6440377874771102 O
atom 9.0676205832406556 0.6411617498198076 22.1442143468033450 V
atom 10.3904184622036748 7.5182897389116157 22.3104085408682025 O
atom 7.2723312014771020 0.0530377358833266 22.6442115727791986 O
atom 14.4885854150472220 5.6944732426850413 22.1459444116455586 V
atom 12.7360028431320345 6.2815953805845348 21.6447231729508971 O
atom 11.5000928789966910 3.8676640220476930 21.9777931540195084 O
atom 12.6126963886109795 0.6424460969319306 22.1451283195868314 V
atom 10.8592547836545368 1.2300501686965299 21.6435383259943137 O
atom 13.3765081891514672 8.9176148131239632 21.9780594390033031 O
atom 7.3965599416484675 5.6937062320834171 22.1418508300398003 V
atom 5.6500034364641172 6.2808593477090984 21.6419241458573239 O
atom 4.4091857315713590 3.8658780683003351 21.9777775854610908 O
atom 5.5207922668045137 0.6427400019777423 22.1421680364920377 V
atom 3.7724985967021714 1.2309356171819994 21.6428661054830229 O
atom 6.2860172566500072 8.9157512687436444 21.9791256708774156 O
atom 3.8496304661142120 5.6930098693959943 22.1505559407027448 V
atom 1.4243454656810630 2.4648939076102869 22.3120548739105118 O
atom 2.0630465671882403 5.1060606277033749 22.6417661297360269 O
atom 1.9733356710266667 0.6425685240094601 22.1490580730333519 V
atom 3.3028975111042151 7.5163442751411074 22.3121266908912688 O
atom 0.1859481018717452 0.0545052237867638 22.6421003199444826 O
