#===============================================================================
# Created using the Atomic Simulation Environment (ASE)

# Mon Mar 23 14:01:47 2026

#=======================================================
lattice_vector 9.2315018221363143 0.0000000000000000 0.0000000000000000 
lattice_vector 0.0000038100387047 5.5790402700009523 0.0000000000000000 
lattice_vector 0.0000000000000000 0.0000000000000000 54.9278932732405138 
atom 0.0001500900104293 2.7895738540247170 18.2323779208711763 V
atom 2.3082508096541958 1.3945791806635277 15.9248112181301913 V
atom 1.3836091417237886 5.5785700204325650 15.0002564627618753 O
atom 3.2328962869143725 5.5785783610334896 16.8495671489290721 O
atom 0.9247383001472007 1.3934149217508414 17.3081851431551712 O
atom 2.3082444346985205 4.1845370506642432 15.9248103730093931 V
atom 1.3836307410729021 2.7900612605652744 15.0004548865655991 O
atom 3.2326635783706434 2.7900685409407306 16.8493986982044319 O
atom 0.9248149748244456 4.1855678517248478 17.3081571747486898 O
atom 6.9238434810036953 1.3944713456883953 15.9248247916080921 V
atom 5.9990186572898629 5.5787257652910789 15.0000000000000000 O
atom 7.8487191139993886 5.5787271362169299 16.8498461472803882 O
atom 5.5408556592476828 1.3944672463315306 17.3076240245529043 O
atom 6.9238442761144494 4.1845618756900969 15.9248264262424506 V
atom 5.9995533940211532 2.7898962856085405 15.0005430329835434 O
atom 7.8479651534185262 2.7898951257944673 16.8491196579894904 O
atom 5.5410747044888407 4.1845979263157309 17.3076315344645693 O
atom 0.0004074798433236 5.5789772741531687 18.2326022004546147 V
atom 2.3084094433887512 1.3947559925474593 20.5402700956658535 V
atom 1.3836266410405953 5.5788338621899021 19.6155095932743251 O
atom 3.2331891379013404 5.5788393428167087 21.4648979235197679 O
atom 3.6912474041507912 1.3945518218881976 19.1574256160872665 O
atom 0.9258354949612171 1.3942394032570540 21.9232263900569038 O
atom 0.0005472891610907 2.7895811681565941 27.4638402544595337 V
atom 2.3084146284102363 4.1842966725476156 20.5402701005812602 V
atom 1.3838381406817599 2.7897767523148800 19.6157241033671355 O
atom 3.2330445392058440 2.7897831127121560 21.4647249212727438 O
atom 3.6912442341550467 4.1845101020460387 19.1576553208972875 O
atom 0.9258333650938061 4.1847818030996073 21.9229945544455518 O
atom 4.6161717326971345 0.0000181092081837 18.2326866300302548 V
atom 6.9240936866558851 1.3945495376244801 20.5403732572411073 V
atom 5.9993787238649201 5.5790001072450144 19.6155904631356037 O
atom 7.8488167105058775 5.5789995578771370 21.4649686060637919 O
atom 8.3073702564346963 1.3934358565761822 19.1570224088475811 O
atom 5.5409378237168116 1.3936844985667536 21.9235862743890735 O
atom 4.6162379860418179 2.7895343791491691 18.2326088036485316 V
atom 6.9241061218276192 4.1844970676274178 20.5403783817227072 V
atom 5.9996456110386722 2.7895759572873553 19.6156919622874746 O
atom 7.8487524224472516 2.7895732577860413 21.4648269023417413 O
atom 8.3073441731506801 4.1855354066252026 19.1570894526882398 O
atom 5.5409705374881053 4.1853132485179758 21.9235185972862894 O
atom 0.0006334076838800 0.0000131361610206 22.8482541965293890 V
atom 2.3086480088048589 1.3945864947954045 25.1562735517185452 V
atom 1.3840063408744510 5.5785773345644403 24.2317187963502292 O
atom 3.2332934860650351 5.5785856751653666 26.0810294825174296 O
atom 3.6919104382974965 1.3936665237388104 23.7729085134969367 O
atom 0.9251354992978635 1.3934222358827180 26.5396474767435251 O
atom 0.0005593038215073 2.7895277462045045 22.8483062031683772 V
atom 2.3086416338491835 4.1845443647961202 25.1562727065977541 V
atom 1.3840279402235649 2.7900685746971510 24.2319172201539530 O
atom 3.2330607775213069 2.7900758550726072 26.0808610317927894 O
atom 3.6918472845191164 4.1853492537770958 23.7729544884197388 O
atom 0.9252121739751086 4.1855751658567240 26.5396195083370472 O
atom 4.6163265086015981 5.5789873711622491 22.8482457079001406 V
atom 6.9242406801543579 1.3944786598202719 25.1562871251964530 V
atom 5.9994158564405273 5.5787330794229542 24.2314623335883539 O
atom 7.8491163131500521 5.5787344503488061 26.0813084808687456 O
atom 8.3071243929217182 1.3941618092205081 23.7735363747105488 O
atom 5.5412528583983462 1.3944745604634077 26.5390863581412617 O
atom 4.6164983770338841 2.7895914012538201 22.8484055790769460 V
atom 6.9242414752651120 4.1845691898219739 25.1562887598308080 V
atom 5.9999505931718176 2.7899035997404176 24.2320053665718973 O
atom 7.8483623525691888 2.7899024399263443 26.0805819915778550 O
atom 8.3069066676373993 4.1848684992292826 23.7735168236252221 O
atom 5.5414719036395033 4.1846052404476080 26.5390938680529231 O
atom 0.0008046789939864 5.5789845882850457 27.4640645340429721 V
atom 2.3088066425394143 1.3947633066793359 29.7717324292542145 V
atom 1.3840238401912583 5.5788411763217791 28.8469719268626754 O
atom 3.2335863370520035 5.5788466569485857 30.6963602571081253 O
atom 3.6916446033014543 1.3945591360200742 28.3888879496756203 O
atom 0.9262326941118798 1.3942467173889306 31.1546887236452648 O
atom 0.0009444883117540 2.7895884822884707 36.6953025880478876 V
atom 2.3088118275608993 4.1843039866794927 29.7717324341696212 V
atom 1.3842353398324228 2.7897840664467566 28.8471864369554929 O
atom 3.2334417383565075 2.7897904268440326 30.6961872548611012 O
atom 3.6916414333057088 4.1845174161779148 28.3891176544856449 O
atom 0.9262305642444688 4.1847891172314835 31.1544568880339128 O
atom 4.6165689318477972 0.0000254233400604 27.4641489636186158 V
atom 6.9244908858065477 1.3945568517563567 29.7718355908294683 V
atom 5.9997759230155827 5.5790074213768897 28.8470527967239612 O
atom 7.8492139096565401 5.5790068720090131 30.6964309396521529 O
atom 8.3077674555853598 1.3934431707080588 28.3884847424359350 O
atom 5.5413350228674751 1.3936918126986304 31.1550486079774274 O
atom 4.6166351851924814 2.7895416932810457 27.4640711372368926 V
atom 6.9245033209782818 4.1845043817592948 29.7718407153110718 V
atom 6.0000428101893348 2.7895832714192319 28.8471542958758320 O
atom 7.8491496215979142 2.7895805719179179 30.6962892359301023 O
atom 8.3077413723013436 4.1855427207570788 28.3885517862765973 O
atom 5.5413677366387679 4.1853205626498529 31.1549809308746504 O
atom 0.0010306068345428 0.0000204502928972 32.0797165301177500 V
atom 2.3090452079555219 1.3945938089272809 34.3877358853069097 V
atom 1.3844035400251140 5.5785846486963173 33.4631811299385902 O
atom 3.2336906852156981 5.5785929892972428 35.3124918161057906 O
atom 3.6923076374481592 1.3936738378706870 33.0043708470852906 O
atom 0.9255326984485264 1.3934295500145946 35.7711098103318790 O
atom 0.0009565029721707 2.7895350603363807 32.0797685367567311 V
atom 2.3090388329998466 4.1845516789279964 34.3877350401861008 V
atom 1.3844251393742280 2.7900758888290285 33.4633795537423140 O
atom 3.2334579766719695 2.7900831692044843 35.3123233653811468 O
atom 3.6922444836697794 4.1853565679089728 33.0044168220080962 O
atom 0.9256093731257713 4.1855824799886010 35.7710818419254082 O
atom 4.6167237077522616 5.5789946852941261 32.0797080414885016 V
atom 6.9246378793050214 1.3944859739521485 34.3877494587848105 V
atom 5.9998130555911899 5.5787403935548312 33.4629246671767078 O
atom 7.8495135123007147 5.5787417644806832 35.3127708144570960 O
atom 8.3075215920723817 1.3941691233523847 33.0049987082989063 O
atom 5.5416500575490089 1.3944818745952841 35.7705486917296156 O
atom 4.6168955761845476 2.7895987153856963 32.0798679126653070 V
atom 6.9246386744157755 4.1845765039538501 34.3877510934191548 V
atom 6.0003477923224802 2.7899109138722942 33.4634677001602583 O
atom 7.8487595517198514 2.7899097540582209 35.3120443251662053 O
atom 8.3073038667880628 4.1848758133611605 33.0049791572135831 O
atom 5.5418691027901668 4.1846125545794841 35.7705562016412770 O
atom 0.0012018781446493 5.5789919024169219 36.6955268676313295 V
atom 2.3092038416900773 1.3947706208112125 39.0031947628425684 V
atom 1.3844210393419207 5.5788484904536562 38.0784342604510329 O
atom 3.2339835362026665 5.5788539710804628 39.9278225906964792 O
atom 3.6920418024521164 1.3945664501519510 37.6203502832639742 O
atom 2.3092090267115619 4.1843113008113697 39.0031947677579751 V
atom 1.3846325389830851 2.7897913805786332 38.0786487705438503 O
atom 3.2338389375071697 2.7897977409759092 39.9276495884494551 O
atom 3.6920386324563719 4.1845247303097919 37.6205799880739988 O
atom 4.6169661309984606 0.0000327374719370 36.6956112972069732 V
atom 6.9248880849572103 1.3945641658882335 39.0032979244178222 V
atom 6.0001731221662462 5.5790147355087667 38.0785151303123115 O
atom 7.8496111088072036 5.5790141861408902 39.9278932732405138 O
atom 8.3081646547360215 1.3934504848399354 37.6199470760242889 O
atom 4.6170323843431440 2.7895490074129219 36.6955334708252536 V
atom 6.9249005201289444 4.1845116958911719 39.0033030488994186 V
atom 6.0004400093399983 2.7895905855511085 38.0786166294641930 O
atom 7.8495468207485777 2.7895878860497945 39.9277515695184562 O
atom 8.3081385714520053 4.1855500348889558 37.6200141198649476 O
