#===============================================================================
# Created using the Atomic Simulation Environment (ASE)

# Mon Mar 23 14:01:40 2026

#=======================================================
lattice_vector 15.1536015195045284 0.0000000000000000 0.0000000000000000 
lattice_vector -0.0000014388224574 3.7155747600000235 0.0000000000000000 
lattice_vector 0.0000000000000000 0.0000000000000000 35.5726182545268159 
atom 1.4609384360376518 1.8577858163060692 15.4756423209599632 V
atom 13.0330733690977993 3.7155730326664425 17.6763522580802892 V
atom 7.5826330038582919 1.8577859236701311 15.2557088960985539 V
atom 9.7393622687157393 3.7155730735178114 16.2860918109972097 V
atom 4.7546867305150586 1.8577857354574963 16.8658811288731734 V
atom 0.9225393626062203 1.8577855841027207 17.0983245289713217 O
atom 13.5714454220353886 3.7155732648738593 16.0536363954865884 O
atom 1.3028598994459570 3.7155732634618266 15.0086791016939252 O
atom 3.3164012133983025 1.8577858008436874 15.7313550977478300 O
atom 11.1775742454175919 3.7155730581275965 17.4206484530009718 O
atom 7.7407126308351746 3.7155732465152087 15.7226656120647696 O
atom 6.7533746895998039 1.8577855624598480 17.4293103848971036 O
atom 5.7271582261330369 1.8577859491319937 15.0000000000000000 O
atom 5.1340933404712876 3.7155731011845727 16.9915719991023906 O
atom 9.3599755340394548 1.8577857077957549 16.1603608253962854 O
atom 12.3618155183836294 1.8577852143015621 20.3169054777389526 V
atom 0.0361676040672832 1.8577854125129840 18.7067432664088287 V
atom 10.2050832327761469 3.7155728444546474 19.2865165195047119 V
atom 6.9113679481195911 3.7155728753073478 17.8962451737085324 V
atom 3.3299085666997410 1.8577853216656244 20.0969720528775433 V
atom 13.1911234059364588 1.8577855855106529 18.1433149687440221 O
atom 12.2037369817919270 3.7155726614573203 19.8499422584729039 O
atom 14.2172782957442880 1.8577851988391803 20.5726182545268124 O
atom 10.5844992987310889 1.8577854501816069 19.4122083593652910 O
atom 14.8103841118882027 3.7155728067898508 18.5810212696579562 O
atom 6.3730061572259729 3.7155726431024063 19.5189412705274243 O
atom 3.8683014556254065 1.8577855538702723 18.4742791624278659 O
atom 3.4879881936766308 3.7155726445107016 20.5639287688437555 O
atom 8.7668739609624886 3.7155728698446246 18.1519618675712557 O
atom 1.4744337889744998 1.8577853471274870 19.8412631567789823 O
