#===============================================================================
# Created using the Atomic Simulation Environment (ASE)

# Mon Mar 23 14:01:45 2026

#=======================================================
lattice_vector 18.4059850900857853 0.0000000000000000 0.0000000000000000 
lattice_vector -0.0015568314247998 9.2181866113943300 0.0000000000000000 
lattice_vector 0.0000000000000000 0.0000000000000000 38.4202012416476180 
atom 16.1061818790773081 2.3030464138118600 15.0059161600626680 V
atom 2.3021795708056474 2.3085007565526072 15.0026129700424100 V
atom -0.0006076182552670 4.6027309036702775 16.4033707711387997 V
atom 17.0305401532154121 1.3829022415290433 16.4059104114087830 O
atom 3.6768701636738115 3.6894036306867539 15.0000000000000000 O
atom 14.7288168840398370 0.9212402970218917 15.0032609365521203 O
atom 17.4853293512110461 3.6867487388352802 15.0061002496827740 O
atom 0.9220783319998231 0.9220040296508736 15.0037806945292758 O
atom 1.3750265183829093 3.2289501027952654 16.4067756849759370 O
atom 13.8060498172499493 0.0002241115459814 16.4060966317655641 V
atom 17.4818647106061924 3.6887987570366563 17.8042683132548838 O
atom 15.1845669521435536 3.2218091519468235 16.4046259508708694 O
atom 10.1280346091801885 0.9214134524521044 17.8073567665993941 O
atom 12.4274264215541113 1.3852684021208674 16.4051521682640491 O
atom 14.7280826590645102 0.9204871298657624 17.8075095208137526 O
atom 16.1058089184537323 6.9123573721878602 15.0055754950032636 V
atom 2.3018574037114736 6.9170287470270839 15.0024491274203626 V
atom 0.0013135016566456 0.0002348520321082 16.4038765589012847 V
atom 17.0266484088238919 5.9965170181797314 16.4053018711330019 O
atom 3.6764864572814453 8.2972266365598681 15.0035321817223952 O
atom 14.7288546731301508 5.5291225610607588 15.0068425218774593 O
atom 17.4840998575798601 8.2969112912434841 15.0038603954494931 O
atom 0.9220216588516068 5.5313831431237794 15.0006919431107875 O
atom 1.3779189622518098 7.8331951820055954 16.4066163307054040 O
atom 13.8058897241006786 4.6165385987120917 16.4065233212939283 V
atom 16.1064508977125875 6.9153229455778549 17.8076462785416787 V
atom 17.4813895993774260 8.2973752189675629 17.8077964807452425 O
atom 15.1810111736656168 7.8354375627612516 16.4046569923316952 O
atom 12.4300732662113536 5.9900048704036317 16.4056161906933760 O
atom 14.7282092317699984 5.5295326409562904 17.8049737157635271 O
atom 4.6028759460485853 0.0008704130732738 16.4073268714978120 V
atom 6.9021534475324611 2.3050282564389195 17.8048425102227164 V
atom 8.2793188225136412 3.6891801763408631 17.8042185306423555 O
atom 5.9814803646019898 3.2217576572294577 16.4058774010645507 O
atom 3.2247359018384980 1.3855541155530027 16.4043985976273490 O
atom 5.5252365809720771 0.9210322163915061 17.8071222941697762 O
atom 6.9023531230524400 2.3025887086145214 15.0042173249798978 V
atom 11.5044631573109690 2.3043264167075765 15.0011734314876897 V
atom 9.2031835183468420 4.6001373472073803 16.4051337385800871 V
atom 7.8276477851841735 1.3828937652028424 16.4071454505564454 O
atom 12.8811781297594639 3.6884452671682117 15.0005531768369345 O
atom 5.5270626496273190 0.9206699103714948 15.0034418655047261 O
atom 8.2806783736559293 3.6878326968751218 15.0068289901587057 O
atom 10.1275855156851868 0.9200431888665677 15.0024768300882698 O
atom 10.5784690331923912 3.2278386327205784 16.4058145418503543 O
atom 4.6028574153709911 4.6163941863019033 16.4078420581678799 V
atom 6.9017341979896081 6.9146289230403921 17.8040779627330963 V
atom 8.2800087680992807 8.2965567686978066 17.8074740621299803 O
atom 5.9785407269473225 7.8360991750011371 16.4052165785957449 O
atom 3.6791969681989376 8.2964944183907043 17.8071866830427155 O
atom 3.2274998636325738 5.9897324691792990 16.4043127955402177 O
atom 5.5230360828510419 5.5319698970482705 17.8045854338813285 O
atom 6.9024871267319527 6.9113152687882673 15.0040329306992142 V
atom 11.5037589866431116 6.9130466608362688 15.0007411086102707 V
atom 9.2032466457866278 9.2175194641127174 16.4053626607353848 V
atom 7.8242531794179930 5.9966531730598511 16.4070125384993979 O
atom 12.8819472289624830 8.2956475028174488 15.0040440070585959 O
atom 5.5275231401066867 5.5285850626876956 15.0069596615614280 O
atom 8.2806395033070554 8.2974059808387128 15.0042683381302773 O
atom 10.1257410854103220 5.5304713446499667 15.0003975031774530 O
atom 10.5816489215176155 7.8332369241186051 16.4060722568531823 O
atom 6.9036788465162697 2.3030364838259021 20.6147563948393824 V
atom 9.2043900606180014 0.0017134986315517 19.2110930836480271 V
atom 11.5056616283303939 2.3084908265666488 20.6114532048191244 V
atom 9.2028744392694772 4.6027209736843204 22.0122110059155212 V
atom 7.8280371206543684 1.3828923115430856 22.0147506461855009 O
atom 12.8803522211985655 3.6893937007007964 20.6088402347767179 O
atom 10.5835214688033439 3.2225486855892909 19.2095356643453385 O
atom 5.5263138514787924 0.9212303670359339 20.6121011713288347 O
atom 8.2828263186499989 3.6867388088493218 20.6149404844594883 O
atom 7.8262083454220148 1.3855890589451449 19.2088620743574410 O
atom 10.1255603895245603 0.9219940996649157 20.6126209293059866 O
atom 10.5785085759076463 3.2289401728093070 22.0156159197526513 O
atom 11.5050029202891722 2.3037378419183461 17.8103985338114903 V
atom 4.6035467846889011 0.0002141815600235 22.0149368665422820 V
atom 16.1065536628633375 2.3064124756116544 17.8078519476749335 V
atom 13.8038830588296602 4.6034489879843967 19.2081903635657483 V
atom 12.4289381883716477 1.3820784311330023 19.2108569599638699 O
atom 8.2793616780451451 3.6887888270506979 23.4131085480316017 O
atom 5.9820639195825160 3.2217992219608651 22.0134661856475908 O
atom 0.9255315766191442 0.9214035224661464 23.4161970013761120 O
atom 12.8833532894212119 3.6872258221291512 17.8113610068709072 O
atom 3.2249233889930755 1.3852584721349097 22.0139924030407705 O
atom 5.5255796265034709 0.9204771998798045 23.4163497555904669 O
atom 15.1799885297157413 3.2285837380674631 19.2104238251361537 O
atom 6.9033058858926895 6.9123474422019022 20.6144157297799815 V
atom 9.2039082556045244 4.6178373719507473 19.2114469680817983 V
atom 11.5053394612362272 6.9170188170411251 20.6112893621970805 V
atom 9.2047955591813828 0.0002249220461503 22.0127167936780026 V
atom 7.8241453762628561 5.9965070881937743 22.0141421059097198 O
atom 12.8799685148061904 8.2972167065739093 20.6123724164991131 O
atom 10.5802675413710539 7.8367244296268552 19.2091965209178959 O
atom 5.5263516405691018 5.5291126310748018 20.6156827566541700 O
atom 8.2815968250188146 8.2969013612575253 20.6127006302262075 O
atom 7.8289654960089141 5.9902382021873741 19.2089483456182997 O
atom 10.1255037163763610 5.5313732131378224 20.6095321778875018 O
atom 10.5814010197765551 7.8331852520196383 22.0154565654821219 O
atom 11.5041913153631565 6.9130769015280826 17.8097432372865434 V
atom 4.6033866915396393 4.6165286687261347 22.0153635560706462 V
atom 6.9039478651515447 6.9153130155918978 23.4164865133183966 V
atom 13.8057759869469816 0.0004680551906359 19.2085790406055210 V
atom 12.4245919033935230 5.9952819082149791 19.2101541774878406 O
atom 8.2788865668163876 8.2973652889816059 23.4166367155219639 O
atom 5.9785081411045784 7.8354276327752954 22.0134972271084095 O
atom 10.1275892699629608 5.5296524559805489 17.8102902512189445 O
atom 12.8817409235780662 8.2973673881583974 17.8088440834870170 O
atom 3.2275702336503183 5.9899949404176738 22.0144564254700903 O
atom 5.5257061992089538 5.5295227109703333 23.4138139505402485 O
atom 15.1838835408894059 7.8336879103498225 19.2106435405975233 O
atom 2.3009651680139886 2.3023111674191150 17.8092332651293219 V
atom 13.8063580035733313 0.0008604830873160 22.0161671062745334 V
atom 16.1056355050571973 2.3050183264529616 23.4136827449994342 V
atom 4.6019727370121357 4.6005500844029106 19.2087365999797228 V
atom 3.2256111437519830 1.3807365870391251 19.2102025271778700 O
atom 17.4828008800383934 3.6891702463549048 23.4130587654190698 O
atom 15.1849624221267430 3.2217477272435002 22.0147176358412651 O
atom 0.9252060731346561 0.9210038592770589 17.8078381307658624 O
atom 3.6799257419857896 3.6868763941618452 17.8098259646637409 O
atom 12.4282179593632431 1.3855441855670450 22.0132388324040669 O
atom 14.7287186384968134 0.9210222864055484 23.4159625289464941 O
atom 5.9771108359507004 3.2281053426077273 19.2112149565280248 O
atom 16.1058351805771771 2.3025787786285634 20.6130575597566121 V
atom 0.0004349746360910 9.2176683056733619 19.2110929718362691 V
atom 2.3019601247499262 2.3043164867216186 20.6100136662644040 V
atom 0.0006804857858024 4.6001274172214233 22.0139739733568049 V
atom 17.0311298427089106 1.3828838352168846 22.0159856853331597 O
atom 3.6786750971984321 3.6884353371822538 20.6093934116136488 O
atom 1.3810832843842988 3.2228769292717101 19.2099994466097748 O
atom 14.7305447071520508 0.9206599803855369 20.6122821002814405 O
atom 17.4841604311806798 3.6878227668891639 20.6156692249354236 O
atom 17.0282337115356590 1.3844730870338671 19.2091793154890560 O
atom 0.9250824831241458 0.9200332588806097 20.6113170648649806 O
atom 1.3759660006313592 3.2278287027346200 22.0146547766270722 O
atom 2.3006152418507630 6.9113670868674273 17.8087436198135052 V
atom 13.8063394728957363 4.6163842563159454 22.0166822929446013 V
atom 16.1052162555143354 6.9146189930544359 23.4129181975098106 V
atom 4.6013609039045402 9.2164773921694625 19.2089773273971254 V
atom 3.2224059458307623 5.9955724230924359 19.2100306913623271 O
atom 17.4834908256240453 8.2965468387118495 23.4163142969066982 O
atom 15.1820227844720677 7.8360892450151791 22.0140568133724628 O
atom 0.9250581131914069 5.5292856754469026 17.8111393621712004 O
atom 12.8826790257236912 8.2964844884047455 23.4160269178194369 O
atom 12.4309819211573274 5.9897225391933420 22.0131530303169285 O
atom 14.7265181403757879 5.5319599670623134 23.4134256686580464 O
atom 5.9801784434844407 7.8325667993521710 19.2111052637421373 O
atom 16.1059691842566970 6.9113053388023111 20.6128731654759285 V
atom 0.0020185537232392 4.6148438795914730 19.2113615516922067 V
atom 2.3012559540820763 6.9130367308503118 20.6095813433869850 V
atom 0.0007436132255877 9.2175095341267586 22.0142028955121027 V
atom 17.0277352369427284 5.9966432430738941 22.0158527732761122 O
atom 3.6794441964014477 8.2956375728314935 20.6128842418353102 O
atom 1.3772577674175486 7.8362142286665284 19.2096075340050874 O
atom 14.7310051976314327 5.5285751327017385 20.6157998963381459 O
atom 17.4841215608318059 8.2973960508527540 20.6131085729069952 O
atom 17.0320394673409119 5.9897555454733888 19.2093814567996510 O
atom 0.9232380528492942 5.5304614146640088 20.6092377379541709 O
atom 1.3791458889565793 7.8332269941326462 22.0149124916298931 O
atom 2.3024998877281324 2.3037279119323886 23.4192387685882082 V
atom 6.9040506303022999 2.3064025456256965 23.4166921824516514 V
atom 3.6808502568601718 3.6872158921431928 23.4202012416476215 O
atom 2.3016882828021177 6.9130669715421247 23.4185834720632613 V
atom 0.9250862374019179 5.5296425259945909 23.4191304859956659 O
atom 3.6792378910170274 8.2973574581724385 23.4176843182637349 O
atom 11.5044472255387422 2.3023012374331571 23.4180734999060363 V
atom 10.1286881306594090 0.9209939292911010 23.4166783655425803 O
atom 12.8834077995105432 3.6868664641758877 23.4186661994404517 O
atom 11.5040972993755162 6.9113571568814693 23.4175838545902231 V
atom 10.1285401707161533 5.5292757454609456 23.4199795969479219 O
