#===============================================================================
# Created using the Atomic Simulation Environment (ASE)

# Mon Mar 23 14:01:45 2026

#=======================================================
lattice_vector 18.4059850900857853 0.0000000000000000 0.0000000000000000 
lattice_vector -0.0015568314247998 9.2181866113943300 0.0000000000000000 
lattice_vector 0.0000000000000000 0.0000000000000000 45.4296913476353055 
atom 6.9026998215525683 2.3030563437978175 16.4065660312736341 V
atom 9.2034110356542911 0.0017333586034674 15.0029027200822789 V
atom 11.5046826033666871 2.3085106865385647 16.4032628412533761 V
atom 9.2018954143057723 4.6027408336562354 17.8040206423497693 V
atom 7.8270580956906670 1.3829121715150010 17.8065602826197491 O
atom 12.8793731962348552 3.6894135606727114 16.4006498712109696 O
atom 10.5825424438396336 3.2225685455612068 15.0013453007795867 O
atom 5.5253348265150910 0.9212502270078496 16.4039108077630864 O
atom 8.2818472936863028 3.6867586688212377 16.4067501208937401 O
atom 7.8252293204583090 1.3856089189170606 15.0006717107916945 O
atom 10.1245813645608624 0.9220139596368315 16.4044305657402383 O
atom 10.5775295509439360 3.2289600327812225 17.8074255561869030 O
atom 4.6025677597251997 0.0002340415319393 17.8067465029765302 V
atom 13.8029040338659570 4.6034688479563108 15.0000000000000000 V
atom 12.4279591634079427 1.3820982911049182 15.0026665963981216 O
atom 8.2783826530814437 3.6888086870226142 19.2049181844658570 O
atom 5.9810848946188111 3.2218190819327810 17.8052758220818426 O
atom 0.9245525516554387 0.9214233824380623 19.2080066378103602 O
atom 3.2239443640293661 1.3852783321068252 17.8058020394750223 O
atom 5.5246006015397695 0.9204970598517203 19.2081593920247151 O
atom 15.1790095047520399 3.2286035980393795 15.0022334615704054 O
atom 6.9023268609289836 6.9123673021738181 16.4062253662142332 V
atom 9.2029292306408230 4.6178572319226623 15.0032566045160500 V
atom 11.5043604362725258 6.9170386770130410 16.4030989986313287 V
atom 9.2038165342176814 0.0002447820180661 17.8045264301122543 V
atom 7.8231663512991432 5.9965269481656902 17.8059517423439715 O
atom 12.8789894898424926 8.2972365665458252 16.4041820529333684 O
atom 10.5792885164073365 7.8367442895987702 15.0010061573521440 O
atom 5.5253726156054004 5.5291324910467159 16.4074923930884218 O
atom 8.2806178000551132 8.2969212212294412 16.4045102666604556 O
atom 7.8279864710452136 5.9902580621592900 15.0007579820525514 O
atom 10.1245246914126579 5.5313930731097392 16.4013418143217535 O
atom 10.5804219948128502 7.8332051119915524 17.8072662019163666 O
atom 4.6024076665759370 4.6165485286980505 17.8071731925048979 V
atom 6.9029688401878424 6.9153328755638110 19.2082961497526483 V
atom 13.8047969619832749 0.0004879151625517 15.0003886770397727 V
atom 12.4236128784298181 5.9953017681868950 15.0019638139220923 O
atom 8.2779075418526844 8.2973851489535217 19.2084463519562156 O
atom 5.9775291161408690 7.8354474927472095 17.8053068635426612 O
atom 3.2265912086866089 5.9900148003895906 17.8062660619043420 O
atom 5.5247271742452488 5.5295425709422492 19.2056235869744931 O
atom 15.1829045159256939 7.8337077703217375 15.0024531770317751 O
atom 13.8053789786096299 0.0008803430592317 17.8079767427087781 V
atom 16.1046564800934924 2.3050381864248770 19.2054923814336860 V
atom 4.6009937120484299 4.6005699443748256 15.0005462364139728 V
atom 3.2246321187882856 1.3807564470110407 15.0020121636121218 O
atom 17.4818218550746813 3.6891901063268207 19.2048684018533216 O
atom 15.1839833971630291 3.2217675872154152 17.8065272722755132 O
atom 12.4272389343995453 1.3855640455389606 17.8050484688383186 O
atom 14.7277396135331085 0.9210421463774642 19.2077721653807423 O
atom 5.9761318109869990 3.2281252025796432 15.0030245929622765 O
atom 16.1048561556134757 2.3025986386004793 16.4048671961908603 V
atom -0.0005440503276104 9.2176881656452778 15.0029026082705172 V
atom 2.3009810997862208 2.3043363466935340 16.4018233026986557 V
atom -0.0002985391779031 4.6001472771933392 17.8057836097910531 V
atom 17.0301508177452128 1.3829036951888005 17.8077953217674114 O
atom 3.6776960722347223 3.6884551971541697 16.4012030480479005 O
atom 1.3801042594205892 3.2228967892436260 15.0018090830440283 O
atom 14.7295656821883565 0.9206798403574529 16.4040917367156922 O
atom 17.4831814062169677 3.6878426268610789 16.4074788613696754 O
atom 17.0272546865719541 1.3844929470057827 15.0009889519233077 O
atom 0.9241034581604403 0.9200531188525255 16.4031267012992323 O
atom 1.3749869756676496 3.2278485627065354 17.8064644130613239 O
atom 13.8053604479320260 4.6164041162878613 17.8084919293788495 V
atom 16.1042372305506412 6.9146388530263501 19.2047278339440624 V
atom 4.6003818789408344 9.2164972521413802 15.0007869638313771 V
atom 3.2214269208670570 5.9955922830643518 15.0018403277965806 O
atom 17.4825118006603333 8.2965666986837654 19.2081239333409464 O
atom 15.1810437595083663 7.8361091049870950 17.8058664498067110 O
atom 12.8817000007599862 8.2965043483766614 19.2078365542536815 O
atom 12.4300028961936260 5.9897423991652579 17.8049626667511802 O
atom 14.7255391154120741 5.5319798270342275 19.2052353050922981 O
atom 5.9791994185207269 7.8325866593240869 15.0029149001763891 O
atom 16.1049901592929956 6.9113251987742261 16.4046828019101802 V
atom 0.0010395287595296 4.6148637395633880 15.0031711881264584 V
atom 2.3002769291183705 6.9130565908222268 16.4013909798212367 V
atom -0.0002354117381178 9.2175293940986744 17.8060125319463509 V
atom 17.0267562119790270 5.9966631030458108 17.8076624097103640 O
atom 3.6784651714377343 8.2956574328034076 16.4046938782695619 O
atom 1.3762787424538430 7.8362340886384434 15.0014171704393373 O
atom 14.7300261726677260 5.5285949926736535 16.4076095327723941 O
atom 17.4831425358680974 8.2974159108246717 16.4049182093412433 O
atom 17.0310604423772034 5.9897754054453047 15.0011910932338992 O
atom 0.9222590278855805 5.5304812746359255 16.4010473743884191 O
atom 1.3781668639928697 7.8332468541045621 17.8067221280641448 O
atom 16.1061818790773081 2.3030464138118600 22.0154062660503520 V
atom 0.0009080030932461 0.0017234286175096 20.6117429548589968 V
atom 2.3021795708056474 2.3085007565526072 22.0121030760300940 V
atom -0.0006076182552670 4.6027309036702775 23.4128608771264837 V
atom 17.0305401532154121 1.3829022415290433 23.4154005173964670 O
atom 3.6768701636738115 3.6894036306867539 22.0094901059876840 O
atom 1.3800394112785990 3.2225586155752493 20.6101855355563082 O
atom 14.7288168840398370 0.9212402970218917 22.0127510425398043 O
atom 17.4853293512110461 3.6867487388352802 22.0155903556704580 O
atom 17.0287113779830506 1.3855989889311027 20.6095119455684106 O
atom 0.9220783319998231 0.9220040296508736 22.0132708005169597 O
atom 1.3750265183829093 3.2289501027952654 23.4162657909636209 O
atom 2.3015208627644266 2.3037477719043040 19.2110484050224599 V
atom 13.8060498172499493 0.0002241115459814 23.4155867377532481 V
atom 6.9030716053385941 2.3064224055976119 19.2085018188858996 V
atom 4.6004010013049195 4.6034589179703529 20.6088402347767179 V
atom 3.2254561308469016 1.3820883611189603 20.6115068311748395 O
atom 17.4818647106061924 3.6887987570366563 24.8137584192425678 O
atom 15.1845669521435536 3.2218091519468235 23.4141160568585533 O
atom 10.1280346091801885 0.9214134524521044 24.8168468725870781 O
atom 3.6798712318964619 3.6872357521151087 19.2120108780818732 O
atom 12.4274264215541113 1.3852684021208674 23.4146422742517331 O
atom 14.7280826590645102 0.9204871298657624 24.8169996268014366 O
atom 5.9765064721909997 3.2285936680534220 20.6110736963471233 O
atom 16.1058089184537323 6.9123573721878602 22.0150656009909476 V
atom 0.0004261980797878 4.6178473019367043 20.6120968392927679 V
atom 2.3018574037114736 6.9170287470270839 22.0119392334080466 V
atom 0.0013135016566456 0.0002348520321082 23.4133666648889687 V
atom 17.0266484088238919 5.9965170181797314 23.4147919771206858 O
atom 3.6764864572814453 8.2972266365598681 22.0130222877100792 O
atom 1.3767854838463007 7.8367343596128123 20.6098463921288655 O
atom 14.7288546731301508 5.5291225610607588 22.0163326278651432 O
atom 17.4840998575798601 8.2969112912434841 22.0133505014371771 O
atom 17.0314685285699525 5.9902481321733312 20.6095982168292693 O
atom 0.9220216588516068 5.5313831431237794 22.0101820490984714 O
atom 1.3779189622518098 7.8331951820055954 23.4161064366930880 O
atom 2.3007092578384118 6.9130868315140397 19.2103931084975130 V
atom 13.8058897241006786 4.6165385987120917 23.4160134272816123 V
atom 16.1064508977125875 6.9153229455778549 24.8171363845293627 V
atom 4.6022939294222365 0.0004779851765938 20.6092289118164871 V
atom 3.2211098458687775 5.9952918382009370 20.6108040486988102 O
atom 17.4813895993774260 8.2973752189675629 24.8172865867329264 O
atom 15.1810111736656168 7.8354375627612516 23.4141470983193791 O
atom 0.9241072124382125 5.5296623859665059 19.2109401224299141 O
atom 3.6782588660533220 8.2973773181443544 19.2094939546979866 O
atom 12.4300732662113536 5.9900048704036317 23.4151062966810599 O
atom 14.7282092317699984 5.5295326409562904 24.8144638217512110 O
atom 5.9804014833646555 7.8336978403357804 20.6112934118084894 O
atom 11.5034682005750373 2.3023210974050730 19.2098831363402880 V
atom 4.6028759460485853 0.0008704130732738 23.4168169774854960 V
atom 6.9021534475324611 2.3050282564389195 24.8143326162104003 V
atom 13.8044757695731715 4.6005600143888676 20.6093864711906889 V
atom 12.4281141763130361 1.3807465170250826 20.6108523983888361 O
atom 8.2793188225136412 3.6891801763408631 24.8137086366300395 O
atom 5.9814803646019898 3.2217576572294577 23.4153675070522347 O
atom 10.1277091056957076 0.9210137892630167 19.2084880019768356 O
atom 12.8824287745468293 3.6868863241478036 19.2104758358747105 O
atom 3.2247359018384980 1.3855541155530027 23.4138887036150329 O
atom 5.5252365809720771 0.9210322163915061 24.8166124001574602 O
atom 15.1796138685117459 3.2281152725936857 20.6118648277389909 O
atom 6.9023531230524400 2.3025887086145214 22.0137074309675818 V
atom 9.2029380071971403 9.2176782356593190 20.6117428430472316 V
atom 11.5044631573109690 2.3043264167075765 22.0106635374753736 V
atom 9.2031835183468420 4.6001373472073803 23.4146238445677710 V
atom 7.8276477851841735 1.3828937652028424 23.4166355565441293 O
atom 12.8811781297594639 3.6884452671682117 22.0100432828246184 O
atom 10.5835863169453344 3.2228868592576685 20.6106493178207479 O
atom 5.5270626496273190 0.9206699103714948 22.0129319714924101 O
atom 8.2806783736559293 3.6878326968751218 22.0163190961463897 O
atom 7.8247516540109139 1.3844830170198248 20.6098291867000221 O
atom 10.1275855156851868 0.9200431888665677 22.0119669360759538 O
atom 10.5784690331923912 3.2278386327205784 23.4153046478380382 O
atom 11.5031182744118059 6.9113770168533843 19.2093934910244748 V
atom 4.6028574153709911 4.6163941863019033 23.4173321641555638 V
atom 6.9017341979896081 6.9146289230403921 24.8135680687207802 V
atom 13.8038639364655804 9.2164873221554213 20.6096271986080914 V
atom 12.4249089783918070 5.9955823530783938 20.6106805625732967 O
atom 8.2800087680992807 8.2965567686978066 24.8169641681176643 O
atom 5.9785407269473225 7.8360991750011371 23.4147066845834289 O
atom 10.1275611457524466 5.5292956054328606 19.2117892333821665 O
atom 3.6791969681989376 8.2964944183907043 24.8166767890303994 O
atom 3.2274998636325738 5.9897324691792990 23.4138029015279017 O
atom 5.5230360828510419 5.5319698970482705 24.8140755398690125 O
atom 15.1826814760454702 7.8325767293381290 20.6117551349531070 O
atom 6.9024871267319527 6.9113152687882673 22.0135230366868981 V
atom 9.2045215862842760 4.6148538095774301 20.6120114229031763 V
atom 11.5037589866431116 6.9130466608362688 22.0102312145979546 V
atom 9.2032466457866278 9.2175194641127174 23.4148527667230688 V
atom 7.8242531794179930 5.9966531730598511 23.4165026444870819 O
atom 12.8819472289624830 8.2956475028174488 22.0135341130462798 O
atom 10.5797607999785921 7.8362241586524846 20.6102574052160499 O
atom 5.5275231401066867 5.5285850626876956 22.0164497675491120 O
atom 8.2806395033070554 8.2974059808387128 22.0137584441179612 O
atom 7.8285574098161632 5.9897654754593459 20.6100313280106135 O
atom 10.1257410854103220 5.5304713446499667 22.0098876091651370 O
atom 10.5816489215176155 7.8332369241186051 23.4155623628408662 O
atom 6.9036788465162697 2.3030364838259021 27.6242465008270663 V
atom 9.2043900606180014 0.0017134986315517 26.2205831896357111 V
atom 11.5056616283303939 2.3084908265666488 27.6209433108068083 V
atom 9.2028744392694772 4.6027209736843204 29.0217011119032051 V
atom 7.8280371206543684 1.3828923115430856 29.0242407521731849 O
atom 12.8803522211985655 3.6893937007007964 27.6183303407644019 O
atom 10.5835214688033439 3.2225486855892909 26.2190257703330225 O
atom 5.5263138514787924 0.9212303670359339 27.6215912773165186 O
atom 8.2828263186499989 3.6867388088493218 27.6244305904471723 O
atom 7.8262083454220148 1.3855890589451449 26.2183521803451249 O
atom 10.1255603895245603 0.9219940996649157 27.6221110352936705 O
atom 10.5785085759076463 3.2289401728093070 29.0251060257403353 O
atom 11.5050029202891722 2.3037378419183461 24.8198886397991743 V
atom 4.6035467846889011 0.0002141815600235 29.0244269725299660 V
atom 16.1065536628633375 2.3064124756116544 24.8173420536626175 V
atom 13.8038830588296602 4.6034489879843967 26.2176804695534322 V
atom 12.4289381883716477 1.3820784311330023 26.2203470659515538 O
atom 8.2793616780451451 3.6887888270506979 30.4225986540192856 O
atom 5.9820639195825160 3.2217992219608651 29.0229562916352748 O
atom 0.9255315766191442 0.9214035224661464 30.4256871073637960 O
atom 12.8833532894212119 3.6872258221291512 24.8208511128585911 O
atom 3.2249233889930755 1.3852584721349097 29.0234825090284545 O
atom 5.5255796265034709 0.9204771998798045 30.4258398615781509 O
atom 15.1799885297157413 3.2285837380674631 26.2199139311238376 O
atom 6.9033058858926895 6.9123474422019022 27.6239058357676655 V
atom 9.2039082556045244 4.6178373719507473 26.2209370740694823 V
atom 11.5053394612362272 6.9170188170411251 27.6207794681847645 V
atom 9.2047955591813828 0.0002249220461503 29.0222068996656866 V
atom 7.8241453762628561 5.9965070881937743 29.0236322118974037 O
atom 12.8799685148061904 8.2972167065739093 27.6218625224867971 O
atom 10.5802675413710539 7.8367244296268552 26.2186866269055798 O
atom 5.5263516405691018 5.5291126310748018 27.6251728626418540 O
atom 8.2815968250188146 8.2969013612575253 27.6221907362138914 O
atom 7.8289654960089141 5.9902382021873741 26.2184384516059836 O
atom 10.1255037163763610 5.5313732131378224 27.6190222838751858 O
atom 10.5814010197765551 7.8331852520196383 29.0249466714698059 O
atom 11.5041913153631565 6.9130769015280826 24.8192333432742274 V
atom 4.6033866915396393 4.6165286687261347 29.0248536620583302 V
atom 6.9039478651515447 6.9153130155918978 30.4259766193060806 V
atom 13.8057759869469816 0.0004680551906359 26.2180691465932050 V
atom 12.4245919033935230 5.9952819082149791 26.2196442834755246 O
atom 8.2788865668163876 8.2973652889816059 30.4261268215096479 O
atom 5.9785081411045784 7.8354276327752954 29.0229873330960935 O
atom 10.1275892699629608 5.5296524559805489 24.8197803572066285 O
atom 12.8817409235780662 8.2973673881583974 24.8183341894747009 O
atom 3.2275702336503183 5.9899949404176738 29.0239465314577743 O
atom 5.5257061992089538 5.5295227109703333 30.4233040565279325 O
atom 15.1838835408894059 7.8336879103498225 26.2201336465852073 O
atom 2.3009651680139886 2.3023111674191150 24.8187233711170059 V
atom 13.8063580035733313 0.0008604830873160 29.0256572122622174 V
atom 16.1056355050571973 2.3050183264529616 30.4231728509871182 V
atom 4.6019727370121357 4.6005500844029106 26.2182267059674068 V
atom 3.2256111437519830 1.3807365870391251 26.2196926331655540 O
atom 17.4828008800383934 3.6891702463549048 30.4225488714067538 O
atom 15.1849624221267430 3.2217477272435002 29.0242077418289490 O
atom 0.9252060731346561 0.9210038592770589 24.8173282367535464 O
atom 3.6799257419857896 3.6868763941618452 24.8193160706514249 O
atom 12.4282179593632431 1.3855441855670450 29.0227289383917508 O
atom 14.7287186384968134 0.9210222864055484 30.4254526349341781 O
atom 5.9771108359507004 3.2281053426077273 26.2207050625157088 O
atom 16.1058351805771771 2.3025787786285634 27.6225476657442961 V
atom 0.0004349746360910 9.2176683056733619 26.2205830778239530 V
atom 2.3019601247499262 2.3043164867216186 27.6195037722520880 V
atom 0.0006804857858024 4.6001274172214233 29.0234640793444889 V
atom 17.0311298427089106 1.3828838352168846 29.0254757913208437 O
atom 3.6786750971984321 3.6884353371822538 27.6188835176013328 O
atom 1.3810832843842988 3.2228769292717101 26.2194895525974587 O
atom 14.7305447071520508 0.9206599803855369 27.6217722062691244 O
atom 17.4841604311806798 3.6878227668891639 27.6251593309231076 O
atom 17.0282337115356590 1.3844730870338671 26.2186694214767400 O
atom 0.9250824831241458 0.9200332588806097 27.6208071708526646 O
atom 1.3759660006313592 3.2278287027346200 29.0241448826147561 O
atom 2.3006152418507630 6.9113670868674273 24.8182337258011891 V
atom 13.8063394728957363 4.6163842563159454 29.0261723989322853 V
atom 16.1052162555143354 6.9146189930544359 30.4224083034974946 V
atom 4.6013609039045402 9.2164773921694625 26.2184674333848093 V
atom 3.2224059458307623 5.9955724230924359 26.2195207973500111 O
atom 17.4834908256240453 8.2965468387118495 30.4258044028943822 O
atom 15.1820227844720677 7.8360892450151791 29.0235469193601467 O
atom 0.9250581131914069 5.5292856754469026 24.8206294681588844 O
atom 12.8826790257236912 8.2964844884047455 30.4255170238071209 O
atom 12.4309819211573274 5.9897225391933420 29.0226431363046125 O
atom 14.7265181403757879 5.5319599670623134 30.4229157746457304 O
atom 5.9801784434844407 7.8325667993521710 26.2205953697298213 O
atom 16.1059691842566970 6.9113053388023111 27.6223632714636125 V
atom 0.0020185537232392 4.6148438795914730 26.2208516576798907 V
atom 2.3012559540820763 6.9130367308503118 27.6190714493746690 V
atom 0.0007436132255877 9.2175095341267586 29.0236930014997867 V
atom 17.0277352369427284 5.9966432430738941 29.0253428792637962 O
atom 3.6794441964014477 8.2956375728314935 27.6223743478229942 O
atom 1.3772577674175486 7.8362142286665284 26.2190976399927713 O
atom 14.7310051976314327 5.5285751327017385 27.6252900023258299 O
atom 17.4841215608318059 8.2973960508527540 27.6225986788946791 O
atom 17.0320394673409119 5.9897555454733888 26.2188715627873350 O
atom 0.9232380528492942 5.5304614146640088 27.6187278439418549 O
atom 1.3791458889565793 7.8332269941326462 29.0244025976175770 O
atom 2.3024998877281324 2.3037279119323886 30.4287288745758921 V
atom 6.9040506303022999 2.3064025456256965 30.4261822884393354 V
atom 3.6808502568601718 3.6872158921431928 30.4296913476353055 O
atom 2.3016882828021177 6.9130669715421247 30.4280735780509453 V
atom 0.9250862374019179 5.5296425259945909 30.4286205919833499 O
atom 3.6792378910170274 8.2973574581724385 30.4271744242514188 O
atom 11.5044472255387422 2.3023012374331571 30.4275636058937202 V
atom 10.1286881306594090 0.9209939292911010 30.4261684715302643 O
atom 12.8834077995105432 3.6868664641758877 30.4281563054281357 O
atom 11.5040972993755162 6.9113571568814693 30.4270739605779070 V
atom 10.1285401707161533 5.5292757454609456 30.4294697029356058 O
