#===============================================================================
# Created using the Atomic Simulation Environment (ASE)

# Mon Mar 23 14:01:39 2026

#=======================================================
lattice_vector 12.3188787347632243 0.0000000000000000 0.0000000000000000 
lattice_vector -1.5101125036326633 6.2644276927716032 0.0000000000000000 
lattice_vector 0.0000000000000000 0.0000000000000000 33.8103202393972282 
atom 4.9231748911967754 1.8648665696268909 15.4848641074108606 V
atom 3.1524497365475144 4.9022722437381017 15.1553688917973695 V
atom 10.3275473813703424 4.9970852345253460 15.4848610732368641 V
atom 10.0669646673843864 1.7700940493345005 15.1553777140415136 V
atom 3.9382792849851684 3.2469943170002482 15.2780918343585768 O
atom 4.6739147749512009 6.1904369640133350 15.7366099451825150 O
atom 3.7208330781440657 0.5130003055904382 15.0000000000000000 O
atom 6.5934014162860262 2.7749101222841834 16.0843835683979748 O
atom 10.8527935792875052 0.1147887439625195 15.2780983606678191 O
atom -0.7304278054006988 3.0582843919006995 15.7366274712587710 O
atom 9.1252147056532600 3.6452416352897643 15.0000015983090051 O
atom -0.3211011030715125 5.9071644661554945 16.0843844554662816 O
atom 4.5659142536894191 5.9108383482377471 17.6351823610295142 V
atom 6.3366213018477273 2.8734019251518692 17.9646694907144280 V
atom 2.0317706444407118 4.6321190111250719 18.6875907705267821 V
atom 11.4803828163252604 2.7786345380689750 17.6351745232734558 V
atom -0.5778724460122096 6.0056535832052944 17.9646729553226692 V
atom 8.9462855752775852 1.4999408167214658 18.6875995927709226 V
atom 5.5507688255007848 4.5287083745499519 17.8419414447103328 O
atom 2.8176001928783769 2.9768410843872188 18.8103137130879823 O
atom 4.8151585896591476 1.5852451952981788 17.3834297759804137 O
atom 7.2783560039486366 0.9982422823399836 18.1200398428461185 O
atom 2.6001539860372844 0.2428470729774091 18.5322218787294091 O
atom 2.8956626781884776 5.0008067602601018 17.0356558778336762 O
atom 0.1463896901921331 1.3965266225933963 17.8419451411537153 O
atom 8.2220019835480507 6.1090632041210906 18.8103202393972282 O
atom 10.2195431105003998 4.7174924577314918 17.3834327565328977 O
atom 0.3638597369373678 4.1304988551091748 18.1200428946038841 O
atom 8.0045356135464729 3.3750884026767349 18.5322234770384142 O
atom 9.8101725202582966 1.8686226458884883 17.0356626327780560 O
