#===============================================================================
# Created using the Atomic Simulation Environment (ASE)

# Mon Mar 23 14:01:38 2026

#=======================================================
lattice_vector 11.9275710066048966 0.0000000000000000 0.0000000000000000 
lattice_vector -0.0000015025036944 3.7155747599999982 0.0000000000000000 
lattice_vector 0.0000000000000000 0.0000000000000000 48.3901524150009976 
atom 6.2923527389133866 1.8577877950718669 19.3872731819721267 V
atom 5.8340618690621175 0.0000004081740606 16.7015557426566303 V
atom 8.2233373158929890 1.8577876790353531 16.7678758269762760 V
atom 3.9030447375624475 0.0000005342111823 19.3209697988447431 V
atom 0.3285487330528353 0.0000003950708201 19.3872503017617461 V
atom 11.7978395137470056 1.8577877581736171 16.7015460057332206 V
atom 2.2595741123172788 0.0000002790340815 16.7678445078055525 V
atom 9.8668657050948738 1.8577878842104321 19.3209495436429108 V
atom 6.4589255865603388 1.8577878387173608 21.0888091342503330 O
atom 5.6674506667684934 0.0000003645275882 15.0000000000000000 O
atom 6.1680407308215974 1.8577877948697612 17.0641731415531908 O
atom 5.9583476241488142 0.0000004083765538 19.0246668859726391 O
atom 8.0918930225110870 1.8577877887963301 18.8678639886644177 O
atom 4.0344920092531602 0.0000004244504835 17.2209878879626785 O
atom 4.3008171227376426 1.8577879138644731 19.2818421137941947 O
atom 7.8255810715860905 0.0000002993803911 16.8069633463926245 O
atom 0.4951612913612348 0.0000004387163429 21.0887838147844633 O
atom 11.6312566780620674 1.8577877145277784 15.0000028007522666 O
atom 0.2042747962962778 0.0000003948686315 17.0641453316436760 O
atom 11.9222012845697538 1.8577877683754558 19.0246359596162016 O
atom 2.1281301204316345 0.0000003987948220 18.8678271395750663 O
atom 9.9982898378714271 1.8577877744494835 17.2209636164999509 O
atom 10.2646318721327887 0.0000005038638015 19.2818242265034527 O
atom 1.8618098273819914 1.8577876593787976 16.8069250954526126 O
atom 4.3707043673651453 1.8577880628201862 25.5379448223474625 V
atom 3.9124134975138767 0.0000006759223797 22.8522273830319662 V
atom 6.3016889443447477 1.8577879467836722 22.9185474673516083 V
atom 1.9813963660142062 0.0000008019595014 25.4716414392200754 V
atom 10.3344713681094902 0.0000006628191386 25.5379219421370784 V
atom 9.8761911421987634 1.8577880259219364 22.8522176461085529 V
atom 0.3379257407690376 0.0000005467824008 22.9185161481808848 V
atom 7.9452173335466325 1.8577881519587514 25.4716211840182396 V
atom 4.5372772150120984 1.8577881064656800 27.2394807746256653 O
atom 3.7458022952202521 0.0000006322759073 21.1506716403753359 O
atom 4.2463923592733561 1.8577880626180805 23.2148447819285266 O
atom 4.0366992526005729 0.0000006761248723 25.1753385263479750 O
atom 6.1702446509628501 1.8577880565446498 25.0185356290397536 O
atom 2.1128436377049180 0.0000006921988026 23.3716595283380144 O
atom 2.3791687511894013 1.8577881816127919 25.4325137541695270 O
atom 5.9039327000378492 0.0000005671287095 22.9576349867679603 O
atom 10.5010839264178895 0.0000007064646614 27.2394554551597992 O
atom 9.7096083065138270 1.8577879822760976 21.1506744411275989 O
atom 10.2101974313529329 0.0000006626169506 23.2148169720190083 O
atom 10.0005529130215116 1.8577880361237751 25.1753075999915374 O
atom 0.2064817488833930 0.0000006665431413 25.0184987799503951 O
atom 8.0766414663231867 1.8577880421978028 23.3716352568752832 O
atom 8.3429835005845465 0.0000007716121206 25.4324958668787886 O
atom 11.8677324624386458 1.8577879271271169 22.9575967358279485 O
atom 2.4490559958169054 1.8577883305685050 31.6886164627227949 V
atom 1.9907651259656349 0.0000009436706988 29.0028990234072985 V
atom 4.3800405727965064 1.8577882145319913 29.0692191077269442 V
atom 0.0597479944659649 0.0000010697078206 31.6223130795954148 V
atom 8.4128229965612480 0.0000009305674587 31.6885935825124108 V
atom 7.9545427706505221 1.8577882936702552 29.0028892864838923 V
atom 10.3438483758256936 0.0000008145307192 29.0691877885562207 V
atom 6.0235689619983903 1.8577884197070706 31.6222928243935826 V
atom 2.6156288434638570 1.8577883742139989 33.3901524150009976 O
atom 1.8241539236720108 0.0000009000242265 27.3013432807506646 O
atom 2.3247439877251144 1.8577883303663998 29.3655164223038589 O
atom 2.1150508810523321 0.0000009438731916 31.3260101667233073 O
atom 4.2485962794146079 1.8577883242929687 31.1692072694150824 O
atom 0.1911952661566771 0.0000009599471217 29.5223311687133467 O
atom 0.4575203796411599 1.8577884493611110 31.5831853945448628 O
atom 3.9822843284896070 0.0000008348770288 29.1083066271432962 O
atom 8.5794355548696473 0.0000009742129798 33.3901270955351279 O
atom 7.7879599349655848 1.8577882500244165 27.3013460815029347 O
atom 8.2885490598046925 0.0000009303652697 29.3654886123943477 O
atom 8.0789045414732694 1.8577883038720944 31.3259792403668698 O
atom 10.2124043839400471 0.0000009342914597 31.1691704203257345 O
atom 6.1549930947749445 1.8577883099461217 29.5223068972506155 O
atom 6.4213351290363070 0.0000010393604397 31.5831675072541209 O
atom 9.9460840908904053 1.8577881948754358 29.1082683762032808 O
