#===============================================================================
# Created using the Atomic Simulation Environment (ASE)

# Mon Mar 23 14:01:37 2026

#=======================================================
lattice_vector 3.7155747600003020 0.0000000000000000 0.0000000000000000 
lattice_vector 0.0000010448242668 6.4438726005089801 0.0000000000000000 
lattice_vector 0.0000000000000000 0.0000000000000000 41.0003650874455516 
atom 1.8577756040312527 1.0976021536191287 15.4269423647247734 V
atom 1.8577757519676843 4.4654166718317265 16.4889266462613122 V
atom 1.8577755803180369 2.6720427290784157 16.0933566388935887 O
atom 3.7155631124013433 0.8510996959538035 15.0000000000000000 O
atom 1.8577748700578229 0.0651796550717933 16.9897075188270179 O
atom 3.7155632931578002 4.6213420977742921 16.1209243049173310 O
atom 3.7155593840119829 1.5576680384289032 25.5734444701634374 V
atom 3.7155602909135901 4.6337517701911137 24.5114340958788048 V
atom 3.7155615972275116 5.7629786321866243 21.1193460242821871 V
atom 1.8577743856491604 3.3361408885928769 19.8810059220208970 V
atom 3.7155607003229520 2.6869003271257101 22.1813667349594397 V
atom 1.8577752925329420 6.4122016612177140 18.8190337626719995 V
atom 3.7155604525639960 6.4270926114419096 24.9069876847590592 O
atom 1.8577718756528963 1.8041889227959966 26.0003650874455516 O
atom 3.7155601279982586 2.5901212646606186 24.0106579301800309 O
atom 1.8577727497152756 4.4777831927591105 24.8794398657442386 O
atom 3.7155605286739997 0.8935324366228468 21.7857974748296428 O
atom 1.8577744093660691 1.7616963689997138 19.2145799514249518 O
atom 3.7155616472792032 3.5826367911613426 20.3079458949879168 O
atom 1.8577743455616003 5.5164422033480456 20.6924854108258103 O
atom 3.7155608732369991 4.7305305426613247 22.6821462462079495 O
atom 1.8577751296267175 4.3685742225006008 18.3182343131944094 O
atom 3.7155625113381276 6.2562376463527585 19.1870328693338266 O
atom 1.8577734815150904 2.8428210864552041 21.8133560858346272 O
