#===============================================================================
# Created using the Atomic Simulation Environment (ASE)

# Mon Mar 23 14:01:41 2026

#=======================================================
lattice_vector 9.2181867428585846 0.0000000000000000 0.0000000000000000 
lattice_vector 0.0015442526650186 10.7770658557386358 0.0000000000000000 
lattice_vector 0.0000000000000000 0.0000000000000000 36.2286907841446819 
atom 2.3003582536191374 1.8531106131730981 15.7192305426120384 V
atom 9.2182597649328706 9.9353026664579094 15.7199563324510905 V
atom 2.3038425146196566 8.6989506855304448 18.1101342046873839 V
atom 4.5982085276812468 0.6163166676085590 18.1120055823076882 V
atom 1.3786275257452982 1.7928147865117696 17.3966576317685977 O
atom 3.6877618295246277 7.5224691295300792 18.8264580664913410 O
atom 3.2207273920034019 8.7568978160113957 16.4364856907387704 O
atom 0.9192833129311312 3.0273401086002982 15.0019147032900975 O
atom 3.6846905721733223 0.6757292939719459 16.4375276566039190 O
atom 1.3834452020074068 0.3333025915699255 15.0003353227871941 O
atom 0.9200790375971651 9.8760817690134832 17.3953535770421439 O
atom 3.2270758152475039 10.2206441731774529 18.8296811456461768 O
atom 2.3014029331074628 7.2412169057765849 15.7187928038650568 V
atom 9.2161038227737766 4.5461158585822039 15.7195889458428297 V
atom 2.3023634048578363 3.3099051437129536 18.1113261807052339 V
atom 4.5985629587108070 6.0053097736910592 18.1126821977458903 V
atom 1.3815517326204616 7.1813863720810689 17.3982303294790839 O
atom 3.6862497263890797 2.1338101284039328 18.8274188118111212 O
atom 3.2210793583869939 3.3674799965602387 16.4366759515452969 O
atom 0.9197164231831580 8.4153688399798643 15.0022499396422404 O
atom 3.6864141204676608 6.0654287443149499 16.4384833168719169 O
atom 1.3831414735335339 5.7230785614371555 15.0000000000000000 O
atom 0.9183127334212638 4.4864946223917439 17.3957322097292604 O
atom 3.2260319960217183 4.8315100018367119 18.8288995702478843 O
atom 6.9094141664338187 1.8524899005787354 15.7190354367739928 V
atom 4.6155967326086715 9.9349210005581732 15.7207922902124864 V
atom 6.9134431862875445 8.6982460186920747 18.1096683298079597 V
atom 9.2141358729488410 0.6162987224138246 18.1122984360007919 V
atom 5.9934638373006823 1.7947967494794415 17.3952484065095518 O
atom 8.2951382396511253 7.5229098640702450 18.8300020010012972 O
atom 7.8350693404345426 8.7583985998796141 16.4347970866304181 O
atom 5.5275650883689256 3.0285199816697186 15.0050616589631289 O
atom 8.2943086537429540 0.6743132355923186 16.4352998641388410 O
atom 5.9876230231746010 0.3302338202800348 15.0021052274870499 O
atom 5.5310170241309109 9.8759755255090234 17.3924474103356701 O
atom 7.8315366882470059 10.2173036451862131 18.8315887051015025 O
atom 6.9101294049228406 7.2403418800339177 15.7191101795091015 V
atom 4.6132791948887695 4.5455672083513834 15.7202378773723837 V
atom 6.9110837021849578 3.3096168008176505 18.1109956290150720 V
atom 9.2159449991044031 6.0047091280414637 18.1133163768047041 V
atom 5.9953116479834074 7.1835504826159235 17.3967556706416815 O
atom 8.2934517664423453 2.1343057584614336 18.8312048467354458 O
atom 7.8344172380690447 3.3698773268686697 16.4347558314620272 O
atom 5.5276314320132034 8.4161419214079540 15.0058984502600055 O
atom 8.2959873452569752 6.0634645081639178 16.4366817169197930 O
atom 5.9884232235527959 5.7192699041849675 15.0025580693101830 O
atom 5.5287411349537008 4.4863225268419473 17.3934019973038474 O
atom 7.8314296846986826 4.8282646770570512 18.8311793760765482 O
atom 2.3018504844150671 10.1600463000768446 20.5103046090400980 V
atom 9.2183257148042834 7.4652824104229856 20.5089058790842245 V
atom 3.2207411956754437 6.2863713915371697 21.2256173232512140 O
atom 0.9187327536368204 0.5579254812023693 19.7910769614297948 O
atom 3.6853198696975866 8.9822928557047188 21.2283500061513735 O
atom 1.3842472694269143 8.6407467764777284 19.7898585030960916 O
atom 2.3017747389180783 4.7714837160031767 20.5103955927450414 V
atom 9.2160591674680710 2.0761011540881711 20.5086260830284743 V
atom 3.2192246055143796 0.8977596954347534 21.2250919650004732 O
atom 0.9196829211412295 5.9458889267769477 19.7910442821873716 O
atom 3.6850299140113330 3.5948160499145483 21.2286907841446819 O
atom 1.3831495269293972 3.2526120739582556 19.7904475180184249 O
atom 6.9111614400440216 10.1595227553738656 20.5102247512891296 V
atom 4.6162628608030838 7.4652122979893516 20.5093630465886676 V
atom 7.8349174234542742 6.2883079857275295 21.2240398156298156 O
atom 5.5266149455787490 0.5590927093947303 19.7945599469619395 O
atom 8.2954825640038425 8.9815121607861794 21.2262027355970986 O
atom 5.9888958813536499 8.6377733076004919 19.7917718372314582 O
atom 6.9111138698616630 4.7711709767403612 20.5098187856198422 V
atom 4.6141868729781326 2.0757941962588582 20.5093128677692320 V
atom 7.8328535510565827 0.9001467780697875 21.2236734129611833 O
atom 5.5279219341617116 5.9471313462919611 19.7937224475329572 O
atom 8.2951716866010514 3.5942180929169765 21.2261076603960817 O
atom 5.9878854825246535 3.2499293800376470 19.7926260125095439 O
