#===============================================================================
# Created using the Atomic Simulation Environment (ASE)

# Mon Mar 23 14:01:45 2026

#=======================================================
lattice_vector 18.4059850900857853 0.0000000000000000 0.0000000000000000 
lattice_vector -0.0015568314247998 9.2181866113943300 0.0000000000000000 
lattice_vector 0.0000000000000000 0.0000000000000000 31.4079902357321004 
atom 9.2028744392694772 4.6027209736843204 15.0000000000000000 V
atom 7.8280371206543684 1.3828923115430856 15.0025396402699798 O
atom 10.5785085759076463 3.2289401728093070 15.0034049138371302 O
atom 4.6035467846889011 0.0002141815600235 15.0027258606267608 V
atom 8.2793616780451451 3.6887888270506979 16.4008975421160805 O
atom 5.9820639195825160 3.2217992219608651 15.0012551797320697 O
atom 0.9255315766191442 0.9214035224661464 16.4039859954605909 O
atom 3.2249233889930755 1.3852584721349097 15.0017813971252494 O
atom 5.5255796265034709 0.9204771998798045 16.4041387496749458 O
atom 9.2047955591813828 0.0002249220461503 15.0005057877624814 V
atom 7.8241453762628561 5.9965070881937743 15.0019310999941986 O
atom 10.5814010197765551 7.8331852520196383 15.0032455595666008 O
atom 4.6033866915396393 4.6165286687261347 15.0031525501551251 V
atom 6.9039478651515447 6.9153130155918978 16.4042755074028754 V
atom 8.2788865668163876 8.2973652889816059 16.4044257096064428 O
atom 5.9785081411045784 7.8354276327752954 15.0012862211928883 O
atom 3.2275702336503183 5.9899949404176738 15.0022454195545691 O
atom 5.5257061992089538 5.5295227109703333 16.4016029446247273 O
atom 13.8063580035733313 0.0008604830873160 15.0039561003590123 V
atom 16.1056355050571973 2.3050183264529616 16.4014717390839131 V
atom 17.4828008800383934 3.6891702463549048 16.4008477595035487 O
atom 15.1849624221267430 3.2217477272435002 15.0025066299257439 O
atom 12.4282179593632431 1.3855441855670450 15.0010278264885457 O
atom 14.7287186384968134 0.9210222864055484 16.4037515230309729 O
atom 0.0006804857858024 4.6001274172214233 15.0017629674412838 V
atom 17.0311298427089106 1.3828838352168846 15.0037746794176385 O
atom 1.3759660006313592 3.2278287027346200 15.0024437707115510 O
atom 13.8063394728957363 4.6163842563159454 15.0044712870290802 V
atom 16.1052162555143354 6.9146189930544359 16.4007071915942895 V
atom 17.4834908256240453 8.2965468387118495 16.4041032909911770 O
atom 15.1820227844720677 7.8360892450151791 15.0018458074569416 O
atom 12.8826790257236912 8.2964844884047455 16.4038159119039157 O
atom 12.4309819211573274 5.9897225391933420 15.0009420244014073 O
atom 14.7265181403757879 5.5319599670623134 16.4012146627425253 O
atom 0.0007436132255877 9.2175095341267586 15.0019918895965816 V
atom 17.0277352369427284 5.9966432430738941 15.0036417673605911 O
atom 1.3791458889565793 7.8332269941326462 15.0027014857143719 O
atom 2.3024998877281324 2.3037279119323886 16.4070277626726870 V
atom 6.9040506303022999 2.3064025456256965 16.4044811765361302 V
atom 3.6808502568601718 3.6872158921431928 16.4079902357321004 O
atom 2.3016882828021177 6.9130669715421247 16.4063724661477401 V
atom 0.9250862374019179 5.5296425259945909 16.4069194800801448 O
atom 3.6792378910170274 8.2973574581724385 16.4054733123482137 O
atom 11.5044472255387422 2.3023012374331571 16.4058624939905151 V
atom 10.1286881306594090 0.9209939292911010 16.4044673596270592 O
atom 12.8834077995105432 3.6868664641758877 16.4064551935249305 O
atom 11.5040972993755162 6.9113571568814693 16.4053728486747019 V
atom 10.1285401707161533 5.5292757454609456 16.4077685910324007 O
