#===============================================================================
# Created using the Atomic Simulation Environment (ASE)

# Mon Mar 23 14:01:48 2026

#=======================================================
lattice_vector 13.0550062955565522 0.0000000000000000 0.0000000000000000 
lattice_vector -0.0000004316329117 5.5790402700022366 0.0000000000000000 
lattice_vector 0.0000000000000000 0.0000000000000000 32.6160178136124728 
atom 6.5272612126003704 4.1842695872085169 16.3078266334590971 V
atom 6.5272539862149772 0.0001923491192365 15.0000000000000000 O
atom 6.5271815079356275 0.0001856053834284 17.6155532150146108 O
atom 4.5716284045906166 4.1844726621987505 16.3078599142705478 O
atom 8.4827864054552968 4.1847872719793262 16.3080591050049541 O
atom 6.5272591126373056 1.3947289072052997 16.3078289562815080 V
atom 6.5272545581791075 2.7892494588492243 15.0003025811850534 O
atom 6.5271598566580069 2.7892418355844142 17.6153299844777926 O
atom 4.5717946381363994 1.3945143820565771 16.3080187480936694 O
atom 8.4826255391759364 1.3942448721264245 16.3078923220035215 O
atom 3.2637181534130977 5.5790056420401042 16.3080169852614283 V
atom 3.2636178363432791 2.7894893720467544 16.3080074567860329 V
atom 9.7910957263242615 5.5790142721339384 16.3079111947550963 V
atom 9.7911864624515577 2.7894996621487245 16.3078942208553279 V
atom 0.0000438347010978 4.1845505771045222 16.3079451312763588 V
atom 0.0000208612098006 0.0002967890824822 15.0000433251034835 O
atom 0.0001745642756619 0.0002941549709132 17.6160178136124692 O
atom 11.0994512490194897 4.1848663320066386 16.3080770395151653 O
atom 1.9557506134446487 4.1845557722384825 16.3077738872056379 O
atom 0.0000459915292365 1.3944600471030886 16.3079455020004609 V
atom 0.0000251798560916 2.7891262683995302 15.0008067700082783 O
atom 0.0001924066717931 2.7891261659090083 17.6149723238386819 O
atom 11.0995929395959472 1.3941596421581575 16.3079079094189971 O
atom 1.9556026016670851 1.3944250920938845 16.3079327414154953 O
