#===============================================================================
# Created using the Atomic Simulation Environment (ASE)

# Mon Mar 23 14:01:37 2026

#=======================================================
lattice_vector 3.7155747600003020 0.0000000000000000 0.0000000000000000 
lattice_vector 0.0000010448242668 6.4438726005089801 0.0000000000000000 
lattice_vector 0.0000000000000000 0.0000000000000000 49.0669884952258144 
atom 1.8577756040312527 1.0976021536191287 23.4935657725050362 V
atom 3.7155642072817754 5.1146280875075982 22.2552101569690208 V
atom 1.8577757519676843 4.4654166718317265 24.5555500540415750 V
atom 3.7155640693591163 1.7468392187608279 21.1931997826844096 V
atom 3.7155653756730382 2.8760660807563387 17.8011117110877635 V
atom 1.8577781640946862 0.4492283371625900 16.5627716088264947 V
atom 3.7155655235927449 6.2438603762044069 18.8631324217650373 V
atom 1.8577790709784681 3.5252891097874302 15.5007994494775829 V
atom 1.8577755803180369 2.6720427290784157 24.1599800466738515 O
atom 3.7155642310095223 3.5401800600116249 21.5887533715646569 O
atom 1.8577766989226892 5.3611489718746919 22.6821307742511493 O
atom 3.7155631124013433 0.8510996959538035 23.0666234077802628 O
atom 1.8577748700578229 0.0651796550717933 25.0563309266072807 O
atom 3.7155649512680515 6.1470813137393145 20.6924236169856286 O
atom 1.8577765281608014 1.5908706413288263 21.5612055525498150 O
atom 3.7155632931578002 4.6213420977742921 24.1875477126975937 O
atom 3.7155653519437930 4.4504924857015418 18.4675631616352334 O
atom 1.8577792326358618 5.3186564180784091 15.8963456382305424 O
atom 3.7155654257247290 0.6957242397310579 16.9897115817935145 O
atom 1.8577781240071263 2.6295296519177609 17.3742510976314080 O
atom 3.7155646516825254 1.8436179912310395 19.3639119330135401 O
atom 1.8577789080722433 1.4816616710703152 15.0000000000000000 O
atom 3.7155662897836539 3.3693250949224733 15.8687985561394171 O
atom 1.8577783047848833 6.3997811355338996 18.4951217726402248 O
atom 3.7155593840119829 1.5576680384289032 33.6400678779437001 V
atom 3.7155602909135901 4.6337517701911137 32.5780575036590676 V
atom 3.7155615972275116 5.7629786321866243 29.1859694320624499 V
atom 1.8577743856491604 3.3361408885928769 27.9476293298011598 V
atom 3.7155607003229520 2.6869003271257101 30.2479901427397024 V
atom 1.8577752925329420 6.4122016612177140 26.8856571704522622 V
atom 3.7155604525639960 6.4270926114419096 32.9736110925393220 O
atom 1.8577718756528963 1.8041889227959966 34.0669884952258144 O
atom 3.7155601279982586 2.5901212646606186 32.0772813379602937 O
atom 1.8577727497152756 4.4777831927591105 32.9460632735245014 O
atom 3.7155605286739997 0.8935324366228468 29.8524208826099056 O
atom 1.8577744093660691 1.7616963689997138 27.2812033592052146 O
atom 3.7155616472792032 3.5826367911613426 28.3745693027681796 O
atom 1.8577743455616003 5.5164422033480456 28.7591088186060730 O
atom 3.7155608732369991 4.7305305426613247 30.7487696539882123 O
atom 1.8577751296267175 4.3685742225006008 26.3848577209746722 O
atom 3.7155625113381276 6.2562376463527585 27.2536562771140893 O
atom 1.8577734815150904 2.8428210864552041 29.8799794936148899 O
