#===============================================================================
# Created using the Atomic Simulation Environment (ASE)

# Mon Mar 23 14:01:48 2026

#=======================================================
lattice_vector 10.7863573876396668 0.0000000000000000 0.0000000000000000 
lattice_vector 0.0003366819931270 9.2315018159967526 0.0000000000000000 
lattice_vector 0.0000000000000000 0.0000000000000000 43.3700716953299903 
atom 7.9007702932695354 0.0001155209053262 15.7163666813722891 V
atom 10.5972344690190354 2.3080243282942776 15.7163308791930518 V
atom 1.3233868302293850 3.2325990769797337 15.0009980547473543 O
atom 9.4138689878013633 3.6908970934671772 15.0013830165606912 O
atom 1.3237509931279552 7.8483069500095128 15.0008711989374799 O
atom 9.4130227266113415 8.3069970663968089 15.0019678352342716 O
atom 5.2043889974934805 2.3080610019799992 15.7163059357169725 V
atom 6.7174293051918976 3.2326474877413220 15.0006773702613820 O
atom 4.0209676555164950 3.6913665929383108 15.0000000000000000 O
atom 2.5075337209656214 0.0000706524383841 15.7164099301685720 V
atom 5.2046247250649662 6.9236536678019585 15.7162206661863806 V
atom 6.7177594774117493 7.8484703058544598 15.0009490053829886 O
atom 4.0214171527716029 8.3065805342383499 15.0007486371335830 O
atom 5.0151205406825499 0.0002245734418991 20.4911667638688400 V
atom 9.1544202148994209 2.3080755741730279 18.1037133345402488 V
atom 9.0844508716373085 1.3832915130222105 16.4315258166786151 O
atom 10.6673073558433593 3.2327962827729957 17.3880905468186064 O
atom 7.9710741417540092 3.6909566936553322 17.3882892626347285 O
atom 10.3382347929737755 0.9254584499385689 18.8185783808553353 O
atom 6.4580297723447790 9.2314163875592499 18.1037506083535966 V
atom 7.7115847164320499 2.3081333808308511 20.4911309616895991 V
atom 7.6415701000476020 1.3835594459897129 18.8194330873547031 O
atom 9.2240944652820680 3.2327081295163071 19.7757981372439033 O
atom 6.5282192352143769 3.6910061460037502 19.7761830990572385 O
atom 0.9939751193185153 0.9253999153038447 16.4319333285788964 O
atom 7.9009689436099180 4.6158835796226603 15.7164797643725258 V
atom 9.1547836286822282 6.9237598072558395 18.1035899992037628 V
atom 9.0846024378233015 5.9990435933885484 16.4317099252256966 O
atom 10.6674533176093167 7.8484238531238635 17.3882642254268696 O
atom 7.9714746242451637 8.3070795344032735 17.3871256169498132 O
atom 10.3389981295592612 5.5405607539238746 18.8182896109687192 O
atom 6.4580794613815167 4.6160024565725637 18.1038362435466880 V
atom 10.5973918293994647 6.9237158190423145 15.7165583928569426 V
atom 7.6418147925991802 5.9993669104922658 18.8192446133588653 O
atom 9.2244586281806349 7.8484160025460872 19.7756712814340290 O
atom 6.5273729740243569 8.3071061189333797 19.7767679177308224 O
atom 0.9943170581977301 5.5405370782966674 16.4326592150264332 O
atom 1.0646614800867940 0.0002011893158818 18.1037878005103963 V
atom 2.3187392449064919 2.3081700545165718 20.4911060182135216 V
atom 2.2489910090916903 1.3835271197195897 18.8189504348050747 O
atom 3.8317795526049134 3.2327565402778946 19.7754774527579329 O
atom 1.1353179029295057 3.6914756454748834 19.7748000824965473 O
atom 6.3888959633819651 0.9245052914133873 16.4308326877846227 O
atom 10.4082413560183049 0.0001797049749568 20.4912100126651211 V
atom 3.7613369877143885 2.3081072565570366 18.1040801736534931 V
atom 3.6914625924295268 1.3834961107047286 16.4325186059030983 O
atom 5.2739376868999130 3.2324712348018187 17.3888549577725513 O
atom 2.5770635642115685 3.6913560997688601 17.3892746694967713 O
atom 4.9446853913189370 0.9246346378773100 18.8204715303368886 O
atom 1.0648567091909276 4.6158904761444353 18.1037268941328442 V
atom 2.3189749724779780 6.9237627203385310 20.4910207486829279 V
atom 2.2488592889824024 5.9989366431591815 18.8189510780801221 O
atom 3.8321097248247642 7.8485793583910324 19.7757490878795394 O
atom 1.1357674001846165 8.3066895867749242 19.7755487196301374 O
atom 6.3880397921911758 5.5406226848093052 16.4314430880636877 O
atom 2.5077541949798130 4.6160097206797657 15.7165158093471256 V
atom 3.7615062220384612 6.9237070948705028 18.1041097232777197 V
atom 3.6917917095395332 5.9994187547196507 16.4324230047384034 O
atom 5.2739568916196164 7.8477728122187687 17.3885622129807231 O
atom 2.5779618133144271 8.3064154531964327 17.3891540744886193 O
atom 4.9449055586626063 5.5408943625821045 18.8193695462351727 O
atom 2.1294707880955639 0.0003336259784721 25.2659668463653873 V
atom 6.2687704623124301 2.3081846267096013 22.8785134170367996 V
atom 6.1988011190503256 1.3834005655587838 21.2063258991751624 O
atom 7.7816576032563747 3.2329053353095683 22.1628906293151537 O
atom 5.0854243891670254 3.6910657461919056 22.1630893451312758 O
atom 7.4525850403867917 0.9255675024751417 23.5933784633518862 O
atom 3.5720433377646685 0.0000236240990725 22.8785506908501439 V
atom 4.8259349638450635 2.3082424333674241 25.2659310441861535 V
atom 4.7559203474606182 1.3836684985262862 23.5942331698512504 O
atom 6.3384447126950798 3.2328171820528802 24.5505982197404506 O
atom 3.6425694826273953 3.6911151985403237 24.5509831815537893 O
atom 8.8946827543711944 0.9255089678404176 21.2067334110754437 O
atom 5.0153191910229289 4.6159926321592328 20.4912798468690731 V
atom 6.2691338760952409 6.9238688597924121 22.8783900817003136 V
atom 6.1989526852363186 5.9991526459251210 21.2065100077222439 O
atom 7.7818035650223321 7.8485329056604369 22.1630643079234204 O
atom 5.0858248716581747 8.3071885869398479 22.1619256994463605 O
atom 7.4533483769722810 5.5406698064604480 23.5930896934652665 O
atom 3.5724297087945374 4.6161115091091363 22.8786363260432388 V
atom 7.7117420768124774 6.9238248715788879 20.4913584753534934 V
atom 4.7561650400121955 5.9994759630288392 23.5940446958554162 O
atom 6.3388088755936494 7.8485250550826589 24.5504713639305763 O
atom 3.6417232214373683 8.3072151714699540 24.5515680002273697 O
atom 8.8950246932504147 5.5406461308332409 21.2074592975229805 O
atom 8.9653691151394685 0.0003102418524547 22.8785878830069436 V
atom 10.2194468799591771 2.3082791070531457 25.2659061007100725 V
atom 10.1496986441443742 1.3836361722561630 23.5937505173016220 O
atom 0.9461298000179273 3.2328655928144676 24.5502775352544802 O
atom 9.0360255379821908 3.6915846980114568 24.5496001649930946 O
atom 3.5032462107949742 0.9246143439499602 21.2056327702811700 O
atom 7.5225916034313158 0.0002887575115295 25.2660100951616684 V
atom 0.8756872351274049 2.3082163090936096 22.8788802561500404 V
atom 0.8058128398425380 1.3836051632413016 21.2073186883996456 O
atom 2.3882879343129262 3.2325802873383913 22.1636550402691057 O
atom 10.4777711992642502 3.6914651523054332 22.1640747519933221 O
atom 2.0590356387319533 0.9247436904138829 23.5952716128334430 O
atom 8.9655643442436084 4.6159995286810105 22.8785269766293951 V
atom 10.2196826075306628 6.9238717728751045 25.2658208311794823 V
atom 10.1495669240350832 5.9990456956957541 23.5937511605766730 O
atom 0.9464599722377828 7.8486884109276058 24.5505491703760867 O
atom 9.0364750352372969 8.3067986393114985 24.5503488021266847 O
atom 3.5023900396041969 5.5407317373458778 21.2062431705602386 O
atom 10.4084618300324969 4.6161187732163382 20.4913158918436764 V
atom 0.8758564694514778 6.9238161474070754 22.8789098057742706 V
atom 0.8061419569525445 5.9995278072562224 21.2072230872349508 O
atom 2.3883071390326305 7.8478818647553421 22.1633622954772704 O
atom 10.4786694483671052 8.3065245057330053 22.1639541569851701 O
atom 2.0592558060756203 5.5410034151186780 23.5941696287317235 O
atom 3.3831207097254534 2.3082936792461743 27.6533134995333469 V
atom 3.3131513664633347 1.3835096180953561 25.9811259816717133 O
atom 4.8960078506693927 3.2330143878461417 26.9376907118117046 O
atom 2.1997746365800386 3.6911747987284782 26.9378894276278231 O
atom 4.5669352877998151 0.9256765550117149 28.3681785458484335 O
atom 0.6863935851776820 0.0001326766356452 27.6533507733466912 V
atom 1.8702705948736271 1.3837775510628587 28.3690332523478013 O
atom 6.0090330017842097 0.9256180203769906 25.9815334935719946 O
atom 2.1296694384359429 4.6161016846958063 25.2660799293656240 V
atom 3.3834841235082593 6.9239779123289846 27.6531901641968645 V
atom 3.3133029326493322 5.9992616984616944 25.9813100902187983 O
atom 4.8961538124353456 7.8486419581970095 26.9378643904199677 O
atom 2.2001751190711984 8.3072976394764186 26.9367257819429113 O
atom 4.5676986243852946 5.5407788589970224 28.3678897759618174 O
atom 0.6867799562075511 4.6162205616457088 27.6534364085397897 V
atom 4.8260923242254927 6.9239339241154605 25.2661585578500407 V
atom 1.8705152874252098 5.9995850155654118 28.3688447783519635 O
atom 6.0093749406634291 5.5407551833698134 25.9822593800195278 O
atom 6.0797193625524883 0.0004192943890277 27.6533879655034944 V
atom 7.2640488915573869 1.3837452247927355 28.3685505997981764 O
atom 0.6175964582079879 0.9247233964865332 25.9804328527777173 O
atom 8.7763948701800896 2.3083253616301826 27.6536803386465913 V
atom 8.7065204748952230 1.3837142157778743 25.9821187708961929 O
atom 10.2889955693656123 3.2326893398749639 26.9384551227656530 O
atom 7.5921214466772735 3.6915742048420062 26.9388748344898730 O
atom 9.9597432737846354 0.9248527429504559 28.3700716953299903 O
atom 6.0799145916566220 4.6161085812175831 27.6533270591259388 V
atom 7.2639171714480986 5.9991547482323266 28.3685512430732203 O
atom 0.6167402870172107 5.5408407898824512 25.9810432530567859 O
atom 7.5228120774455096 4.6162278257529108 25.2661159743402237 V
atom 8.7765641045041587 6.9239251999436480 27.6537098882708179 V
atom 8.7068495920052342 5.9996368597927958 25.9820231697315052 O
atom 10.2890147740853166 7.8479909172919147 26.9381623779738213 O
atom 7.5930196957801241 8.3066335582695778 26.9387542394817174 O
atom 9.9599634411283056 5.5411124676552515 28.3689697112282744 O
