#===============================================================================
# Created using the Atomic Simulation Environment (ASE)

# Mon Mar 23 14:01:43 2026

#=======================================================
lattice_vector 14.1833344881180565 0.0000000000000000 0.0000000000000000 
lattice_vector 3.7544216431755140 10.1019537203898881 0.0000000000000000 
lattice_vector 0.0000000000000000 0.0000000000000000 49.2659164450161526 
atom 16.0577221482242294 7.1462631806516672 15.5005474282156293 V
atom 1.1018194195863089 0.1301632996098191 17.1631786417697434 V
atom 16.6078988989263330 8.2603726304499165 18.8147282008208592 V
atom 3.6259622135717531 6.5600307568473850 15.9999526239116410 O
atom 1.0954732770566837 1.3862658555745040 18.6527557283613135 O
atom 13.5382140359994256 0.7177616985819509 16.6590494520627566 O
atom 16.0535551913619550 8.4040628964551267 16.9954060902477053 O
atom 4.8621397700665723 8.9720542865891399 15.6667625633460137 O
atom 4.2115662467249546 8.8474875440360261 18.3232253250912365 O
atom 14.1801304283401635 2.0954594141310028 15.5011122811707409 V
atom 2.9804747695183162 5.1798211696675827 17.1620325320690341 V
atom 14.7302184774208040 3.2091272314876202 18.8153980831025720 V
atom 1.7492643216849824 1.5082517315464596 15.9995477955189962 O
atom 2.9731833393953715 6.4373791928238768 18.6523277393998654 O
atom 15.4155814023893800 5.7687645245345580 16.6581487569853088 O
atom 14.1758932719654158 3.3521269118488397 16.9959897024043443 O
atom 2.9864629533282208 3.9220487371259258 15.6657223572910738 O
atom 2.3344332864591575 3.7971184639128093 18.3225902791778879 O
atom 13.0616087714168607 8.2596316986252845 18.8216109540546910 V
atom 11.7367534241697626 0.1294439756501005 17.1677622495365014 V
atom 5.4173186243353690 7.1495711977547654 15.4992318207283990 V
atom 14.8079965013246024 7.6722702275141330 19.3226890399554989 O
atom 4.0940522066487635 0.2709379218870228 15.3331120078715024 O
atom 13.0674691370960989 7.0023948768797029 17.3287397700784069 O
atom 13.7058772197728604 9.6437761132734128 17.6590568098900818 O
atom 16.0484351184039440 10.0875807949490124 18.9863622920914175 O
atom 7.2131369894325967 7.7360817679800595 15.0000000000000000 O
atom 11.1835896838932563 3.2087618667350668 18.8218514865970619 V
atom 13.6150862060305133 5.1809483851392706 17.1667880820160654 V
atom 3.5398887340356953 2.0982720285661149 15.4994727947316324 V
atom 12.9312336590582291 2.6201535967608627 19.3217680138496348 O
atom 5.9712116645937998 5.3221748560633673 15.3331915872212523 O
atom 11.1895171468967103 1.9522207168452257 17.3285444548789940 O
atom 11.8291582208893367 4.5918814560080641 17.6594773685373099 O
atom 14.1733127118701550 5.0372291183509521 18.9854752023654783 O
atom 5.3362462517422244 2.6863254990140382 15.0005702203137492 O
atom 5.9693617518543229 8.2590150438914858 18.8199792302454973 V
atom 4.6502801534016056 0.1272835425653382 17.1622375174392481 V
atom 12.5146648640622189 7.1469399515675480 15.4930610385725505 V
atom 7.7224382628930339 7.6719451483595185 19.3190347833257938 O
atom 11.1837624032488741 0.2740233999713362 15.3317722161421433 O
atom 5.9736922705069677 7.0049136277766415 17.3273520839773276 O
atom 6.6091759658837690 9.6427428985680752 17.6609747869622566 O
atom 8.9588283353661069 10.0863324427400780 18.9869008019508634 O
atom 14.3001100129160665 7.7346959882881734 15.0017933270164825 O
atom 4.0918267038575511 3.2086137889976105 18.8198721141566878 V
atom 6.5283701159582206 5.1786314576150927 17.1609857556103869 V
atom 10.6380222693880686 2.0952610401159140 15.4932292170873325 V
atom 5.8448772176986932 2.6210568796567402 19.3216759607415121 O
atom 13.0621470245035791 5.3246986258036602 15.3319052678530010 O
atom 4.0971038385616714 1.9542433982832763 17.3273403297992346 O
atom 4.7320050967378355 4.5904252400712897 17.6599669565892405 O
atom 7.0828866556826071 5.0360087261381441 18.9864471371541725 O
atom 12.4227573363898038 2.6844133149302261 15.0010556599810503 O
atom 8.9655708524989652 7.1468316501794629 15.4988549393197577 V
atom 8.1933281734656713 0.1305803315804869 17.1587878807004728 V
atom 9.5143261972070494 8.2613384112848944 18.8191502286015577 V
atom 10.7131634096633981 6.5590223870538278 16.0012332324015212 O
atom 8.1910181884014897 1.3851113325553113 18.6539546025972598 O
atom 6.4420957162736743 0.7171177134592177 16.6614292949793530 O
atom 8.9594220738838199 8.4058192025666347 16.9935054871943230 O
atom 11.9518038146611332 8.9748016954866827 15.6652526059496129 O
atom 11.3094727608874965 8.8490352712292708 18.3207406779346904 O
atom 7.0886846502191885 2.0964606090336271 15.4988658494308673 V
atom 10.0725008204010429 5.1809310411601617 17.1585645505570170 V
atom 7.6371714597557867 3.2104712591140045 18.8206032951974436 V
atom 8.8361944352015946 1.5077199175550802 16.0030534481854971 O
atom 10.0696605501427978 6.4356322308349183 18.6541298905359056 O
atom 8.3191965949706326 5.7681229821633622 16.6614871663424537 O
atom 7.0823398781914833 3.3541347309940077 16.9951168435250608 O
atom 10.0766053135596927 3.9242721051445342 15.6648311637779845 O
atom 9.4317293690940947 3.7987960995450094 18.3209361260110768 O
atom 10.0655214634021171 9.3718735283335253 22.1424715740729567 V
atom 8.7448900233550972 1.2406007540310420 20.4833416454821524 V
atom 9.2929532228822538 2.3557736472916782 23.8051027876270709 V
atom 6.8612765709287107 0.3840292577418857 25.4566523466781831 V
atom 11.8170960168677013 8.7856411045292422 22.6418767697689702 O
atom 9.2866070803526277 3.6118762032563607 25.2946798742186374 O
atom 7.5460133511773195 2.9433720462638076 23.3009735979200840 O
atom 10.0686356322622181 8.1174608875366854 20.6481594404388709 O
atom 6.3069328633643282 0.5277195237470965 23.6373302361050293 O
atom 6.9501381203946160 0.6533936580022079 20.9818943679994163 O
atom 9.2988519301870056 1.0957109138811103 22.3086867092033430 O
atom 8.6482784068453853 0.9711441713279962 24.9651494709485675 O
atom 8.1879297435180565 4.3210697618128604 22.1430364270280648 V
atom 10.6231091079423408 6.2918947748459813 20.4820709273256440 V
atom 11.1716085728142573 7.4054315173494398 23.8039566779263581 V
atom 8.7380177925986899 5.4347375791694770 25.4573222289599030 V
atom 9.9403981249809270 3.7338620792283170 22.6414719413763237 O
atom 11.1643171426913153 8.6629895405057340 25.2942518852571894 O
atom 9.4233807175672641 7.9943748722164152 23.3000729028426363 O
atom 8.1914853437298429 3.0670690435479018 20.6482651213905015 O
atom 8.1836925871432964 5.5777372595306973 23.6379138482616682 O
atom 8.8278197261787774 5.7037707609095003 20.9820681533014941 O
atom 11.1775967566241601 6.1476590848077821 22.3076465031483977 O
atom 10.5255670897551017 6.0227288115946669 24.9645144250352118 O
atom 3.3149864434192389 0.3832883259172546 25.4635350999120149 V
atom 5.7445527393476485 2.3550543233319572 23.8096863953938254 V
atom 12.2896522965733883 1.2432525473213283 20.4838009921678612 V
atom 13.6084524276313132 9.3751815454366234 22.1411559665857283 V
atom 8.8157958165024919 9.8978805751959911 25.9646131858128300 O
atom 12.2851860099447059 2.4965482695688794 21.9750361537288299 O
atom 10.5370697246582079 1.8303746852208196 19.9825797534731961 O
atom 7.0752684522739848 9.2280052245615600 23.9706639159357380 O
atom 13.0555814036983708 9.5183970470738668 20.3156497345418110 O
atom 3.9592548917752395 1.7674327405653820 24.3009809557474128 O
atom 6.3018127904063181 2.2112374222409810 25.6282864379487449 O
atom 15.4042707927285427 9.9616921156619167 21.6419241458573239 O
atom 5.1913889990711448 5.4343722144169240 25.4637756324543858 V
atom 7.6228855212083992 7.4065587328211269 23.8087122278733929 V
atom 14.1681849133126629 6.2931791219581044 20.4829849001091304 V
atom 11.7310225373316417 4.3238823762479726 22.1413969405889546 V
atom 6.9390329742361168 4.8457639444427194 25.9636921597069659 O
atom 14.1623454678897449 7.5477852037452244 21.9751157330785816 O
atom 12.4147433083562220 6.8807831937227037 19.9813949065166234 O
atom 5.1973164620746006 4.1778310645270826 23.9704686007363250 O
atom 11.1775750706776336 4.4663941177602480 20.3159160195256057 O
atom 5.8369575360672172 6.8174918036899212 24.3014015143946338 O
atom 8.1811120270480444 7.2628394660328102 25.6273993482228022 O
atom 13.5273800550381686 4.9119358466958953 21.6424943661710785 O
atom 10.4060739119747510 0.3826716711834562 25.4619033761028248 V
atom 12.8414139566975507 2.3528938902471972 23.8041616632965756 V
atom 5.1976268231746321 1.2424855367197039 20.4797074105620993 V
atom 6.5224641792401057 9.3725502992494061 22.1349851844298726 V
atom 15.9135720661889781 9.8975554960413756 25.9609589291831142 O
atom 5.1915617184267635 2.4996337476531929 21.9736963619994725 O
atom 3.4510703179902853 1.8296386523453827 19.9797807263796230 O
atom 14.1648260738029155 9.2305239754584978 23.9692762298346551 O
atom 5.9646742562730397 9.5166110933265067 20.3156341659833934 O
atom 11.0458881260042006 1.7663995258600458 24.3028989328195806 O
atom 13.3955404954865358 2.2099890700320484 25.6288249478081909 O
atom 8.3079093280939524 9.9603063359700297 21.6437174728738100 O
atom 12.2829605071534935 5.4342241366794681 25.4617962600140118 V
atom 14.7195039192541621 7.4042418052969490 23.8029099014677143 V
atom 7.0762807915061954 6.2934730270039134 20.4800246170143367 V
atom 4.6458215845659563 4.3208713877977711 22.1351533629446564 V
atom 14.0360110209946392 4.8466672273385969 25.9636001065988395 O
atom 7.0699463396814677 7.5503089734855173 21.9738294137103267 O
atom 5.3279871214038534 6.8816686422081741 19.9807226860053255 O
atom 12.2882376418576111 4.1798537459651337 23.9692644756565656 O
atom 4.0870841381761815 4.4645305733799283 20.3169822513997147 O
atom 12.9231389000337806 6.8160355877531460 24.3018911024465680 O
atom 15.2740204589785513 7.2616190738200013 25.6283712830114965 O
atom 6.4305566515676906 4.9100236626120832 21.6429798058383795 O
atom 17.1567046557949148 9.3724419978613209 22.1407790851770869 V
atom 1.6506973476403837 1.2417891740322808 20.4884125212250403 V
atom 2.2011274886435572 2.3561906792623457 23.8007120265577967 V
atom 13.9510383573274854 0.3849950385768622 25.4610743744588817 V
atom 4.7209627248412884 8.7846327347356858 22.6431573782588487 O
atom 2.1988175035793813 3.6107216802371700 25.2958787484545908 O
atom 14.6332295195696176 2.9427280611410764 23.3033534408366805 O
atom 17.1631684785008005 8.1156269326364612 20.6499114544328179 O
atom 13.3961342340042506 0.5294758298586023 23.6354296330516505 O
atom 14.0474479368324658 0.6548399323396595 20.9796227102583259 O
atom 2.2051814866635056 1.0984583227786537 22.3071767518069421 O
atom 1.5628504328898711 0.9726918985212401 24.9626648237920179 O
atom 15.2798184535151336 4.3220709567154847 22.1407899952881948 V
atom 3.5288241957283426 6.2933015490356334 20.4869146535556546 V
atom 4.0803001355789323 7.4065413888420197 23.8004886964143410 V
atom 15.8283052630517282 5.4360816067958613 25.4625274410547746 V
atom 2.8439937503794854 3.7333302652369369 22.6449775940428211 O
atom 4.0774598653206819 8.6612425785167755 25.2960540363932296 O
atom 16.5103303982665714 7.9937333298452202 23.3034113121997848 O
atom 15.2872988807484393 3.0651235797773917 20.6499832714135714 O
atom 15.2734736814874275 5.5797450786758640 23.6370409893823847 O
atom 15.9247711146914792 5.7052382488129361 20.9799569004667816 O
atom 4.0844046287375786 6.1498824528263913 22.3067553096353137 O
atom 3.4395286842719841 6.0244064472268670 24.9628602718684078 O
atom 14.5022336235225371 1.4955301556254932 28.7843957199302807 V
atom 2.7526893385329849 3.4662111017129007 27.1252657913394799 V
atom 3.3007525380601410 4.5813839949735344 30.4470269334844019 V
atom 15.0524103742246584 2.6096396054237445 32.0985764925355070 V
atom 2.0704736888700710 0.9092977318212110 29.2838009156262942 O
atom 3.2944063955305154 5.8374865509382170 31.9366040200759684 O
atom 15.7371471544732593 5.1689823939456643 29.9428977437774080 O
atom 0.3220133042646000 0.2411175148286558 27.2900835862961983 O
atom 14.4980666666602716 2.7533298714289556 30.2792543819623603 O
atom 15.1412719236905549 2.8790040056840644 27.6238185138567403 O
atom 3.3066512453648902 3.3213212615629670 28.9506108550606669 O
atom 2.6560777220232734 3.1967545190098550 31.6070736168058914 O
atom 16.3790635468139989 6.5466801094947185 28.7849605728853959 V
atom 4.6309084231202311 8.5175051225278384 27.1239950731829680 V
atom 5.1794078879921450 9.6310418650312979 30.4458808237836820 V
atom 16.9291515958946306 7.6603479268513350 32.0992463748172199 V
atom 3.9481974401588236 5.9594724269101738 29.2833960872336476 O
atom 1.4176948146936901 0.7866461677977041 31.9361760311145204 O
atom 13.8600928776876984 0.1180314995083847 29.9419970486999603 O
atom 2.1992846589077319 5.2926793912297603 27.2901892672478326 O
atom 16.3748263904392495 7.8033476072125545 30.2798379941189921 O
atom 17.0189535294747216 7.9293811085913566 27.6239922991588216 O
atom 5.1853960718020629 8.3732694324896411 28.9495706490057216 O
atom 4.5333664049329929 8.2483391592765241 31.6064385708925428 O
atom 11.5061202467151826 2.6088986735991111 32.1054592457693388 V
atom 13.9356865426435981 4.5806646710138157 30.4516105412511564 V
atom 6.2974516117512733 3.4688628950031850 27.1257251380251887 V
atom 3.8618300996336807 1.4988381727285920 28.7830801124430522 V
atom 13.2525079766229226 2.0215372024879610 32.6065373316701468 O
atom 6.2929853251225945 4.7221586172507362 28.6169602995861538 O
atom 4.5448690398360938 4.0559850329026759 26.6245038993305201 O
atom 11.5119806123944208 1.3516618518535302 30.6125880617930619 O
atom 3.3089590757007481 1.6420536743658363 26.9575738803991385 O
atom 12.1503886950711841 3.9930430882472385 30.9429051016047367 O
atom 14.4929465937022695 4.4368477699228377 32.2702105838060760 O
atom 5.6576484647309195 2.0853487429538866 28.2838482917146550 O
atom 13.3825228023670917 7.6599825620987829 32.1056997783117097 V
atom 15.8140193245043470 9.6321690805029867 30.4506363737307097 V
atom 8.1759842284905453 8.5187894696399624 27.1249090459664544 V
atom 5.7388218525095276 6.5494927239298297 28.7833210864462856 V
atom 15.1301667775320592 7.0713742921245784 32.6056163055642898 O
atom 8.1701447830676326 9.7733955514270825 28.6170398789359055 O
atom 6.4225426235341114 9.1063935414045609 26.6233190523739509 O
atom 13.3884502653705493 6.4034414122089407 30.6123927465936490 O
atom 5.1853743858555266 6.6920044654421051 26.9578401653829332 O
atom 14.0280913393631685 9.0431021513717784 30.9433256602519577 O
atom 16.3722458303439851 9.4884498137146664 32.2693234940801332 O
atom 7.5351793702160563 7.1375461943777525 28.2844185120284024 O
atom 4.4138732271526422 2.6082820188653151 32.1038275219601559 V
atom 6.8492132718754410 4.5785042379290539 30.4460858091538995 V
atom 13.3887606264705727 3.4680958844015604 27.1216315564194304 V
atom 10.9591763393605373 1.4962069265413742 28.7769093302872037 V
atom 6.1669497381913523 2.0212121233333455 32.6028830750404381 O
atom 13.3826955217227077 4.7252440953350492 28.6156205078567965 O
atom 11.6422041212862286 4.0552490000272394 26.6217048722369540 O
atom 4.4182037458052923 1.3541806027504690 30.6112003756919862 O
atom 10.4013864163934677 1.6402677206184759 26.9575583118407209 O
atom 5.0536874411820891 3.9920098735419001 30.9448230786769116 O
atom 7.4033398106644217 4.4355994177139051 32.2707490936655148 O
atom 12.7446214882143920 2.0839629632620005 28.2856416187311410 O
atom 6.2907598223313768 7.6598344843613253 32.1037204058713286 V
atom 8.7273032344320498 9.6298521529788079 30.4448340473250383 V
atom 15.2674145948021369 8.5190833746857724 27.1219487628716678 V
atom 12.8369553878619023 6.5464817354796292 28.7770775088019874 V
atom 8.0438103361725339 7.0722775750204541 32.6055242524561635 O
atom 15.2610801429774092 9.7759193211673754 28.6157535595676507 O
atom 13.5191209246997914 9.1072789898900322 26.6226468318626530 O
atom 6.2960369570355033 6.4054640936469909 30.6111886215138966 O
atom 12.2782179414721266 6.6901409210617864 26.9589063972570457 O
atom 6.9309382152116674 9.0416459354350049 30.9438152483038920 O
atom 9.2818197741564425 9.4872294215018584 32.2702954288688275 O
atom 14.6216904548636393 7.1356340102939413 28.2849039516957035 O
atom 7.4100823277972889 1.4960986251532917 28.7827032310344109 V
atom 9.8418311509363239 3.4673995217141376 27.1303366670823678 V
atom 10.3922612919395032 4.5818010269442020 30.4426361724151278 V
atom 7.9588376725053713 2.6106053862587211 32.1029985203162056 V
atom 9.1576748849617200 0.9082893620276559 29.2850815241161797 O
atom 10.3899513068753251 5.8363320279190267 31.9378028943119148 O
atom 8.6410288347475053 5.1683384088229332 29.9452775866940044 O
atom 7.4165461505031747 0.2392835599284282 27.2918356002901419 O
atom 7.4039335491821419 2.7550861775404614 30.2773537789089815 O
atom 8.0552472520103500 2.8804502800215164 27.6215468561156570 O
atom 10.3963152899594498 3.3240686704605080 28.9491008976642661 O
atom 9.7539842361858184 3.1983022462030966 31.6045889696493347 O
atom 9.2876177686930266 6.5476813043973419 28.7827141411455187 V
atom 11.7199579990242935 8.5189118967174906 27.1288387994129820 V
atom 12.2714339388748783 9.6321517365238787 30.4424128422716720 V
atom 9.8361045782296195 7.6616919544777193 32.1044515869120985 V
atom 11.0351275536754265 5.9589406129187941 29.2869017399001521 O
atom 8.5141720254411144 0.7848992058087473 31.9379781822505606 O
atom 6.7637080702689509 0.1173899571371876 29.9453354580571087 O
atom 9.2950981959263270 5.2907339274592484 27.2919074172708989 O
atom 9.2812729966653151 7.8053554263577229 30.2789651352397158 O
atom 9.9325704298693687 7.9308485964947950 27.6218810463241127 O
atom 12.2755384320335263 8.3754928005082494 28.9486794554926377 O
atom 11.6306624875679248 8.2500167949087242 31.6047844177257318 O
atom 10.9438231418289362 5.6918214493947596 33.7671899371968038 V
atom 8.5131471075605365 2.4667278625105125 33.9320077321535223 O
atom 9.1490712388684390 5.1046143533659256 34.2657426597140642 O
atom 9.0676205832406556 0.6411617498198076 33.7659192190402990 V
atom 10.3904184622036748 7.5182897389116157 33.9321134131051565 O
atom 7.2723312014771020 0.0530377358833266 34.2659164450161526 O
atom 14.4885854150472220 5.6944732426850413 33.7676492838825126 V
atom 12.7360028431320345 6.2815953805845348 33.2664280451878511 O
atom 11.5000928789966910 3.8676640220476930 33.5994980262564624 O
atom 12.6126963886109795 0.6424460969319306 33.7668331918237854 V
atom 10.8592547836545368 1.2300501686965299 33.2652431982312677 O
atom 13.3765081891514672 8.9176148131239632 33.5997643112402571 O
atom 7.3965599416484675 5.6937062320834171 33.7635557022767543 V
atom 5.6500034364641172 6.2808593477090984 33.2636290180942780 O
atom 4.4091857315713590 3.8658780683003351 33.5994824576980449 O
atom 5.5207922668045137 0.6427400019777423 33.7638729087289917 V
atom 3.7724985967021714 1.2309356171819994 33.2645709777199770 O
atom 6.2860172566500072 8.9157512687436444 33.6008305431143697 O
atom 3.8496304661142120 5.6930098693959943 33.7722608129396988 V
atom 1.4243454656810630 2.4648939076102869 33.9337597461474658 O
atom 2.0630465671882403 5.1060606277033749 34.2634710019729809 O
atom 1.9733356710266667 0.6425685240094601 33.7707629452703060 V
atom 3.3028975111042151 7.5163442751411074 33.9338315631282228 O
atom 0.1859481018717452 0.0545052237867638 34.2638051921814366 O
