#===============================================================================
# Created using the Atomic Simulation Environment (ASE)

# Mon Mar 23 14:01:44 2026

#=======================================================
lattice_vector 10.7779019647855687 0.0000000000000000 0.0000000000000000 
lattice_vector 4.9380262626701636 13.2931389776887805 0.0000000000000000 
lattice_vector 0.0000000000000000 0.0000000000000000 35.9821936333108852 
atom 10.2712807465183733 11.7910570014880935 15.5004084925709726 V
atom 8.0238228609251507 0.0949465093006185 17.1551200509460458 V
atom 11.7891705980526602 10.6382199524334577 15.3328836959228667 O
atom 9.0937386735713872 10.3180268005615101 15.0003022860882425 O
atom 11.4490589305343029 13.2675908420483175 15.9997743654474647 O
atom 14.1383058584075165 12.9491283960793027 15.6708960841438518 O
atom 9.0358072033517054 8.4702576195453769 15.5004131334718629 V
atom 11.7297308144590477 10.0696407749928358 17.1618853058248568 V
atom 12.9022722638718417 11.5461416220078714 17.6594563557504820 O
atom 10.2121842899071762 11.2220631938376911 17.3232199960201321 O
atom 7.8580782885590663 8.9143908269059242 16.9952881594878491 O
atom 10.5524478843419303 8.5919164269327606 16.6605798668393810 O
atom 6.5671828288644205 1.8289856113123395 15.5071464529815870 V
atom 9.2609028510113252 3.4250344176386078 17.1621027334237688 V
atom 10.4352904864564113 4.8968908202563668 17.6611065750751628 O
atom 7.7413114923560222 4.5785909203222301 17.3283263903669393 O
atom 5.3917881127519065 2.2666873901872457 16.9906633178056268 O
atom 8.0817182965138485 1.9478627776972013 16.6606535907446407 O
atom 7.8019926125294079 5.1455204785690869 15.5007219290521014 V
atom 10.4939904331307616 6.7460979615231329 17.1601971339938260 V
atom 9.3167197543541214 3.9925721795593945 15.3365646896049377 O
atom 6.6267684904842152 3.6696839310984966 15.0010706153582873 O
atom 8.9778426237811200 6.6225295294142459 16.0004467510357706 O
atom 11.6731911403721362 6.3017197376350289 15.6656655416670176 O
atom 4.8809251886231708 11.7908645168688473 15.4995801738215953 V
atom 2.6360807494725358 0.0931705077659355 17.1538094668946606 V
atom 6.3995681134364837 10.6365435420874661 15.3314983040375168 O
atom 14.4833121453875169 10.3180070801456001 15.0000000000000000 O
atom 6.0587564168476078 13.2676752669156262 15.9998771749440358 O
atom 8.7496579863376329 12.9486629669043509 15.6701784701320186 O
atom 3.6473149612014475 8.4694614678559663 15.5001558729698949 V
atom 6.3393061333163923 10.0694491855402752 17.1591675152560441 V
atom 7.5145885709485585 11.5458546752497853 17.6592350247276997 O
atom 4.8243787627953765 11.2225056367172797 17.3242830488080060 O
atom 13.2460274296690006 8.9137344238263285 16.9948229756829967 O
atom 5.1642402985126239 8.5924484106172123 16.6594448036525051 O
atom 1.1792454501061398 1.8277386131734679 15.5063367202930387 V
atom 3.8689073725593399 3.4243920302089830 17.1593971174914017 V
atom 5.0476117042807624 4.8973918660801115 17.6597015014520871 O
atom 2.3526017163964590 4.5778884031602960 17.3281278406303834 O
atom 10.7808621509337712 2.2665690485075336 16.9900684065675875 O
atom 2.6918727926855683 1.9483246749856529 16.6610302917531072 O
atom 2.4124016734842377 5.1451030231277004 15.4986718072626815 V
atom 5.1063221339415898 6.7448548630824687 17.1598111062459431 V
atom 3.9296315514273061 3.9932588583395199 15.3378001109636664 O
atom 12.0177166982853389 3.6688979697672970 15.0003387241305184 O
atom 3.5893568277062196 6.6228884198248483 16.0001480048710114 O
atom 6.2837400035200686 6.3013114890750295 15.6654256393830842 O
atom 6.5660764385858661 5.0201262359507259 18.8231083067698144 V
atom 9.2599295616083381 6.6210640618839829 20.4839016012773989 V
atom 10.4324463281875364 8.0957063915949430 20.9812025494364853 O
atom 7.7429329281651444 7.7716955076090128 20.6451018617376469 O
atom 5.3880551645163548 5.4644061355892246 20.3162200348575404 O
atom 8.0820404248897404 5.1414031101402111 19.9836670401682177 O
atom 7.8016930188795870 8.3408688302093577 18.8220508140438234 V
atom 10.4921675120294964 9.9375900474666157 20.4770951041201847 V
atom 9.3194632152832462 7.1865368412109563 18.6538618056014371 O
atom 6.6242885252781818 6.8678657876189382 18.3211991445588325 O
atom 8.9791956119036040 9.8164762584855385 19.3220108313116619 O
atom 11.6684171043429377 9.4987784015382672 18.9912260160903976 O
atom 5.3327544753391596 1.6943400732770397 18.8213471547208009 V
atom 8.0243928950175949 3.2955481804435509 20.4808903902340269 V
atom 6.8475001550845693 0.5433329738522350 18.6580344734786330 O
atom 4.1576042981119299 0.2180599839004267 18.3223859333232042 O
atom 6.5088129050526140 3.1723117749500251 19.3205110838760312 O
atom 9.2026623454228371 2.8500113171048800 18.9871137449880401 O
atom 9.0358882932551481 11.6711440049967869 18.8267754097384916 V
atom 11.7295317841696676 13.2658033571012748 20.4825178482994694 V
atom 7.9656721124296723 1.4464967541738942 20.9821936333108887 O
atom 5.2711335749642290 1.1269181378866289 20.6486380880523690 O
atom 7.8605757217425278 12.1082778624755374 20.3123176333220066 O
atom 10.5512320833846207 11.7896922594016456 19.9798471379005100 O
atom 11.9555614821672709 5.0192209170804682 18.8228026137229598 V
atom 3.8683295928641517 6.6193446388531223 20.4807437997659783 V
atom 5.0439947004053840 8.0959442308405158 20.9806703909956731 O
atom 13.1320241407216667 7.7705622779504342 20.6450877759247682 O
atom 10.7772129333187525 5.4645058436675598 20.3160686796794359 O
atom 2.6937383755322255 5.1419275878380564 19.9818203354581705 O
atom 13.1889515101464028 8.3408112825828820 18.8205043961994782 V
atom 5.1048154458944675 9.9348417464226895 20.4751370460579984 V
atom 3.9312657919158598 7.1868317873397540 18.6547026636729818 O
atom 12.0141591485816939 6.8673242594402097 18.3206814751483122 O
atom 14.3672908949485993 9.8166123414390665 19.3227152614356505 O
atom 6.2795568514949025 9.4984577087970781 18.9904936295122333 O
atom 10.7202430224824816 1.6940710273034314 18.8202385483218713 V
atom 2.6356793142478505 3.2937334348274701 20.4799456835345417 V
atom 1.4587111879388490 0.5424920521396642 18.6575396942896319 O
atom 9.5468732577676771 0.2184201762054577 18.3222725429679585 O
atom 11.8966320693308294 3.1724520860549488 19.3198043401711637 O
atom 3.8141898930994911 2.8497310595021643 18.9865182260668526 O
atom 14.4253752835835645 11.6698548071265815 18.8256709644012581 V
atom 6.3384755990795050 13.2653938062437504 20.4797458177525264 V
atom 2.5790314484087182 1.4457463307261453 20.9805110591151767 O
atom 10.6607795713325260 1.1273177918636195 20.6493382819246243 O
atom 13.2493781980572045 12.1085957350297608 20.3116725383215915 O
atom 5.1615789665613523 11.7901631706183441 19.9806898617815882 O
