#===============================================================================
# Created using the Atomic Simulation Environment (ASE)

# Mon Mar 23 14:01:40 2026

#=======================================================
lattice_vector 15.1536015195045284 0.0000000000000000 0.0000000000000000 
lattice_vector -0.0000014388224574 3.7155747600000235 0.0000000000000000 
lattice_vector 0.0000000000000000 0.0000000000000000 30.7313550977478300 
atom 12.3618155183836294 1.8577852143015621 15.4756423209599703 V
atom 3.3299085666997410 1.8577853216656244 15.2557088960985610 V
atom 12.2037369817919270 3.7155726614573203 15.0086791016939216 O
atom 14.2172782957442880 1.8577851988391803 15.7313550977478300 O
atom 3.4879881936766308 3.7155726445107016 15.7226656120647732 O
atom 1.4744337889744998 1.8577853471274870 15.0000000000000000 O
