#===============================================================================
# Created using the Atomic Simulation Environment (ASE)

# Mon Mar 23 14:01:45 2026

#=======================================================
lattice_vector 18.4059850900857853 0.0000000000000000 0.0000000000000000 
lattice_vector -0.0015568314247998 9.2181866113943300 0.0000000000000000 
lattice_vector 0.0000000000000000 0.0000000000000000 42.6256707052855361 
atom 9.2018954143057723 4.6027408336562354 15.0000000000000000 V
atom 7.8270580956906670 1.3829121715150010 15.0025396402699798 O
atom 10.5775295509439360 3.2289600327812225 15.0034049138371337 O
atom 4.6025677597251997 0.0002340415319393 15.0027258606267608 V
atom 8.2783826530814437 3.6888086870226142 16.4008975421160876 O
atom 5.9810848946188111 3.2218190819327810 15.0012551797320732 O
atom 0.9245525516554387 0.9214233824380623 16.4039859954605909 O
atom 3.2239443640293661 1.3852783321068252 15.0017813971252529 O
atom 5.5246006015397695 0.9204970598517203 16.4041387496749458 O
atom 9.2038165342176814 0.0002447820180661 15.0005057877624850 V
atom 7.8231663512991432 5.9965269481656902 15.0019310999942022 O
atom 10.5804219948128502 7.8332051119915524 15.0032455595665972 O
atom 4.6024076665759370 4.6165485286980505 15.0031525501551286 V
atom 6.9029688401878424 6.9153328755638110 16.4042755074028790 V
atom 8.2779075418526844 8.2973851489535217 16.4044257096064463 O
atom 5.9775291161408690 7.8354474927472095 15.0012862211928919 O
atom 3.2265912086866089 5.9900148003895906 15.0022454195545727 O
atom 5.5247271742452488 5.5295425709422492 16.4016029446247238 O
atom 13.8053789786096299 0.0008803430592317 15.0039561003590087 V
atom 16.1046564800934924 2.3050381864248770 16.4014717390839166 V
atom 17.4818218550746813 3.6891901063268207 16.4008477595035522 O
atom 15.1839833971630291 3.2217675872154152 15.0025066299257439 O
atom 12.4272389343995453 1.3855640455389606 15.0010278264885493 O
atom 14.7277396135331085 0.9210421463774642 16.4037515230309729 O
atom -0.0002985391779031 4.6001472771933392 15.0017629674412838 V
atom 17.0301508177452128 1.3829036951888005 15.0037746794176421 O
atom 1.3749869756676496 3.2278485627065354 15.0024437707115545 O
atom 13.8053604479320260 4.6164041162878613 15.0044712870290802 V
atom 16.1042372305506412 6.9146388530263501 16.4007071915942930 V
atom 17.4825118006603333 8.2965666986837654 16.4041032909911770 O
atom 15.1810437595083663 7.8361091049870950 15.0018458074569416 O
atom 12.8817000007599862 8.2965043483766614 16.4038159119039122 O
atom 12.4300028961936260 5.9897423991652579 15.0009420244014109 O
atom 14.7255391154120741 5.5319798270342275 16.4012146627425288 O
atom -0.0002354117381178 9.2175293940986744 15.0019918895965816 V
atom 17.0267562119790270 5.9966631030458108 15.0036417673605946 O
atom 1.3781668639928697 7.8332468541045621 15.0027014857143755 O
atom 16.1061818790773081 2.3030464138118600 19.2113856237005827 V
atom 0.0009080030932461 0.0017234286175096 17.8077223125092274 V
atom 2.3021795708056474 2.3085007565526072 19.2080824336803246 V
atom -0.0006076182552670 4.6027309036702775 20.6088402347767143 V
atom 17.0305401532154121 1.3829022415290433 20.6113798750466977 O
atom 3.6768701636738115 3.6894036306867539 19.2054694636379146 O
atom 1.3800394112785990 3.2225586155752493 17.8061648932065388 O
atom 14.7288168840398370 0.9212402970218917 19.2087304001900350 O
atom 17.4853293512110461 3.6867487388352802 19.2115697133206886 O
atom 17.0287113779830506 1.3855989889311027 17.8054913032186413 O
atom 0.9220783319998231 0.9220040296508736 19.2092501581671904 O
atom 1.3750265183829093 3.2289501027952654 20.6122451486138516 O
atom 2.3015208627644266 2.3037477719043040 16.4070277626726906 V
atom 13.8060498172499493 0.0002241115459814 20.6115660954034787 V
atom 6.9030716053385941 2.3064224055976119 16.4044811765361302 V
atom 4.6004010013049195 4.6034589179703529 17.8048195924269486 V
atom 3.2254561308469016 1.3820883611189603 17.8074861888250702 O
atom 17.4818647106061924 3.6887987570366563 22.0097377768927984 O
atom 15.1845669521435536 3.2218091519468235 20.6100954145087840 O
atom 10.1280346091801885 0.9214134524521044 22.0128262302373088 O
atom 3.6798712318964619 3.6872357521151087 16.4079902357321039 O
atom 12.4274264215541113 1.3852684021208674 20.6106216319019637 O
atom 14.7280826590645102 0.9204871298657624 22.0129789844516672 O
atom 5.9765064721909997 3.2285936680534220 17.8070530539973539 O
atom 16.1058089184537323 6.9123573721878602 19.2110449586411782 V
atom 0.0004261980797878 4.6178473019367043 17.8080761969429986 V
atom 2.3018574037114736 6.9170287470270839 19.2079185910582773 V
atom 0.0013135016566456 0.0002348520321082 20.6093460225391993 V
atom 17.0266484088238919 5.9965170181797314 20.6107713347709165 O
atom 3.6764864572814453 8.2972266365598681 19.2090016453603099 O
atom 1.3767854838463007 7.8367343596128123 17.8058257497790962 O
atom 14.7288546731301508 5.5291225610607588 19.2123119855153739 O
atom 17.4840998575798601 8.2969112912434841 19.2093298590874078 O
atom 17.0314685285699525 5.9902481321733312 17.8055775744795000 O
atom 0.9220216588516068 5.5313831431237794 19.2061614067487021 O
atom 1.3779189622518098 7.8331951820055954 20.6120857943433187 O
atom 2.3007092578384118 6.9130868315140397 16.4063724661477437 V
atom 13.8058897241006786 4.6165385987120917 20.6119927849318429 V
atom 16.1064508977125875 6.9153229455778549 22.0131157421795933 V
atom 4.6022939294222365 0.0004779851765938 17.8052082694667178 V
atom 3.2211098458687775 5.9952918382009370 17.8067834063490409 O
atom 17.4813895993774260 8.2973752189675629 22.0132659443831571 O
atom 15.1810111736656168 7.8354375627612516 20.6101264559696098 O
atom 0.9241072124382125 5.5296623859665059 16.4069194800801448 O
atom 3.6782588660533220 8.2973773181443544 16.4054733123482173 O
atom 12.4300732662113536 5.9900048704036317 20.6110856543312906 O
atom 14.7282092317699984 5.5295326409562904 22.0104431794014417 O
atom 5.9804014833646555 7.8336978403357804 17.8072727694587201 O
atom 11.5034682005750373 2.3023210974050730 16.4058624939905187 V
atom 4.6028759460485853 0.0008704130732738 20.6127963351357266 V
atom 6.9021534475324611 2.3050282564389195 22.0103119738606310 V
atom 13.8044757695731715 4.6005600143888676 17.8053658288409196 V
atom 12.4281141763130361 1.3807465170250826 17.8068317560390668 O
atom 8.2793188225136412 3.6891801763408631 22.0096879942802701 O
atom 5.9814803646019898 3.2217576572294577 20.6113468647024654 O
atom 10.1277091056957076 0.9210137892630167 16.4044673596270663 O
atom 12.8824287745468293 3.6868863241478036 16.4064551935249412 O
atom 3.2247359018384980 1.3855541155530027 20.6098680612652636 O
atom 5.5252365809720771 0.9210322163915061 22.0125917578076908 O
atom 15.1796138685117459 3.2281152725936857 17.8078441853892215 O
atom 6.9023531230524400 2.3025887086145214 19.2096867886178124 V
atom 9.2029380071971403 9.2176782356593190 17.8077222006974623 V
atom 11.5044631573109690 2.3043264167075765 19.2066428951256043 V
atom 9.2031835183468420 4.6001373472073803 20.6106032022180017 V
atom 7.8276477851841735 1.3828937652028424 20.6126149141943600 O
atom 12.8811781297594639 3.6884452671682117 19.2060226404748491 O
atom 10.5835863169453344 3.2228868592576685 17.8066286754709786 O
atom 5.5270626496273190 0.9206699103714948 19.2089113291426408 O
atom 8.2806783736559293 3.6878326968751218 19.2122984537966204 O
atom 7.8247516540109139 1.3844830170198248 17.8058085443502527 O
atom 10.1275855156851868 0.9200431888665677 19.2079462937261845 O
atom 10.5784690331923912 3.2278386327205784 20.6112840054882689 O
atom 11.5031182744118059 6.9113770168533843 16.4053728486747055 V
atom 4.6028574153709911 4.6163941863019033 20.6133115218057945 V
atom 6.9017341979896081 6.9146289230403921 22.0095474263710109 V
atom 13.8038639364655804 9.2164873221554213 17.8056065562583221 V
atom 12.4249089783918070 5.9955823530783938 17.8066599202235274 O
atom 8.2800087680992807 8.2965567686978066 22.0129435257678949 O
atom 5.9785407269473225 7.8360991750011371 20.6106860422336595 O
atom 10.1275611457524466 5.5292956054328606 16.4077685910323972 O
atom 3.6791969681989376 8.2964944183907043 22.0126561466806301 O
atom 3.2274998636325738 5.9897324691792990 20.6097822591781323 O
atom 5.5230360828510419 5.5319698970482705 22.0100548975192432 O
atom 15.1826814760454702 7.8325767293381290 17.8077344926033376 O
atom 6.9024871267319527 6.9113152687882673 19.2095023943371288 V
atom 9.2045215862842760 4.6148538095774301 17.8079907805534070 V
atom 11.5037589866431116 6.9130466608362688 19.2062105722481853 V
atom 9.2032466457866278 9.2175194641127174 20.6108321243732995 V
atom 7.8242531794179930 5.9966531730598511 20.6124820021373125 O
atom 12.8819472289624830 8.2956475028174488 19.2095134706965105 O
atom 10.5797607999785921 7.8362241586524846 17.8062367628662805 O
atom 5.5275231401066867 5.5285850626876956 19.2124291251993426 O
atom 8.2806395033070554 8.2974059808387128 19.2097378017681919 O
atom 7.8285574098161632 5.9897654754593459 17.8060106856608442 O
atom 10.1257410854103220 5.5304713446499667 19.2058669668153676 O
atom 10.5816489215176155 7.8332369241186051 20.6115417204910969 O
atom 6.9036788465162697 2.3030364838259021 24.8202258584772970 V
atom 9.2043900606180014 0.0017134986315517 23.4165625472859418 V
atom 11.5056616283303939 2.3084908265666488 24.8169226684570390 V
atom 9.2028744392694772 4.6027209736843204 26.2176804695534358 V
atom 7.8280371206543684 1.3828923115430856 26.2202201098234156 O
atom 12.8803522211985655 3.6893937007007964 24.8143096984146325 O
atom 10.5835214688033439 3.2225486855892909 23.4150051279832532 O
atom 5.5263138514787924 0.9212303670359339 24.8175706349667493 O
atom 8.2828263186499989 3.6867388088493218 24.8204099480974030 O
atom 7.8262083454220148 1.3855890589451449 23.4143315379953556 O
atom 10.1255603895245603 0.9219940996649157 24.8180903929439012 O
atom 10.5785085759076463 3.2289401728093070 26.2210853833905659 O
atom 11.5050029202891722 2.3037378419183461 22.0158679974494049 V
atom 4.6035467846889011 0.0002141815600235 26.2204063301801966 V
atom 16.1065536628633375 2.3064124756116544 22.0133214113128481 V
atom 13.8038830588296602 4.6034489879843967 23.4136598272036629 V
atom 12.4289381883716477 1.3820784311330023 23.4163264236017845 O
atom 8.2793616780451451 3.6887888270506979 27.6185780116695163 O
atom 5.9820639195825160 3.2217992219608651 26.2189356492855055 O
atom 0.9255315766191442 0.9214035224661464 27.6216664650140267 O
atom 12.8833532894212119 3.6872258221291512 22.0168304705088218 O
atom 3.2249233889930755 1.3852584721349097 26.2194618666786852 O
atom 5.5255796265034709 0.9204771998798045 27.6218192192283816 O
atom 15.1799885297157413 3.2285837380674631 23.4158932887740683 O
atom 6.9033058858926895 6.9123474422019022 24.8198851934178961 V
atom 9.2039082556045244 4.6178373719507473 23.4169164317197129 V
atom 11.5053394612362272 6.9170188170411251 24.8167588258349952 V
atom 9.2047955591813828 0.0002249220461503 26.2181862573159172 V
atom 7.8241453762628561 5.9965070881937743 26.2196115695476344 O
atom 12.8799685148061904 8.2972167065739093 24.8178418801370277 O
atom 10.5802675413710539 7.8367244296268552 23.4146659845558105 O
atom 5.5263516405691018 5.5291126310748018 24.8211522202920847 O
atom 8.2815968250188146 8.2969013612575253 24.8181700938641221 O
atom 7.8289654960089141 5.9902382021873741 23.4144178092562143 O
atom 10.1255037163763610 5.5313732131378224 24.8150016415254164 O
atom 10.5814010197765551 7.8331852520196383 26.2209260291200366 O
atom 11.5041913153631565 6.9130769015280826 22.0152127009244580 V
atom 4.6033866915396393 4.6165286687261347 26.2208330197085608 V
atom 6.9039478651515447 6.9153130155918978 27.6219559769563112 V
atom 13.8057759869469816 0.0004680551906359 23.4140485042434356 V
atom 12.4245919033935230 5.9952819082149791 23.4156236411257552 O
atom 8.2788865668163876 8.2973652889816059 27.6221061791598785 O
atom 5.9785081411045784 7.8354276327752954 26.2189666907463241 O
atom 10.1275892699629608 5.5296524559805489 22.0157597148568591 O
atom 12.8817409235780662 8.2973673881583974 22.0143135471249316 O
atom 3.2275702336503183 5.9899949404176738 26.2199258891080049 O
atom 5.5257061992089538 5.5295227109703333 27.6192834141781631 O
atom 15.1838835408894059 7.8336879103498225 23.4161130042354380 O
atom 2.3009651680139886 2.3023111674191150 22.0147027287672366 V
atom 13.8063580035733313 0.0008604830873160 26.2216365699124481 V
atom 16.1056355050571973 2.3050183264529616 27.6191522086373489 V
atom 4.6019727370121357 4.6005500844029106 23.4142060636176375 V
atom 3.2256111437519830 1.3807365870391251 23.4156719908157847 O
atom 17.4828008800383934 3.6891702463549048 27.6185282290569845 O
atom 15.1849624221267430 3.2217477272435002 26.2201870994791797 O
atom 0.9252060731346561 0.9210038592770589 22.0133075944037770 O
atom 3.6799257419857896 3.6868763941618452 22.0152954283016555 O
atom 12.4282179593632431 1.3855441855670450 26.2187082960419815 O
atom 14.7287186384968134 0.9210222864055484 27.6214319925844087 O
atom 5.9771108359507004 3.2281053426077273 23.4166844201659394 O
atom 16.1058351805771771 2.3025787786285634 24.8185270233945268 V
atom 0.0004349746360910 9.2176683056733619 23.4165624354741837 V
atom 2.3019601247499262 2.3043164867216186 24.8154831299023186 V
atom 0.0006804857858024 4.6001274172214233 26.2194434369947196 V
atom 17.0311298427089106 1.3828838352168846 26.2214551489710743 O
atom 3.6786750971984321 3.6884353371822538 24.8148628752515634 O
atom 1.3810832843842988 3.2228769292717101 23.4154689102476894 O
atom 14.7305447071520508 0.9206599803855369 24.8177515639193551 O
atom 17.4841604311806798 3.6878227668891639 24.8211386885733383 O
atom 17.0282337115356590 1.3844730870338671 23.4146487791269706 O
atom 0.9250824831241458 0.9200332588806097 24.8167865285028952 O
atom 1.3759660006313592 3.2278287027346200 26.2201242402649868 O
atom 2.3006152418507630 6.9113670868674273 22.0142130834514198 V
atom 13.8063394728957363 4.6163842563159454 26.2221517565825160 V
atom 16.1052162555143354 6.9146189930544359 27.6183876611477253 V
atom 4.6013609039045402 9.2164773921694625 23.4144467910350400 V
atom 3.2224059458307623 5.9955724230924359 23.4155001550002417 O
atom 17.4834908256240453 8.2965468387118495 27.6217837605446128 O
atom 15.1820227844720677 7.8360892450151791 26.2195262770103774 O
atom 0.9250581131914069 5.5292856754469026 22.0166088258091150 O
atom 12.8826790257236912 8.2964844884047455 27.6214963814573515 O
atom 12.4309819211573274 5.9897225391933420 26.2186224939548431 O
atom 14.7265181403757879 5.5319599670623134 27.6188951322959610 O
atom 5.9801784434844407 7.8325667993521710 23.4165747273800520 O
atom 16.1059691842566970 6.9113053388023111 24.8183426291138431 V
atom 0.0020185537232392 4.6148438795914730 23.4168310153301213 V
atom 2.3012559540820763 6.9130367308503118 24.8150508070248996 V
atom 0.0007436132255877 9.2175095341267586 26.2196723591500174 V
atom 17.0277352369427284 5.9966432430738941 26.2213222369140269 O
atom 3.6794441964014477 8.2956375728314935 24.8183537054732248 O
atom 1.3772577674175486 7.8362142286665284 23.4150769976430020 O
atom 14.7310051976314327 5.5285751327017385 24.8212693599760605 O
atom 17.4841215608318059 8.2973960508527540 24.8185780365449098 O
atom 17.0320394673409119 5.9897555454733888 23.4148509204375657 O
atom 0.9232380528492942 5.5304614146640088 24.8147072015920855 O
atom 1.3791458889565793 7.8332269941326462 26.2203819552678077 O
atom 2.3024998877281324 2.3037279119323886 27.6247082322261228 V
atom 6.9040506303022999 2.3064025456256965 27.6221616460895660 V
atom 3.6808502568601718 3.6872158921431928 27.6256707052855361 O
atom 2.3016882828021177 6.9130669715421247 27.6240529357011759 V
atom 0.9250862374019179 5.5296425259945909 27.6245999496335806 O
atom 3.6792378910170274 8.2973574581724385 27.6231537819016495 O
atom 11.5044472255387422 2.3023012374331571 27.6235429635439509 V
atom 10.1286881306594090 0.9209939292911010 27.6221478291804949 O
atom 12.8834077995105432 3.6868664641758877 27.6241356630783663 O
atom 11.5040972993755162 6.9113571568814693 27.6230533182281377 V
atom 10.1285401707161533 5.5292757454609456 27.6254490605858365 O
