#===============================================================================
# Created using the Atomic Simulation Environment (ASE)

# Mon Mar 23 14:01:47 2026

#=======================================================
lattice_vector 9.2315018221363143 0.0000000000000000 0.0000000000000000 
lattice_vector 0.0000038100387047 5.5790402700009523 0.0000000000000000 
lattice_vector 0.0000000000000000 0.0000000000000000 50.3123836799661888 
atom 2.3084094433887512 1.3947559925474593 15.9247605023915284 V
atom 1.3836266410405953 5.5788338621899021 15.0000000000000000 O
atom 3.2331891379013404 5.5788393428167087 16.8493883302454428 O
atom 0.9258354949612171 1.3942394032570540 17.3077167967825787 O
atom 0.0005472891610907 2.7895811681565941 22.8483306611852086 V
atom 2.3084146284102363 4.1842966725476156 15.9247605073069352 V
atom 1.3838381406817599 2.7897767523148800 15.0002145100928104 O
atom 3.2330445392058440 2.7897831127121560 16.8492153279984187 O
atom 0.9258333650938061 4.1847818030996073 17.3074849611712267 O
atom 6.9240936866558851 1.3945495376244801 15.9248636639667822 V
atom 5.9993787238649201 5.5790001072450144 15.0000808698612786 O
atom 7.8488167105058775 5.5789995578771370 16.8494590127894668 O
atom 5.5409378237168116 1.3936844985667536 17.3080766811147484 O
atom 6.9241061218276192 4.1844970676274178 15.9248687884483822 V
atom 5.9996456110386722 2.7895759572873553 15.0001823690131495 O
atom 7.8487524224472516 2.7895732577860413 16.8493173090674162 O
atom 5.5409705374881053 4.1853132485179758 17.3080090040119643 O
atom 0.0006334076838800 0.0000131361610206 18.2327446032550640 V
atom 2.3086480088048589 1.3945864947954045 20.5407639584442201 V
atom 1.3840063408744510 5.5785773345644403 19.6162092030759041 O
atom 3.2332934860650351 5.5785856751653666 21.4655198892431045 O
atom 3.6919104382974965 1.3936665237388104 19.1573989202226116 O
atom 0.9251354992978635 1.3934222358827180 21.9241378834692000 O
atom 0.0005593038215073 2.7895277462045045 18.2327966098940522 V
atom 2.3086416338491835 4.1845443647961202 20.5407631133234290 V
atom 1.3840279402235649 2.7900685746971510 19.6164076268796279 O
atom 3.2330607775213069 2.7900758550726072 21.4653514385184643 O
atom 3.6918472845191164 4.1853492537770958 19.1574448951454137 O
atom 0.9252121739751086 4.1855751658567240 21.9241099150627221 O
atom 4.6163265086015981 5.5789873711622491 18.2327361146258156 V
atom 6.9242406801543579 1.3944786598202719 20.5407775319221280 V
atom 5.9994158564405273 5.5787330794229542 19.6159527403140288 O
atom 7.8491163131500521 5.5787344503488061 21.4657988875944206 O
atom 8.3071243929217182 1.3941618092205081 19.1580267814362237 O
atom 5.5412528583983462 1.3944745604634077 21.9235767648669366 O
atom 4.6164983770338841 2.7895914012538201 18.2328959858026209 V
atom 6.9242414752651120 4.1845691898219739 20.5407791665564829 V
atom 5.9999505931718176 2.7899035997404176 19.6164957732975722 O
atom 7.8483623525691888 2.7899024399263443 21.4650723983035299 O
atom 8.3069066676373993 4.1848684992292826 19.1580072303508970 O
atom 5.5414719036395033 4.1846052404476080 21.9235842747785981 O
atom 0.0008046789939864 5.5789845882850457 22.8485549407686470 V
atom 2.3088066425394143 1.3947633066793359 25.1562228359798894 V
atom 1.3840238401912583 5.5788411763217791 24.2314623335883503 O
atom 3.2335863370520035 5.5788466569485857 26.0808506638338002 O
atom 3.6916446033014543 1.3945591360200742 23.7733783564012953 O
atom 0.9262326941118798 1.3942467173889306 26.5391791303709397 O
atom 0.0009444883117540 2.7895884822884707 32.0797929947735625 V
atom 2.3088118275608993 4.1843039866794927 25.1562228408952961 V
atom 1.3842353398324228 2.7897840664467566 24.2316768436811678 O
atom 3.2334417383565075 2.7897904268440326 26.0806776615867761 O
atom 3.6916414333057088 4.1845174161779148 23.7736080612113199 O
atom 0.9262305642444688 4.1847891172314835 26.5389472947595877 O
atom 4.6165689318477972 0.0000254233400604 22.8486393703442907 V
atom 6.9244908858065477 1.3945568517563567 25.1563259975551432 V
atom 5.9997759230155827 5.5790074213768897 24.2315432034496361 O
atom 7.8492139096565401 5.5790068720090131 26.0809213463778278 O
atom 8.3077674555853598 1.3934431707080588 23.7729751491616099 O
atom 5.5413350228674751 1.3936918126986304 26.5395390147031023 O
atom 4.6166351851924814 2.7895416932810457 22.8485615439625676 V
atom 6.9245033209782818 4.1845043817592948 25.1563311220367467 V
atom 6.0000428101893348 2.7895832714192319 24.2316447026015069 O
atom 7.8491496215979142 2.7895805719179179 26.0807796426557772 O
atom 8.3077413723013436 4.1855427207570788 23.7730421930022722 O
atom 5.5413677366387679 4.1853205626498529 26.5394713376003253 O
atom 0.0010306068345428 0.0000204502928972 27.4642069368434250 V
atom 2.3090452079555219 1.3945938089272809 29.7722262920325846 V
atom 1.3844035400251140 5.5785846486963173 28.8476715366642651 O
atom 3.2336906852156981 5.5785929892972428 30.6969822228314655 O
atom 3.6923076374481592 1.3936738378706870 28.3888612538109655 O
atom 0.9255326984485264 1.3934295500145946 31.1556002170575539 O
atom 0.0009565029721707 2.7895350603363807 27.4642589434824060 V
atom 2.3090388329998466 4.1845516789279964 29.7722254469117757 V
atom 1.3844251393742280 2.7900758888290285 28.8478699604679889 O
atom 3.2334579766719695 2.7900831692044843 30.6968137721068217 O
atom 3.6922444836697794 4.1853565679089728 28.3889072287337711 O
atom 0.9256093731257713 4.1855824799886010 31.1555722486510831 O
atom 4.6167237077522616 5.5789946852941261 27.4641984482141766 V
atom 6.9246378793050214 1.3944859739521485 29.7722398655104854 V
atom 5.9998130555911899 5.5787403935548312 28.8474150739023827 O
atom 7.8495135123007147 5.5787417644806832 30.6972612211827709 O
atom 8.3075215920723817 1.3941691233523847 28.3894891150245812 O
atom 5.5416500575490089 1.3944818745952841 31.1550390984552905 O
atom 4.6168955761845476 2.7895987153856963 27.4643583193909819 V
atom 6.9246386744157755 4.1845765039538501 29.7722415001448297 V
atom 6.0003477923224802 2.7899109138722942 28.8479581068859332 O
atom 7.8487595517198514 2.7899097540582209 30.6965347318918802 O
atom 8.3073038667880628 4.1848758133611605 28.3894695639392580 O
atom 5.5418691027901668 4.1846125545794841 31.1550466083669519 O
atom 0.0012018781446493 5.5789919024169219 32.0800172743570045 V
atom 2.3092038416900773 1.3947706208112125 34.3876851695682433 V
atom 1.3844210393419207 5.5788484904536562 33.4629246671767078 O
atom 3.2339835362026665 5.5788539710804628 35.3123129974221541 O
atom 3.6920418024521164 1.3945664501519510 33.0048406899896491 O
atom 2.3092090267115619 4.1843113008113697 34.3876851744836500 V
atom 1.3846325389830851 2.7897913805786332 33.4631391772695252 O
atom 3.2338389375071697 2.7897977409759092 35.3121399951751300 O
atom 3.6920386324563719 4.1845247303097919 33.0050703947996737 O
atom 4.6169661309984606 0.0000327374719370 32.0801017039326481 V
atom 6.9248880849572103 1.3945641658882335 34.3877883311434971 V
atom 6.0001731221662462 5.5790147355087667 33.4630055370379864 O
atom 7.8496111088072036 5.5790141861408902 35.3123836799661888 O
atom 8.3081646547360215 1.3934504848399354 33.0044374827499638 O
atom 4.6170323843431440 2.7895490074129219 32.0800238775509285 V
atom 6.9249005201289444 4.1845116958911719 34.3877934556250935 V
atom 6.0004400093399983 2.7895905855511085 33.4631070361898679 O
atom 7.8495468207485777 2.7895878860497945 35.3122419762441311 O
atom 8.3081385714520053 4.1855500348889558 33.0045045265906225 O
