#===============================================================================
# Created using the Atomic Simulation Environment (ASE)

# Mon Mar 23 14:01:37 2026

#=======================================================
lattice_vector 6.4438726005090654 0.0000000000000000 0.0000000000000000 
lattice_vector -3.5569600490794309 11.3848577209754627 0.0000000000000000 
lattice_vector 0.0000000000000000 0.0000000000000000 30.0000001908654852 
atom 3.5461159882117919 3.4653667112494140 15.0000000304248822 V
atom 0.4700376831507746 4.5273874219267567 15.0000000284149593 V
atom 1.5211496034089174 8.7308784079422583 15.0000000595144343 O
atom -1.1524805952796802 9.8518027128596817 15.0000000470583643 O
atom 5.1205423931569714 4.1318181617969394 15.0000000000000000 O
atom 2.5136678986863892 5.0281669331752870 15.0000000567601823 O
atom -0.6591946055462304 7.9194651571309258 15.0000001604405888 V
atom 2.4168891262160845 6.8574547828462347 15.0000001724505339 V
atom -2.2336426330421819 7.2530083717265033 15.0000001908654887 O
atom 0.3732586206855896 6.3566786171474305 15.0000001541053223 O
atom 1.3657741471865485 2.6539665819550655 15.0000001313510722 O
atom 4.0393750023780681 1.5330535563008885 15.0000001438072275 O
