#===============================================================================
# Created using the Atomic Simulation Environment (ASE)

# Mon Mar 23 14:01:40 2026

#=======================================================
lattice_vector 15.1536015195045284 0.0000000000000000 0.0000000000000000 
lattice_vector -0.0000014388224574 3.7155747600000235 0.0000000000000000 
lattice_vector 0.0000000000000000 0.0000000000000000 31.2861017350221005 
atom 12.3618155183836294 1.8577852143015621 16.0303889582342407 V
atom 10.2050832327761469 3.7155728444546474 15.0000000000000000 V
atom 3.3299085666997410 1.8577853216656244 15.8104555333728314 V
atom 12.2037369817919270 3.7155726614573203 15.5634257389681920 O
atom 14.2172782957442880 1.8577851988391803 16.2861017350221005 O
atom 10.5844992987310889 1.8577854501816069 15.1256918398605791 O
atom 6.3730061572259729 3.7155726431024063 15.2324247510227124 O
atom 3.4879881936766308 3.7155726445107016 16.2774122493390436 O
atom 1.4744337889744998 1.8577853471274870 15.5547466372742704 O
