#===============================================================================
# Created using the Atomic Simulation Environment (ASE)

# Mon Mar 23 14:01:40 2026

#=======================================================
lattice_vector 15.1536015195045284 0.0000000000000000 0.0000000000000000 
lattice_vector -0.0000014388224574 3.7155747600000235 0.0000000000000000 
lattice_vector 0.0000000000000000 0.0000000000000000 36.9396022488779323 
atom 1.4609384360376518 1.8577858163060692 16.8426263153110831 V
atom 13.0330733690977993 3.7155730326664425 19.0433362524314092 V
atom 4.2888920412258340 1.8577860145174907 15.2324641039809663 V
atom 14.4578076699346951 3.7155734464591545 15.8122373570768460 V
atom 7.5826330038582919 1.8577859236701311 16.6226928904496738 V
atom 9.7393622687157393 3.7155730735178114 17.6530758053483297 V
atom 4.7546867305150586 1.8577857354574963 18.2328651232242933 V
atom 0.9225393626062203 1.8577855841027207 18.4653085233224417 O
atom 13.5714454220353886 3.7155732648738593 17.4206203898377083 O
atom 1.3028598994459570 3.7155732634618266 16.3756630960450451 O
atom 3.3164012133983025 1.8577858008436874 17.0983390920989500 O
atom 11.1775742454175919 3.7155730581275965 18.7876324473520917 O
atom 14.8372237358896299 1.8577860521861138 15.9379291969374250 O
atom 3.9095070295422185 3.7155734087943579 15.1067421072300903 O
atom 10.6257305943845175 3.7155732451069134 16.0446621080995584 O
atom 8.1210258927839494 1.8577861558747795 15.0000000000000000 O
atom 7.7407126308351746 3.7155732465152087 17.0896496064158896 O
atom 6.7533746895998039 1.8577855624598480 18.7962943792482235 O
atom 5.7271582261330369 1.8577859491319937 16.3669839943511199 O
atom 5.1340933404712876 3.7155731011845727 18.3585559934535105 O
atom 9.3599755340394548 1.8577857077957549 17.5273448197474053 O
atom 12.3618155183836294 1.8577852143015621 21.6838894720900726 V
atom 0.0361676040672832 1.8577854125129840 20.0737272607599486 V
atom 10.2050832327761469 3.7155728444546474 20.6535005138558319 V
atom 6.9113679481195911 3.7155728753073478 19.2632291680596524 V
atom 3.3299085666997410 1.8577853216656244 21.4639560472286632 V
atom 13.1911234059364588 1.8577855855106529 19.5102989630951420 O
atom 12.2037369817919270 3.7155726614573203 21.2169262528240239 O
atom 14.2172782957442880 1.8577851988391803 21.9396022488779323 O
atom 10.5844992987310889 1.8577854501816069 20.7791923537164109 O
atom 14.8103841118882027 3.7155728067898508 19.9480052640090761 O
atom 6.3730061572259729 3.7155726431024063 20.8859252648785443 O
atom 3.8683014556254065 1.8577855538702723 19.8412631567789859 O
atom 3.4879881936766308 3.7155726445107016 21.9309127631948755 O
atom 8.7668739609624886 3.7155728698446246 19.5189458619223757 O
atom 1.4744337889744998 1.8577853471274870 21.2082471511301023 O
