#===============================================================================
# Created using the Atomic Simulation Environment (ASE)

# Mon Mar 23 14:01:39 2026

#=======================================================
lattice_vector 11.9275710066048966 0.0000000000000000 0.0000000000000000 
lattice_vector 1.9216468690445472 7.1858371422673297 0.0000000000000000 
lattice_vector 0.0000000000000000 0.0000000000000000 37.7493518321807997 
atom 12.0666325564857768 6.6067630788673553 15.0342970346048048 V
atom 3.7135637477348959 6.6635377087953342 15.0000000000000000 V
atom 10.0113359714143844 6.3531493351357238 15.1875033256503471 O
atom 4.3384565319540220 1.9477049287017942 15.6783439449867821 O
atom 1.9140140718593186 6.2189455138527974 15.2685748211779995 O
atom 5.7051050679747792 6.5733390954851751 15.0544881886927975 O
atom 10.1356479795061727 4.3647066175068439 16.3887066208935508 V
atom 7.7557087381066632 0.4382967347049065 16.5901663631629255 V
atom 10.1449841849375328 1.3421349104446696 18.2146196402484293 V
atom 7.7463384756515419 5.3820631255033389 17.9445845936824249 V
atom 4.1718424711419280 5.3253306782579291 17.9788560759453304 V
atom 1.7919153761866540 1.3989095403726486 18.1803226056436245 V
atom 4.1812209813618253 0.3815572206254761 16.6244421261305888 V
atom 1.7825899390827626 4.4214759603798575 16.3544127918422610 V
atom 10.3022208271531284 2.9082877539301060 17.2685183568422929 O
atom 7.5890975358130408 1.8947325377297981 15.7103443942197760 O
atom 8.0896875998661422 1.0885211667130392 18.3678259312939716 O
atom 9.8016413622379055 5.6356816558893588 17.7913753993716881 O
atom 11.9351882631038730 4.8092916127496821 16.1201361606834013 O
atom 7.8777857473422532 7.1795292412834151 16.8587486997028684 O
atom 8.1441123633304304 4.4549497317885374 16.3341915728618794 O
atom 9.7472279406306335 0.3480737098333294 16.6446692870147643 O
atom 4.3384550294503272 3.8689139025464394 18.8586665506304065 O
atom 1.6253325405017189 2.8553346118540412 17.3005071195459550 O
atom 2.1259216653408242 0.1279404731640856 16.7776502317068577 O
atom 3.8379255185576446 4.6751036298433633 16.2011980883661373 O
atom 5.9714238585207253 5.7699276352444109 17.7102784014182575 O
atom 11.9199367069159727 0.9543173454301105 18.4488974268216239 O
atom 2.1803546036169861 5.4155695137112847 17.9243436010391122 O
atom 3.7834566964265384 1.3087109270624897 18.2348107943364219 O
atom 10.1356464770024797 6.2859155913514879 19.5690292265371752 V
atom 7.7557072356029684 2.3595057085495492 19.7704889688065499 V
atom 10.1449826824338381 3.2633438842893141 21.3949422458920537 V
atom 5.8246901041032988 0.1174349570806536 21.1249071993260493 V
atom 2.2501940995936875 0.0607025098352449 21.1591786815889549 V
atom 1.7919138736829603 3.3201185142172931 21.3606452112872489 V
atom 4.1812194788581305 2.3027661944701201 19.8047647317742133 V
atom 1.7825884365790685 6.3426849342245015 19.5347353974858855 V
atom 10.3022193246494318 4.8294967277747505 20.4488409624859173 O
atom 7.5890960333093460 3.8159415115744419 18.8906669998633987 O
atom 8.0896860973624491 3.0097301405576844 21.5481485369375960 O
atom 7.8799929906896660 0.3710534874666735 20.9716980050153126 O
atom 11.9351867606001800 6.7305005865943288 19.3004587663270257 O
atom 5.9561373757940128 1.9149010728607296 20.0390713053464893 O
atom 8.1441108608267356 6.3761587056331823 19.5145141785055038 O
atom 9.7472264381269422 2.2692826836779738 19.8249918926583888 O
atom 4.3384535269466333 5.7901228763910844 22.0389891562740310 O
atom 1.6253310379980248 4.7765435856986862 20.4808297251895794 O
atom 2.1259201628371298 2.0491494470087299 19.9579728373504821 O
atom 3.8379240160539507 6.5963126036880073 19.3815206940097582 O
atom 4.0497754869724849 0.5052994668217258 20.8906010070618819 O
atom 11.9199352044122797 2.8755263192747567 21.6292200324652484 O
atom 0.2587062320687443 0.1509413452885991 21.1046662066827366 O
atom 3.7834551939228431 3.2299199009071340 21.4151333999800428 O
atom 8.2139981054542375 1.0212874229288027 22.7493518321807997 V
atom 11.7885110716357229 1.0780567658018165 22.7150580031295064 V
atom 7.5890945308056521 5.7371504854190860 22.0709896055070232 O
atom 10.0135383890519396 1.4658724181716400 22.4807813719706502 O
atom 6.2224624892784925 1.1115305372104942 22.6948367841491319 O
atom 1.9162756445057085 1.3316844352653221 22.5618432996533862 O
