#===============================================================================
# Created using the Atomic Simulation Environment (ASE)

# Mon Mar 23 14:01:37 2026

#=======================================================
lattice_vector 3.7155747600003020 0.0000000000000000 0.0000000000000000 
lattice_vector 0.0000010448242668 6.4438726005089801 0.0000000000000000 
lattice_vector 0.0000000000000000 0.0000000000000000 46.6927373975944064 
atom 1.8577756040312527 1.0976021536191287 21.1193146748736282 V
atom 3.7155642072817754 5.1146280875075982 19.8809590593376129 V
atom 1.8577757519676843 4.4654166718317265 22.1812989564101670 V
atom 3.7155640693591163 1.7468392187608279 18.8189486850530017 V
atom 3.7155653756730382 2.8760660807563387 15.4268606134563555 V
atom 3.7155655235927449 6.2438603762044069 16.4888813241336294 V
atom 1.8577755803180369 2.6720427290784157 21.7857289490424435 O
atom 3.7155642310095223 3.5401800600116249 19.2145022739332489 O
atom 1.8577766989226892 5.3611489718746919 20.3078796766197414 O
atom 3.7155631124013433 0.8510996959538035 20.6923723101488548 O
atom 1.8577748700578229 0.0651796550717933 22.6820798289758727 O
atom 3.7155649512680515 6.1470813137393145 18.3181725193542206 O
atom 1.8577765281608014 1.5908706413288263 19.1869544549184070 O
atom 3.7155632931578002 4.6213420977742921 21.8132966150661858 O
atom 3.7155653519437930 4.4504924857015418 16.0933120640038254 O
atom 1.8577781240071263 2.6295296519177609 15.0000000000000000 O
atom 3.7155646516825254 1.8436179912310395 16.9896608353821321 O
atom 1.8577783047848833 6.3997811355338996 16.1208706750088169 O
atom 3.7155593840119829 1.5576680384289032 31.2658167803122922 V
atom 3.7155602909135901 4.6337517701911137 30.2038064060276596 V
atom 3.7155615972275116 5.7629786321866243 26.8117183344310419 V
atom 1.8577743856491604 3.3361408885928769 25.5733782321697518 V
atom 3.7155607003229520 2.6869003271257101 27.8737390451082945 V
atom 1.8577752925329420 6.4122016612177140 24.5114060728208543 V
atom 3.7155604525639960 6.4270926114419096 30.5993599949079140 O
atom 1.8577718756528963 1.8041889227959966 31.6927373975944064 O
atom 3.7155601279982586 2.5901212646606186 29.7030302403288857 O
atom 1.8577727497152756 4.4777831927591105 30.5718121758930934 O
atom 3.7155605286739997 0.8935324366228468 27.4781697849784976 O
atom 1.8577744093660691 1.7616963689997138 24.9069522615738066 O
atom 3.7155616472792032 3.5826367911613426 26.0003182051367716 O
atom 1.8577743455616003 5.5164422033480456 26.3848577209746651 O
atom 3.7155608732369991 4.7305305426613247 28.3745185563568043 O
atom 1.8577751296267175 4.3685742225006008 24.0106066233432642 O
atom 3.7155625113381276 6.2562376463527585 24.8794051794826814 O
atom 1.8577734815150904 2.8428210864552041 27.5057283959834820 O
