#===============================================================================
# Created using the Atomic Simulation Environment (ASE)

# Mon Mar 23 14:01:43 2026

#=======================================================
lattice_vector 14.1833344881180565 0.0000000000000000 0.0000000000000000 
lattice_vector 3.7544216431755140 10.1019537203898881 0.0000000000000000 
lattice_vector 0.0000000000000000 0.0000000000000000 32.6613274753668179 
atom 15.0524103742246584 2.6096396054237445 15.4939875228861723 V
atom 3.2944063955305154 5.8374865509382170 15.3320150504266337 O
atom 2.6560777220232734 3.1967545190098550 15.0024846471565567 O
atom 16.9291515958946306 7.6603479268513350 15.4946574051678851 V
atom 1.4176948146936901 0.7866461677977041 15.3315870614651857 O
atom 4.5333664049329929 8.2483391592765241 15.0018496012432081 O
atom 11.5061202467151826 2.6088986735991111 15.5008702761200041 V
atom 13.2525079766229226 2.0215372024879610 16.0019483620208121 O
atom 14.4929465937022695 4.4368477699228377 15.6656216141567413 O
atom 13.3825228023670917 7.6599825620987829 15.5011108086623750 V
atom 15.1301667775320592 7.0713742921245784 16.0010273359149551 O
atom 16.3722458303439851 9.4884498137146664 15.6647345244307985 O
atom 4.4138732271526422 2.6082820188653151 15.4992385523108211 V
atom 6.1669497381913523 2.0212121233333455 15.9982941053911034 O
atom 7.4033398106644217 4.4355994177139051 15.6661601240161801 O
atom 6.2907598223313768 7.6598344843613253 15.4991314362219939 V
atom 8.0438103361725339 7.0722775750204541 16.0009352828068288 O
atom 9.2818197741564425 9.4872294215018584 15.6657064592194928 O
atom 7.9588376725053713 2.6106053862587211 15.4984095506668709 V
atom 10.3899513068753251 5.8363320279190267 15.3332139246625800 O
atom 9.7539842361858184 3.1983022462030966 15.0000000000000000 O
atom 9.8361045782296195 7.6616919544777193 15.4998626172627638 V
atom 8.5141720254411144 0.7848992058087473 15.3333892126012259 O
atom 11.6306624875679248 8.2500167949087242 15.0001954480763970 O
atom 10.9438231418289362 5.6918214493947596 17.1626009675474691 V
atom 8.5131471075605365 2.4667278625105125 17.3274187625041876 O
atom 9.1490712388684390 5.1046143533659256 17.6611536900647295 O
atom 9.0676205832406556 0.6411617498198076 17.1613302493909643 V
atom 10.3904184622036748 7.5182897389116157 17.3275244434558218 O
atom 7.2723312014771020 0.0530377358833266 17.6613274753668179 O
atom 14.4885854150472220 5.6944732426850413 17.1630603142331779 V
atom 12.7360028431320345 6.2815953805845348 16.6618390755385164 O
atom 11.5000928789966910 3.8676640220476930 16.9949090566071277 O
atom 12.6126963886109795 0.6424460969319306 17.1622442221744507 V
atom 10.8592547836545368 1.2300501686965299 16.6606542285819330 O
atom 13.3765081891514672 8.9176148131239632 16.9951753415909224 O
atom 7.3965599416484675 5.6937062320834171 17.1589667326274196 V
atom 5.6500034364641172 6.2808593477090984 16.6590400484449432 O
atom 4.4091857315713590 3.8658780683003351 16.9948934880487101 O
atom 5.5207922668045137 0.6427400019777423 17.1592839390796570 V
atom 3.7724985967021714 1.2309356171819994 16.6599820080706422 O
atom 6.2860172566500072 8.9157512687436444 16.9962415734650349 O
atom 3.8496304661142120 5.6930098693959943 17.1676718432903641 V
atom 1.4243454656810630 2.4648939076102869 17.3291707764981311 O
atom 2.0630465671882403 5.1060606277033749 17.6588820323236462 O
atom 1.9733356710266667 0.6425685240094601 17.1661739756209712 V
atom 3.3028975111042151 7.5163442751411074 17.3292425934788881 O
atom 0.1859481018717452 0.0545052237867638 17.6592162225321019 O
