#===============================================================================
# Created using the Atomic Simulation Environment (ASE)

# Mon Mar 23 14:01:43 2026

#=======================================================
lattice_vector 10.7779019647855687 0.0000000000000000 0.0000000000000000 
lattice_vector -0.0013379047791915 9.2181866457684922 0.0000000000000000 
lattice_vector 0.0000000000000000 0.0000000000000000 31.4360843388269444 
atom 4.9982924753475952 0.0032506477379684 15.7192962529460729 V
atom 7.6922160864549394 2.3094414675275203 15.7188960644230420 V
atom 8.8647575358677333 3.6917656514718136 15.0000000000000000 O
atom 6.1746695619030652 3.2247735990284170 15.0003743857252729 O
atom 3.8205635605549602 1.3883568319904158 16.4358062023761420 O
atom 6.5149331563378201 0.9235780647841066 16.4360843388269444 O
atom 4.9983735652510362 4.6195651564969040 15.7193382014265381 V
atom 7.6920170561655556 6.9183519087762502 15.7183688453931580 V
atom 8.8661836470957276 8.3003423834399062 15.0028549832209990 O
atom 6.1716451096302825 7.8384021542019227 15.0018458388543721 O
atom 3.8230609937384199 5.9930931985560933 16.4344203121528238 O
atom 6.5137173553805061 5.5326233608529165 16.4334480069656905 O
atom 10.3877021979829056 0.0025132306257331 15.7196915458513971 V
atom 2.3017914053122830 2.3073502887713428 15.7171496213223492 V
atom 3.4770738429444483 3.6914072024604900 15.0000532932444273 O
atom 0.7868640347912633 3.2258463791702758 15.0007926914731797 O
atom 9.2085127016648922 1.3875664941908734 16.4359566255718548 O
atom 1.1267255705085140 0.9231290566123346 16.4349139684836629 O
atom 10.3878605555794543 4.6178754171940142 15.7195013324773427 V
atom 2.3009608710753930 6.9160705140978997 15.7167418470589055 V
atom 3.4795429830747717 8.2986096494037636 15.0022290247279386 O
atom 0.7833891412130117 7.8391838031046301 15.0020433730361233 O
atom 9.2118634700530961 5.9928487790372609 16.4337439619335512 O
atom 1.1240642385572406 5.5335571204447511 16.4336930252066722 O
