#===============================================================================
# Created using the Atomic Simulation Environment (ASE)

# Mon Mar 23 14:01:47 2026

#=======================================================
lattice_vector 9.2315018221363143 0.0000000000000000 0.0000000000000000 
lattice_vector 0.0000038100387047 5.5790402700009523 0.0000000000000000 
lattice_vector 0.0000000000000000 0.0000000000000000 48.0048987187949621 
atom 0.9258354949612171 1.3942394032570540 15.0002318356113520 O
atom 0.0005472891610907 2.7895811681565941 20.5408457000139819 V
atom 0.9258333650938061 4.1847818030996073 15.0000000000000000 O
atom 5.5409378237168116 1.3936844985667536 15.0005917199435217 O
atom 5.5409705374881053 4.1853132485179758 15.0005240428407376 O
atom 0.0006334076838800 0.0000131361610206 15.9252596420838373 V
atom 2.3086480088048589 1.3945864947954045 18.2332789972729934 V
atom 1.3840063408744510 5.5785773345644403 17.3087242419046774 O
atom 3.2332934860650351 5.5785856751653666 19.1580349280718778 O
atom 3.6919104382974965 1.3936665237388104 16.8499139590513849 O
atom 0.9251354992978635 1.3934222358827180 19.6166529222979733 O
atom 0.0005593038215073 2.7895277462045045 15.9253116487228255 V
atom 2.3086416338491835 4.1845443647961202 18.2332781521522023 V
atom 1.3840279402235649 2.7900685746971510 17.3089226657084012 O
atom 3.2330607775213069 2.7900758550726072 19.1578664773472376 O
atom 3.6918472845191164 4.1853492537770958 16.8499599339741870 O
atom 0.9252121739751086 4.1855751658567240 19.6166249538914954 O
atom 4.6163265086015981 5.5789873711622491 15.9252511534545889 V
atom 6.9242406801543579 1.3944786598202719 18.2332925707509013 V
atom 5.9994158564405273 5.5787330794229542 17.3084677791428021 O
atom 7.8491163131500521 5.5787344503488061 19.1583139264231939 O
atom 8.3071243929217182 1.3941618092205081 16.8505418202649970 O
atom 5.5412528583983462 1.3944745604634077 19.6160918036957099 O
atom 4.6164983770338841 2.7895914012538201 15.9254110246313942 V
atom 6.9242414752651120 4.1845691898219739 18.2332942053852562 V
atom 5.9999505931718176 2.7899035997404176 17.3090108121263455 O
atom 7.8483623525691888 2.7899024399263443 19.1575874371323032 O
atom 8.3069066676373993 4.1848684992292826 16.8505222691796703 O
atom 5.5414719036395033 4.1846052404476080 19.6160993136073714 O
atom 0.0008046789939864 5.5789845882850457 20.5410699795974203 V
atom 2.3088066425394143 1.3947633066793359 22.8487378748086627 V
atom 1.3840238401912583 5.5788411763217791 21.9239773724171236 O
atom 3.2335863370520035 5.5788466569485857 23.7733657026625735 O
atom 3.6916446033014543 1.3945591360200742 21.4658933952300686 O
atom 0.9262326941118798 1.3942467173889306 24.2316941691997130 O
atom 0.0009444883117540 2.7895884822884707 29.7723080336023358 V
atom 2.3088118275608993 4.1843039866794927 22.8487378797240694 V
atom 1.3842353398324228 2.7897840664467566 21.9241918825099411 O
atom 3.2334417383565075 2.7897904268440326 23.7731927004155494 O
atom 3.6916414333057088 4.1845174161779148 21.4661231000400932 O
atom 0.9262305642444688 4.1847891172314835 24.2314623335883610 O
atom 4.6165689318477972 0.0000254233400604 20.5411544091730640 V
atom 6.9244908858065477 1.3945568517563567 22.8488410363839165 V
atom 5.9997759230155827 5.5790074213768897 21.9240582422784094 O
atom 7.8492139096565401 5.5790068720090131 23.7734363852066011 O
atom 8.3077674555853598 1.3934431707080588 21.4654901879903832 O
atom 5.5413350228674751 1.3936918126986304 24.2320540535318756 O
atom 4.6166351851924814 2.7895416932810457 20.5410765827913409 V
atom 6.9245033209782818 4.1845043817592948 22.8488461608655200 V
atom 6.0000428101893348 2.7895832714192319 21.9241597414302802 O
atom 7.8491496215979142 2.7895805719179179 23.7732946814845505 O
atom 8.3077413723013436 4.1855427207570788 21.4655572318310455 O
atom 5.5413677366387679 4.1853205626498529 24.2319863764290986 O
atom 0.0010306068345428 0.0000204502928972 25.1567219756721983 V
atom 2.3090452079555219 1.3945938089272809 27.4647413308613579 V
atom 1.3844035400251140 5.5785846486963173 26.5401865754930384 O
atom 3.2336906852156981 5.5785929892972428 28.3894972616602388 O
atom 3.6923076374481592 1.3936738378706870 26.0813762926397388 O
atom 0.9255326984485264 1.3934295500145946 28.8481152558863272 O
atom 0.0009565029721707 2.7895350603363807 25.1567739823111793 V
atom 2.3090388329998466 4.1845516789279964 27.4647404857405490 V
atom 1.3844251393742280 2.7900758888290285 26.5403849992967622 O
atom 3.2334579766719695 2.7900831692044843 28.3893288109355950 O
atom 3.6922444836697794 4.1853565679089728 26.0814222675625444 O
atom 0.9256093731257713 4.1855824799886010 28.8480872874798564 O
atom 4.6167237077522616 5.5789946852941261 25.1567134870429499 V
atom 6.9246378793050214 1.3944859739521485 27.4647549043392587 V
atom 5.9998130555911899 5.5787403935548312 26.5399301127311560 O
atom 7.8495135123007147 5.5787417644806832 28.3897762600115442 O
atom 8.3075215920723817 1.3941691233523847 26.0820041538533545 O
atom 5.5416500575490089 1.3944818745952841 28.8475541372840638 O
atom 4.6168955761845476 2.7895987153856963 25.1568733582197552 V
atom 6.9246386744157755 4.1845765039538501 27.4647565389736030 V
atom 6.0003477923224802 2.7899109138722942 26.5404731457147065 O
atom 7.8487595517198514 2.7899097540582209 28.3890497707206535 O
atom 8.3073038667880628 4.1848758133611605 26.0819846027680313 O
atom 5.5418691027901668 4.1846125545794841 28.8475616471957252 O
atom 0.0012018781446493 5.5789919024169219 29.7725323131857778 V
atom 2.3092038416900773 1.3947706208112125 32.0802002083970166 V
atom 1.3844210393419207 5.5788484904536562 31.1554397060054811 O
atom 3.2339835362026665 5.5788539710804628 33.0048280362509274 O
atom 3.6920418024521164 1.3945664501519510 30.6973557288184224 O
atom 2.3092090267115619 4.1843113008113697 32.0802002133124233 V
atom 1.3846325389830851 2.7897913805786332 31.1556542160982985 O
atom 3.2338389375071697 2.7897977409759092 33.0046550340039033 O
atom 3.6920386324563719 4.1845247303097919 30.6975854336284470 O
atom 4.6169661309984606 0.0000327374719370 29.7726167427614214 V
atom 6.9248880849572103 1.3945641658882335 32.0803033699722704 V
atom 6.0001731221662462 5.5790147355087667 31.1555205758667597 O
atom 7.8496111088072036 5.5790141861408902 33.0048987187949621 O
atom 8.3081646547360215 1.3934504848399354 30.6969525215787371 O
atom 4.6170323843431440 2.7895490074129219 29.7725389163797018 V
atom 6.9249005201289444 4.1845116958911719 32.0803084944538668 V
atom 6.0004400093399983 2.7895905855511085 31.1556220750186412 O
atom 7.8495468207485777 2.7895878860497945 33.0047570150729044 O
atom 8.3081385714520053 4.1855500348889558 30.6970195654193958 O
