#===============================================================================
# Created using the Atomic Simulation Environment (ASE)

# Mon Mar 23 14:01:47 2026

#=======================================================
lattice_vector 9.2315018221363143 0.0000000000000000 0.0000000000000000 
lattice_vector 0.0000038100387047 5.5790402700009523 0.0000000000000000 
lattice_vector 0.0000000000000000 0.0000000000000000 36.4649686060638061 
atom 0.0009444883117540 2.7895884822884707 18.2323779208711798 V
atom 2.3090452079555219 1.3945938089272809 15.9248112181302020 V
atom 1.3844035400251140 5.5785846486963173 15.0002564627618824 O
atom 3.2336906852156981 5.5785929892972428 16.8495671489290828 O
atom 0.9255326984485264 1.3934295500145946 17.3081851431551712 O
atom 2.3090388329998466 4.1845516789279964 15.9248103730093931 V
atom 1.3844251393742280 2.7900758888290285 15.0004548865656062 O
atom 3.2334579766719695 2.7900831692044843 16.8493986982044390 O
atom 0.9256093731257713 4.1855824799886010 17.3081571747487004 O
atom 6.9246378793050214 1.3944859739521485 15.9248247916081027 V
atom 5.9998130555911899 5.5787403935548312 15.0000000000000000 O
atom 7.8495135123007147 5.5787417644806832 16.8498461472803882 O
atom 5.5416500575490089 1.3944818745952841 17.3076240245529078 O
atom 6.9246386744157755 4.1845765039538501 15.9248264262424470 V
atom 6.0003477923224802 2.7899109138722942 15.0005430329835505 O
atom 7.8487595517198514 2.7899097540582209 16.8491196579894975 O
atom 5.5418691027901668 4.1846125545794841 17.3076315344645693 O
atom 0.0012018781446493 5.5789919024169219 18.2326022004546218 V
atom 2.3092038416900773 1.3947706208112125 20.5402700956658606 V
atom 1.3844210393419207 5.5788484904536562 19.6155095932743251 O
atom 3.2339835362026665 5.5788539710804628 21.4648979235197714 O
atom 3.6920418024521164 1.3945664501519510 19.1574256160872665 O
atom 2.3092090267115619 4.1843113008113697 20.5402701005812673 V
atom 1.3846325389830851 2.7897913805786332 19.6157241033671426 O
atom 3.2338389375071697 2.7897977409759092 21.4647249212727473 O
atom 3.6920386324563719 4.1845247303097919 19.1576553208972911 O
atom 4.6169661309984606 0.0000327374719370 18.2326866300302655 V
atom 6.9248880849572103 1.3945641658882335 20.5403732572411144 V
atom 6.0001731221662462 5.5790147355087667 19.6155904631356037 O
atom 7.8496111088072036 5.5790141861408902 21.4649686060638061 O
atom 8.3081646547360215 1.3934504848399354 19.1570224088475811 O
atom 4.6170323843431440 2.7895490074129219 18.2326088036485459 V
atom 6.9249005201289444 4.1845116958911719 20.5403783817227108 V
atom 6.0004400093399983 2.7895905855511085 19.6156919622874852 O
atom 7.8495468207485777 2.7895878860497945 21.4648269023417484 O
atom 8.3081385714520053 4.1855500348889558 19.1570894526882398 O
