#===============================================================================
# Created using the Atomic Simulation Environment (ASE)

# Mon Mar 23 14:01:40 2026

#=======================================================
lattice_vector 15.1536015195045284 0.0000000000000000 0.0000000000000000 
lattice_vector -0.0000014388224574 3.7155747600000235 0.0000000000000000 
lattice_vector 0.0000000000000000 0.0000000000000000 33.7067371256536390 
atom 13.0330733690977993 3.7155730326664425 15.8104711292071158 V
atom 4.7546867305150586 1.8577857354574963 15.0000000000000000 V
atom 0.9225393626062203 1.8577855841027207 15.2324434000981483 O
atom 11.1775742454175919 3.7155730581275965 15.5547673241277984 O
atom 6.7533746895998039 1.8577855624598480 15.5634292560239302 O
atom 5.1340933404712876 3.7155731011845727 15.1256908702292172 O
atom 12.3618155183836294 1.8577852143015621 18.4510243488657792 V
atom 0.0361676040672832 1.8577854125129840 16.8408621375356553 V
atom 10.2050832327761469 3.7155728444546474 17.4206353906315385 V
atom 6.9113679481195911 3.7155728753073478 16.0303640448353590 V
atom 3.3299085666997410 1.8577853216656244 18.2310909240043699 V
atom 13.1911234059364588 1.8577855855106529 16.2774338398708487 O
atom 12.2037369817919270 3.7155726614573203 17.9840611295997306 O
atom 14.2172782957442880 1.8577851988391803 18.7067371256536390 O
atom 10.5844992987310889 1.8577854501816069 17.5463272304921176 O
atom 14.8103841118882027 3.7155728067898508 16.7151401407847828 O
atom 6.3730061572259729 3.7155726431024063 17.6530601416542510 O
atom 3.8683014556254065 1.8577855538702723 16.6083980335546926 O
atom 3.4879881936766308 3.7155726445107016 18.6980476399705822 O
atom 8.7668739609624886 3.7155728698446246 16.2860807386980824 O
atom 1.4744337889744998 1.8577853471274870 17.9753820279058090 O
