#===============================================================================
# Created using the Atomic Simulation Environment (ASE)

# Mon Mar 23 14:01:41 2026

#=======================================================
lattice_vector 9.2181867428585846 0.0000000000000000 0.0000000000000000 
lattice_vector 0.0015442526650186 10.7770658557386358 0.0000000000000000 
lattice_vector 0.0000000000000000 0.0000000000000000 45.8079426550709741 
atom 2.3019225316003262 6.7928577634752365 15.7192305426120313 V
atom 9.2182797902490403 4.0979839610214110 15.7199563324510905 V
atom 2.3038625399358272 2.8616319800939465 18.1101342046873732 V
atom 4.5997728056624361 5.5560638179106956 18.1120055823076882 V
atom 1.3801918037264878 6.7325619368139069 17.3966576317685977 O
atom 3.6877818548407979 1.6851504240935813 18.8264580664913410 O
atom 3.2207474173195725 2.9195791105748983 16.4364856907387598 O
atom 0.9208475909123203 7.9670872589024349 15.0019147032900904 O
atom 3.6862548501545120 5.6154764442740843 16.4375276566039084 O
atom 1.3850094799885961 5.2730497418720645 15.0003353227871834 O
atom 0.9200990629133358 4.0387630635769849 17.3953535770421368 O
atom 3.2270958405636740 4.3833254677409537 18.8296811456461732 O
atom 2.3014229584236325 1.4038982003400864 15.7187928038650568 V
atom 9.2176681007549650 9.4858630088843405 15.7195889458428297 V
atom 2.3039276828390252 8.2496522940150925 18.1113261807052233 V
atom 4.5985829840269767 0.1679910682545607 18.1126821977458867 V
atom 1.3815717579366322 1.3440676666445683 17.3982303294790768 O
atom 3.6878140043702690 7.0735572787060681 18.8274188118111176 O
atom 3.2226436363681823 8.3072271468623775 16.4366759515452969 O
atom 0.9197364484993289 2.5780501345433664 15.0022499396422333 O
atom 3.6864341457838319 0.2281100388784520 16.4384833168719098 O
atom 1.3847057515147234 10.6628257117392948 15.0000000000000000 O
atom 0.9198770114024531 9.4262417726938814 17.3957322097292604 O
atom 3.2275962740029076 9.7712571521388494 18.8288995702478843 O
atom 6.9109784444150080 6.7922370508808720 15.7190354367739857 V
atom 4.6156167579248430 4.0976022951216757 15.7207922902124793 V
atom 6.9134632116037151 2.8609273132555768 18.1096683298079562 V
atom 9.2157001509300294 5.5560458727159618 18.1122984360007848 V
atom 5.9950281152818707 6.7345438997815794 17.3952484065095483 O
atom 8.2951582649672968 1.6855911586337484 18.8300020010012901 O
atom 7.8350893657507124 2.9210798944431167 16.4347970866304145 O
atom 5.5291293663501140 7.9682671319718557 15.0050616589631218 O
atom 8.2958729317241424 5.6140603858944544 16.4352998641388304 O
atom 5.9891873011557903 5.2699809705821714 15.0021052274870428 O
atom 5.5310370494470815 4.0386568200725241 17.3924474103356630 O
atom 7.8315567135631756 4.3799849397497139 18.8315887051014990 O
atom 6.9101494302390121 1.4030231745974193 15.7191101795090908 V
atom 4.6148434728699579 9.4853143586535218 15.7202378773723694 V
atom 6.9126479801661471 8.2493639511197898 18.1109956290150613 V
atom 9.2159650244205746 0.1673904226049650 18.1133163768046970 V
atom 5.9953316732995772 1.3462317771794257 17.3967556706416673 O
atom 8.2950160444235337 7.0740529087635711 18.8312048467354387 O
atom 7.8359815160502340 8.3096244771708090 16.4347558314620237 O
atom 5.5276514573293740 2.5788232159714557 15.0058984502599913 O
atom 8.2960073705731450 0.2261458027274185 16.4366817169197859 O
atom 5.9899875015339852 10.6590170544871050 15.0025580693101759 O
atom 5.5303054129348901 9.4260696771440866 17.3934019973038367 O
atom 7.8329939626798719 9.7680118273591887 18.8311793760765411 O
atom 2.3018705097312377 4.3227275946403463 20.5103046090400909 V
atom 9.2183457401204549 1.6279637049864857 20.5089058790842174 V
atom 2.3065476375675771 0.3913890081924498 22.9025506725155097 V
atom 4.6011666626664933 3.0864144390669286 22.9003873480058999 V
atom 1.3815702385232176 4.2621697924432054 22.1867495332661306 O
atom 3.6887625773745025 9.9930518305351530 23.6158878748787160 O
atom 3.2207612209916143 0.4490526861006716 21.2256173232512069 O
atom 0.9202970316180095 5.4976726315045088 19.7910769614297948 O
atom 3.6853398950137572 3.1449741502682218 21.2283500061513593 O
atom 1.3842672947430850 2.8034280710412283 19.7898585030960810 O
atom 0.9202840115253366 1.5706608150786781 22.1851629591843178 O
atom 3.2271535547326611 1.9137349360810367 23.6191121372528343 O
atom 2.3033390168992671 9.7112308663053142 20.5103955927450343 V
atom 9.2176234454492612 7.0158483043903077 20.5086260830284672 V
atom 2.3052365086935982 5.7806553662942468 22.9030626221264271 V
atom 4.6026618793178722 8.4753625750940689 22.9006021083377362 V
atom 1.3815235786505304 9.6512760623428484 22.1870165909927337 O
atom 3.6873904983184760 4.6042171397618006 23.6158940185088255 O
atom 3.2207888834955694 5.8375068457368915 21.2250919650004590 O
atom 0.9197029464574001 0.1085702213404500 19.7910442821873716 O
atom 3.6865941919925227 8.5345632002166880 21.2286907841446819 O
atom 1.3847138049105863 8.1923592242603931 19.7904475180184143 O
atom 0.9195439884736366 6.9577490916732341 22.1852338886314371 O
atom 3.2275642427553835 7.3016710844258403 23.6185718050768116 O
atom 6.9111814653601913 4.3222040499373682 20.5102247512891225 V
atom 4.6162828861192535 1.6278935925528530 20.5093630465886605 V
atom 6.9150756167278065 0.3909142298316131 22.9026481691699004 V
atom 9.2168570950728679 3.0857009694406496 22.9014145299879246 V
atom 5.9951856066421305 4.2645108919374310 22.1846099923311968 O
atom 8.2965855823366130 9.9945532692239389 23.6191093055722448 O
atom 7.8349374487704440 0.4509892802910309 21.2240398156298156 O
atom 5.5281792235599374 5.4988398596968686 19.7945599469619360 O
atom 8.2955025893200141 3.1441934553496846 21.2262027355970915 O
atom 5.9889159066698188 2.8004546021639944 19.7917718372314582 O
atom 5.5296630688333961 1.5684369634573743 22.1829011344156939 O
atom 7.8313980797839911 1.9105181650646410 23.6208861093348830 O
atom 6.9126781478428523 9.7109181270424987 20.5098187856198351 V
atom 4.6157511509593210 7.0155413465609948 20.5093128677692249 V
atom 6.9141469302859742 5.7799714178601809 22.9032386229078426 V
atom 9.2178674353367995 8.4746122989123656 22.9015145750196751 V
atom 5.9947277239725691 9.6539563043130627 22.1845599786704000 O
atom 8.2959669747647169 4.6057944309207048 23.6190645167512301 O
atom 7.8344178290377711 5.8398939283719260 21.2236734129611690 O
atom 5.5279419594778805 0.1098126408554629 19.7937224475329501 O
atom 8.2967359645822398 8.5339652432191144 21.2261076603960746 O
atom 5.9894497605058437 8.1896765303397849 19.7926260125095475 O
atom 5.5285894124562436 6.9556565917444502 22.1835395625990444 O
atom 7.8326676915459590 7.2977953843354957 23.6211913174915793 O
atom 2.3003582536191374 1.8531106131730981 25.2984824135383306 V
atom 9.2182597649328706 9.9353026664579094 25.2992082033773826 V
atom 2.3038425146196566 8.6989506855304448 27.6893860756136760 V
atom 4.5982085276812468 0.6163166676085590 27.6912574532339804 V
atom 1.3786275257452982 1.7928147865117696 26.9759095026948899 O
atom 3.6877618295246277 7.5224691295300792 28.4057099374176332 O
atom 3.2207273920034019 8.7568978160113957 26.0157375616650626 O
atom 0.9192833129311312 3.0273401086002982 24.5811665742163896 O
atom 3.6846905721733223 0.6757292939719459 26.0167795275302112 O
atom 1.3834452020074068 0.3333025915699255 24.5795871937134862 O
atom 0.9200790375971651 9.8760817690134832 26.9746054479684361 O
atom 3.2270758152475039 10.2206441731774529 28.4089330165724689 O
atom 2.3014029331074628 7.2412169057765849 25.2980446747913490 V
atom 9.2161038227737766 4.5461158585822039 25.2988408167691219 V
atom 2.3023634048578363 3.3099051437129536 27.6905780516315261 V
atom 4.5985629587108070 6.0053097736910592 27.6919340686721824 V
atom 1.3815517326204616 7.1813863720810689 26.9774822004053760 O
atom 3.6862497263890797 2.1338101284039328 28.4066706827374134 O
atom 3.2210793583869939 3.3674799965602387 26.0159278224715891 O
atom 0.9197164231831580 8.4153688399798643 24.5815018105685326 O
atom 3.6864141204676608 6.0654287443149499 26.0177351877982090 O
atom 1.3831414735335339 5.7230785614371555 24.5792518709262922 O
atom 0.9183127334212638 4.4864946223917439 26.9749840806555525 O
atom 3.2260319960217183 4.8315100018367119 28.4081514411741765 O
atom 6.9094141664338187 1.8524899005787354 25.2982873077002850 V
atom 4.6155967326086715 9.9349210005581732 25.3000441611387785 V
atom 6.9134431862875445 8.6982460186920747 27.6889202007342519 V
atom 9.2141358729488410 0.6162987224138246 27.6915503069270841 V
atom 5.9934638373006823 1.7947967494794415 26.9745002774358440 O
atom 8.2951382396511253 7.5229098640702450 28.4092538719275893 O
atom 7.8350693404345426 8.7583985998796141 26.0140489575567102 O
atom 5.5275650883689256 3.0285199816697186 24.5843135298894211 O
atom 8.2943086537429540 0.6743132355923186 26.0145517350651332 O
atom 5.9876230231746010 0.3302338202800348 24.5813570984133420 O
atom 5.5310170241309109 9.8759755255090234 26.9716992812619623 O
atom 7.8315366882470059 10.2173036451862131 28.4108405760277947 O
atom 6.9101294049228406 7.2403418800339177 25.2983620504353937 V
atom 4.6132791948887695 4.5455672083513834 25.2994897482986758 V
atom 6.9110837021849578 3.3096168008176505 27.6902474999413641 V
atom 9.2159449991044031 6.0047091280414637 27.6925682477309962 V
atom 5.9953116479834074 7.1835504826159235 26.9760075415679736 O
atom 8.2934517664423453 2.1343057584614336 28.4104567176617380 O
atom 7.8344172380690447 3.3698773268686697 26.0140077023883194 O
atom 5.5276314320132034 8.4161419214079540 24.5851503211862976 O
atom 8.2959873452569752 6.0634645081639178 26.0159335878460851 O
atom 5.9884232235527959 5.7192699041849675 24.5818099402364751 O
atom 5.5287411349537008 4.4863225268419473 26.9726538682301396 O
atom 7.8314296846986826 4.8282646770570512 28.4104312470028404 O
atom 2.3018504844150671 10.1600463000768446 30.0895564799663902 V
atom 9.2183257148042834 7.4652824104229856 30.0881577500105166 V
atom 3.2207411956754437 6.2863713915371697 30.8048691941775061 O
atom 0.9187327536368204 0.5579254812023693 29.3703288323560869 O
atom 3.6853198696975866 8.9822928557047188 30.8076018770776656 O
atom 1.3842472694269143 8.6407467764777284 29.3691103740223838 O
atom 2.3017747389180783 4.7714837160031767 30.0896474636713336 V
atom 9.2160591674680710 2.0761011540881711 30.0878779539547665 V
atom 3.2192246055143796 0.8977596954347534 30.8043438359267654 O
atom 0.9196829211412295 5.9458889267769477 29.3702961531136637 O
atom 3.6850299140113330 3.5948160499145483 30.8079426550709741 O
atom 1.3831495269293972 3.2526120739582556 29.3696993889447171 O
atom 6.9111614400440216 10.1595227553738656 30.0894766222154217 V
atom 4.6162628608030838 7.4652122979893516 30.0886149175149598 V
atom 7.8349174234542742 6.2883079857275295 30.8032916865561077 O
atom 5.5266149455787490 0.5590927093947303 29.3738118178882317 O
atom 8.2954825640038425 8.9815121607861794 30.8054546065233907 O
atom 5.9888958813536499 8.6377733076004919 29.3710237081577503 O
atom 6.9111138698616630 4.7711709767403612 30.0890706565461343 V
atom 4.6141868729781326 2.0757941962588582 30.0885647386955242 V
atom 7.8328535510565827 0.9001467780697875 30.8029252838874754 O
atom 5.5279219341617116 5.9471313462919611 29.3729743184592493 O
atom 8.2951716866010514 3.5942180929169765 30.8053595313223738 O
atom 5.9878854825246535 3.2499293800376470 29.3718778834358361 O
