#===============================================================================
# Created using the Atomic Simulation Environment (ASE)

# Mon Mar 23 14:01:47 2026

#=======================================================
lattice_vector 9.2315018221363143 0.0000000000000000 0.0000000000000000 
lattice_vector 0.0000038100387047 5.5790402700009523 0.0000000000000000 
lattice_vector 0.0000000000000000 0.0000000000000000 43.3888069150992521 
atom 0.0005472891610907 2.7895811681565941 15.9247538963182720 V
atom 0.9251354992978635 1.3934222358827180 15.0005611186022634 O
atom 0.9252121739751086 4.1855751658567240 15.0005331501957855 O
atom 5.5412528583983462 1.3944745604634077 15.0000000000000000 O
atom 5.5414719036395033 4.1846052404476080 15.0000075099116614 O
atom 0.0008046789939864 5.5789845882850457 15.9249781759017104 V
atom 2.3088066425394143 1.3947633066793359 18.2326460711129528 V
atom 1.3840238401912583 5.5788411763217791 17.3078855687214137 O
atom 3.2335863370520035 5.5788466569485857 19.1572738989668636 O
atom 3.6916446033014543 1.3945591360200742 16.8498015915343586 O
atom 0.9262326941118798 1.3942467173889306 19.6156023655040030 O
atom 0.0009444883117540 2.7895884822884707 25.1562162299066259 V
atom 2.3088118275608993 4.1843039866794927 18.2326460760283595 V
atom 1.3842353398324228 2.7897840664467566 17.3081000788142312 O
atom 3.2334417383565075 2.7897904268440326 19.1571008967198395 O
atom 3.6916414333057088 4.1845174161779148 16.8500312963443832 O
atom 0.9262305642444688 4.1847891172314835 19.6153705298926511 O
atom 4.6165689318477972 0.0000254233400604 15.9250626054773541 V
atom 6.9244908858065477 1.3945568517563567 18.2327492326882066 V
atom 5.9997759230155827 5.5790074213768897 17.3079664385826995 O
atom 7.8492139096565401 5.5790068720090131 19.1573445815108911 O
atom 8.3077674555853598 1.3934431707080588 16.8493983842946733 O
atom 5.5413350228674751 1.3936918126986304 19.6159622498361657 O
atom 4.6166351851924814 2.7895416932810457 15.9249847790956309 V
atom 6.9245033209782818 4.1845043817592948 18.2327543571698101 V
atom 6.0000428101893348 2.7895832714192319 17.3080679377345703 O
atom 7.8491496215979142 2.7895805719179179 19.1572028777888406 O
atom 8.3077413723013436 4.1855427207570788 16.8494654281353355 O
atom 5.5413677366387679 4.1853205626498529 19.6158945727333887 O
atom 0.0010306068345428 0.0000204502928972 20.5406301719764883 V
atom 2.3090452079555219 1.3945938089272809 22.8486495271656480 V
atom 1.3844035400251140 5.5785846486963173 21.9240947717973285 O
atom 3.2336906852156981 5.5785929892972428 23.7734054579645289 O
atom 3.6923076374481592 1.3936738378706870 21.4652844889440289 O
atom 0.9255326984485264 1.3934295500145946 24.2320234521906173 O
atom 0.0009565029721707 2.7895350603363807 20.5406821786154694 V
atom 2.3090388329998466 4.1845516789279964 22.8486486820448391 V
atom 1.3844251393742280 2.7900758888290285 21.9242931956010523 O
atom 3.2334579766719695 2.7900831692044843 23.7732370072398851 O
atom 3.6922444836697794 4.1853565679089728 21.4653304638668345 O
atom 0.9256093731257713 4.1855824799886010 24.2319954837841465 O
atom 4.6167237077522616 5.5789946852941261 20.5406216833472399 V
atom 6.9246378793050214 1.3944859739521485 22.8486631006435488 V
atom 5.9998130555911899 5.5787403935548312 21.9238383090354461 O
atom 7.8495135123007147 5.5787417644806832 23.7736844563158343 O
atom 8.3075215920723817 1.3941691233523847 21.4659123501576445 O
atom 5.5416500575490089 1.3944818745952841 24.2314623335883539 O
atom 4.6168955761845476 2.7895987153856963 20.5407815545240453 V
atom 6.9246386744157755 4.1845765039538501 22.8486647352778931 V
atom 6.0003477923224802 2.7899109138722942 21.9243813420189966 O
atom 7.8487595517198514 2.7899097540582209 23.7729579670249436 O
atom 8.3073038667880628 4.1848758133611605 21.4658927990723214 O
atom 5.5418691027901668 4.1846125545794841 24.2314698435000153 O
atom 0.0012018781446493 5.5789919024169219 25.1564405094900678 V
atom 2.3092038416900773 1.3947706208112125 27.4641084047013067 V
atom 1.3844210393419207 5.5788484904536562 26.5393479023097711 O
atom 3.2339835362026665 5.5788539710804628 28.3887362325552175 O
atom 3.6920418024521164 1.3945664501519510 26.0812639251227125 O
atom 2.3092090267115619 4.1843113008113697 27.4641084096167134 V
atom 1.3846325389830851 2.7897913805786332 26.5395624124025886 O
atom 3.2338389375071697 2.7897977409759092 28.3885632303081934 O
atom 3.6920386324563719 4.1845247303097919 26.0814936299327371 O
atom 4.6169661309984606 0.0000327374719370 25.1565249390657115 V
atom 6.9248880849572103 1.3945641658882335 27.4642115662765605 V
atom 6.0001731221662462 5.5790147355087667 26.5394287721710498 O
atom 7.8496111088072036 5.5790141861408902 28.3888069150992521 O
atom 8.3081646547360215 1.3934504848399354 26.0808607178830272 O
atom 4.6170323843431440 2.7895490074129219 25.1564471126839919 V
atom 6.9249005201289444 4.1845116958911719 27.4642166907581569 V
atom 6.0004400093399983 2.7895905855511085 26.5395302713229313 O
atom 7.8495468207485777 2.7895878860497945 28.3886652113771945 O
atom 8.3081385714520053 4.1855500348889558 26.0809277617236859 O
