#===============================================================================
# Created using the Atomic Simulation Environment (ASE)

# Mon Mar 23 14:01:37 2026

#=======================================================
lattice_vector 6.4438726005090654 0.0000000000000000 0.0000000000000000 
lattice_vector -3.5569600490794309 11.3848577209754627 0.0000000000000000 
lattice_vector 0.0000000000000000 0.0000000000000000 39.2889370708655576 
atom 1.7676505549447075 9.1578242374276542 15.0000000304250172 V
atom -1.3084075273517786 10.2198085189642622 15.0000000284149522 V
atom 3.5461147833081830 3.4653694830578794 16.8577873904249635 V
atom 1.1192767384885924 2.2270300737485993 15.0000001104406557 V
atom 0.4700364782471659 4.5273901937352230 16.8577873884150407 V
atom 4.1953375111135403 1.1650579143996149 15.0000001224507535 V
atom 3.3420911304039698 9.8242385115965138 15.0000000000000000 O
atom -0.4126752273086726 8.3463892391736660 15.0000001313510758 O
atom 1.5211483985053091 8.7308811797507246 16.8577874195145192 O
atom 0.7352280563972694 10.7205893915300017 15.0000000467601726 O
atom 2.2609190426545482 7.2254640174722509 15.0000001538072016 O
atom -1.1524818001832886 9.8518054846681462 16.8577874070584457 O
atom 5.1205411882533634 4.1318209336054048 16.8577873600000814 O
atom -0.4551677811045448 1.5606041031525932 15.0000001408656445 O
atom 3.2995780532437271 3.0385095625535992 15.0000000195147685 O
atom 2.5136666937827803 5.0281697049837524 16.8577874167602637 O
atom 2.1517100723964244 0.6642584649220015 15.0000001041054638 O
atom 0.6259569363507805 4.1593802375625009 15.0000000070585209 O
atom 1.7676511573965112 9.1578228515234219 18.7155747904250163 V
atom -0.6591958104498395 7.9194679289393921 16.8577875204406702 V
atom -1.3084069248999748 10.2198071330600300 18.7155747884149477 V
atom 2.4168879213124770 6.8574575546546983 16.8577875324506188 V
atom 3.5461153857599879 3.4653680971536462 20.5733621504249555 V
atom 1.1192773409403967 2.2270286878443666 18.7155748704406513 V
atom 0.4700370806989703 4.5273888078309898 20.5733621484150362 V
atom 4.1953381135653451 1.1650565284953822 18.7155748824507491 V
atom 3.3420917328557729 9.8242371256922834 18.7155747599999955 O
atom -2.2336438379457908 7.2530111435349696 16.8577875508655737 O
atom -0.4126746248568689 8.3463878532694338 18.7155748913510678 O
atom 1.5211490009571134 8.7308797938464924 20.5733621795145147 O
atom 0.7352286588490723 10.7205880056257712 18.7155748067601699 O
atom 0.3732574157819809 6.3566813889558942 16.8577875141054037 O
atom 2.2609196451063527 7.2254626315680195 18.7155749138071954 O
atom -1.1524811977314844 9.8518040987639139 20.5733621670584412 O
atom 5.1205417907051682 4.1318195477011717 20.5733621200000769 O
atom -0.4551671786527405 1.5606027172483603 18.7155749008656400 O
atom 1.3657729422829399 2.6539693537635309 16.8577874913511536 O
atom 3.2995786556955311 3.0385081766493673 18.7155747795147676 O
atom 2.5136672962345847 5.0281683190795201 20.5733621767602628 O
atom 2.1517106748482284 0.6642570790177689 18.7155748641054593 O
atom 4.0393737974744601 1.5330563281093539 16.8577875038073053 O
atom 0.6259575388025846 4.1593788516582677 18.7155747670585164 O
atom 1.7676517598483152 9.1578214656191896 22.4311495504250118 V
atom -0.6591952079980350 7.9194665430351590 20.5733622804406693 V
atom -1.3084063224481706 10.2198057471557959 22.4311495484149432 V
atom 2.4168885237642810 6.8574561687504652 20.5733622924506143 V
atom 3.5461159882117919 3.4653667112494140 24.2889369104249546 V
atom 1.1192779433922007 2.2270273019401343 22.4311496304406504 V
atom 0.4700376831507746 4.5273874219267567 24.2889369084150317 V
atom 4.1953387160171483 1.1650551425911495 22.4311496424507482 V
atom 3.3420923353075773 9.8242357397880475 22.4311495199999911 O
atom -2.2336432354939864 7.2530097576307355 20.5733623108655692 O
atom -0.4126740224050643 8.3463864673651997 22.4311496513510704 O
atom 1.5211496034089174 8.7308784079422583 24.2889369395145067 O
atom 0.7352292613008776 10.7205866197215354 22.4311495667601619 O
atom 0.3732580182337859 6.3566800030516628 20.5733622741053992 O
atom 2.2609202475581571 7.2254612456637854 22.4311496738071909 O
atom -1.1524805952796802 9.8518027128596817 24.2889369270584368 O
atom 5.1205423931569714 4.1318181617969394 24.2889368800000724 O
atom -0.4551665762009364 1.5606013313441276 22.4311496608656356 O
atom 1.3657735447347445 2.6539679678592982 20.5733622513511492 O
atom 3.2995792581473347 3.0385067907451346 22.4311495395147631 O
atom 2.5136678986863892 5.0281669331752870 24.2889369367602548 O
atom 2.1517112773000329 0.6642556931135363 22.4311496241054584 O
atom 4.0393743999262641 1.5330549422051210 20.5733622638073008 O
atom 0.6259581412543891 4.1593774657540354 22.4311495270585119 O
atom -0.6591946055462304 7.9194651571309258 24.2889370404406613 V
atom 2.4168891262160845 6.8574547828462347 24.2889370524506063 V
atom -2.2336426330421819 7.2530083717265033 24.2889370708655612 O
atom 0.3732586206855896 6.3566786171474305 24.2889370341053947 O
atom 1.3657741471865485 2.6539665819550655 24.2889370113511447 O
atom 4.0393750023780681 1.5330535563008885 24.2889370238072999 O
