#===============================================================================
# Created using the Atomic Simulation Environment (ASE)

# Mon Mar 23 14:01:47 2026

#=======================================================
lattice_vector 9.2314623421363340 0.0000000000000000 0.0000000000000000 
lattice_vector 0.0003972008493561 9.2315018135911977 0.0000000000000000 
lattice_vector 0.0000000000000000 0.0000000000000000 38.3685745599804733 
atom 0.0000439815243607 0.0000178988777078 17.7894531849922046 V
atom 1.3830108882743284 1.3831775568845646 17.7893086773447777 O
atom 3.2324787973402462 3.2326604789984876 17.7893126926923415 O
atom 9.2316770237944894 9.2312623323813430 15.0000497650423235 V
atom 2.3078100803807224 2.3079257540738443 16.3947707550107395 V
atom 1.3832231976837492 1.3833890473909574 15.0002515673006727 O
atom 3.2323035790891521 3.2325158878419162 15.0002564627257300 O
atom 0.9252548007092242 3.6908148478585097 16.3949852799614852 O
atom 3.6904750454712585 0.9252849979983910 16.3952547900235182 O
atom 1.3832903587423466 5.9989296319567629 17.7894749223358133 O
atom 3.2327480751289768 7.8482880442893412 17.7894729076967657 O
atom 0.0002469784786840 4.6158484006145493 15.0000102899838446 V
atom 2.3081169595489750 6.9236172385597392 16.3949711500047535 V
atom 1.3833896593032631 5.9991965148581912 15.0000507722986143 O
atom 3.2326041585651262 7.8482237624229061 15.0000466077188150 O
atom 0.9248875487552418 8.3069148069286562 16.3960105849889892 O
atom 3.6911976627501195 5.5404221435728571 16.3957862350266836 O
atom 5.9992201032097778 1.3833586365746176 17.7890484922746239 O
atom 7.8486103563523173 3.2325662103593999 17.7890553676578271 O
atom 4.6161429772517639 9.2314729381356724 15.0000000000000000 V
atom 6.9238126920865071 2.3079541482582995 16.3950147899782479 V
atom 5.9994163185938056 1.3833802274812554 15.0005397322509992 O
atom 7.8484396862654577 3.2323335091588237 15.0005455476994065 O
atom 5.5405539905702064 3.6912193172343386 16.3958207749688825 O
atom 8.3070999689887319 0.9244651688484047 16.3960444950065458 O
atom 4.6158860923622038 4.6157383275598107 17.7894596250047954 V
atom 5.9991622263071012 5.9987681589031867 17.7892042373363317 O
atom 7.8490879583402355 7.8483890211674145 17.7892041426202177 O
atom 4.6160437608819880 4.6159101892083028 15.0000636549705746 V
atom 6.9240273392638718 6.9235539847110923 16.3950396149913793 V
atom 5.9997030726951204 5.9993028723641491 15.0003747572244279 O
atom 7.8483592270046190 7.8476350919407434 15.0003721327742312 O
atom 5.5413148960647884 8.3062786718853019 16.3953400199755279 O
atom 8.3067729502540697 5.5407249168563597 16.3950745700138967 O
atom 0.0000484019886503 0.0000217087262182 23.3684934549914054 V
atom 2.3078122855400554 2.3079243789961832 19.1842703450106669 V
atom 1.3830153087386179 1.3831813667330752 23.3683489473439785 O
atom 3.2324832178045360 3.2326642888469985 23.3683529626915387 O
atom 0.9250273060027733 3.6908218376813084 19.1840672699857180 O
atom 3.6907090906782041 0.9252909278343240 19.1837526599973565 O
atom 9.2316814442587809 9.2312661422298525 20.5790900350415242 V
atom 2.3078145008450122 2.3079295639223552 21.9738110250099439 V
atom 1.3832276181480387 1.3833928572394676 20.5792918372998734 O
atom 3.2323079995534418 3.2325196976904267 20.5792967327249343 O
atom 0.9252592211735137 3.6908186577070201 21.9740255499606860 O
atom 3.6904794659355473 0.9252888078469012 21.9742950600227189 O
atom 0.0003270123268474 4.6157859538649220 17.7895342899812761 V
atom 2.3081140445078243 6.9236086135521253 19.1840638900059517 V
atom 1.3832947792066366 5.9989334418052724 23.3685151923350141 O
atom 3.2327524955932661 7.8482918541378517 23.3685131776959665 O
atom 0.9248227143073521 8.3069447030410171 19.1829513049931677 O
atom 3.6912675470887204 5.5403932368333546 19.1831977550219221 O
atom 0.0002513989429736 4.6158522104630597 20.5790505599830453 V
atom 2.3081213800132643 6.9236210484082488 21.9740114200039542 V
atom 1.3833940797675524 5.9992003247067007 20.5790910422978115 O
atom 3.2326085790294159 7.8482275722714157 20.5790868777180158 O
atom 0.9248919692195317 8.3069186167771658 21.9750508549881900 O
atom 3.6912020832144088 5.5404259534213693 21.9748265050258844 O
atom 4.6156959832704025 0.0000490405880592 17.7895256599977962 V
atom 6.9238157474488906 2.3079643331212254 19.1840971899769350 V
atom 5.9992245236740676 1.3833624464231282 23.3680887622738283 O
atom 7.8486147768166070 3.2325700202079113 23.3680956376570279 O
atom 5.5405102269654156 3.6912862829344877 19.1831783149670976 O
atom 8.3071301423242634 0.9243923029115386 19.1829318350104536 O
atom 4.6161473977160536 9.2314767479841819 20.5790402699991972 V
atom 6.9238171125507968 2.3079579581068095 21.9740550599774451 V
atom 5.9994207390580945 1.3833840373297661 20.5795800022502000 O
atom 7.8484441067297466 3.2323373190073341 20.5795858176986073 O
atom 5.5405584110344952 3.6912231270828495 21.9748610449680797 O
atom 8.3071043894530252 0.9244689786969149 21.9750847650057466 O
atom 4.6158905128264927 4.6157421374083212 23.3684998950039962 V
atom 6.9240279144574908 6.9235569996142949 19.1839893549910485 V
atom 5.9991666467713909 5.9987719687516972 23.3682445073355360 O
atom 7.8490923788045253 7.8483928310159250 23.3682444126194184 O
atom 5.5413366658920955 8.3065002062718545 19.1836735999513373 O
atom 8.3067676407480011 5.5405096818821562 19.1839841600357239 O
atom 4.6160481813462777 4.6159139990568132 20.5791039249697754 V
atom 6.9240317597281607 6.9235577945596019 21.9740798849905801 V
atom 5.9997074931594110 5.9993066822126595 20.5794150272236251 O
atom 7.8483636474689087 7.8476389017892538 20.5794124027734284 O
atom 5.5413193165290773 8.3062824817338115 21.9743802899747251 O
atom 8.3067773707183594 5.5407287267048693 21.9741148400130974 O
atom 0.0003314327911370 4.6157897637134324 23.3685745599804768 V
atom 4.6157004037346923 0.0000528504365696 23.3685659299969970 V
