#===============================================================================
# Created using the Atomic Simulation Environment (ASE)

# Mon Mar 23 14:01:48 2026

#=======================================================
lattice_vector 10.7863573876396668 0.0000000000000000 0.0000000000000000 
lattice_vector 0.0003366819931270 9.2315018159967526 0.0000000000000000 
lattice_vector 0.0000000000000000 0.0000000000000000 36.2081459958836263 
atom 2.1294707880955639 0.0003336259784721 18.1040411469190268 V
atom 6.2687704623124301 2.3081846267096013 15.7165877175904392 V
atom 7.7816576032563747 3.2329053353095683 15.0009649298687933 O
atom 5.0854243891670254 3.6910657461919056 15.0011636456849153 O
atom 7.4525850403867917 0.9255675024751417 16.4314527639055257 O
atom 3.5720433377646685 0.0000236240990725 15.7166249914037834 V
atom 4.8259349638450635 2.3082424333674241 18.1040053447397931 V
atom 4.7559203474606182 1.3836684985262862 16.4323074704048899 O
atom 6.3384447126950798 3.2328171820528802 17.3886725202940902 O
atom 3.6425694826273953 3.6911151985403237 17.3890574821074289 O
atom 6.2691338760952409 6.9238688597924121 15.7164643822539531 V
atom 7.7818035650223321 7.8485329056604369 15.0011386084770599 O
atom 5.0858248716581747 8.3071885869398479 15.0000000000000000 O
atom 7.4533483769722810 5.5406698064604480 16.4311639940189060 O
atom 3.5724297087945374 4.6161115091091363 15.7167106265968783 V
atom 4.7561650400121955 5.9994759630288392 16.4321189964090557 O
atom 6.3388088755936494 7.8485250550826589 17.3885456644842158 O
atom 3.6417232214373683 8.3072151714699540 17.3896423007810093 O
atom 8.9653691151394685 0.0003102418524547 15.7166621835605831 V
atom 10.2194468799591771 2.3082791070531457 18.1039804012637120 V
atom 10.1496986441443742 1.3836361722561630 16.4318248178552615 O
atom 0.9461298000179273 3.2328655928144676 17.3883518358081197 O
atom 9.0360255379821908 3.6915846980114568 17.3876744655467341 O
atom 7.5225916034313158 0.0002887575115295 18.1040843957153079 V
atom 0.8756872351274049 2.3082163090936096 15.7169545567036799 V
atom 2.3882879343129262 3.2325802873383913 15.0017293408227452 O
atom 10.4777711992642502 3.6914651523054332 15.0021490525469616 O
atom 2.0590356387319533 0.9247436904138829 16.4333459133870825 O
atom 8.9655643442436084 4.6159995286810105 15.7166012771830346 V
atom 10.2196826075306628 6.9238717728751045 18.1038951317331218 V
atom 10.1495669240350832 5.9990456956957541 16.4318254611303125 O
atom 0.9464599722377828 7.8486884109276058 17.3886234709297263 O
atom 9.0364750352372969 8.3067986393114985 17.3884231026803242 O
atom 0.8758564694514778 6.9238161474070754 15.7169841063279101 V
atom 2.3883071390326305 7.8478818647553421 15.0014365960309100 O
atom 10.4786694483671052 8.3065245057330053 15.0020284575388096 O
atom 2.0592558060756203 5.5410034151186780 16.4322439292853630 O
atom 3.3831207097254534 2.3082936792461743 20.4913878000869865 V
atom 3.3131513664633347 1.3835096180953561 18.8192002822253528 O
atom 4.8960078506693927 3.2330143878461417 19.7757650123653441 O
atom 2.1997746365800386 3.6911747987284782 19.7759637281814626 O
atom 4.5669352877998151 0.9256765550117149 21.2062528464020730 O
atom 0.6863935851776820 0.0001326766356452 20.4914250739003307 V
atom 1.8702705948736271 1.3837775510628587 21.2071075529014408 O
atom 6.0090330017842097 0.9256180203769906 18.8196077941256341 O
atom 2.1296694384359429 4.6161016846958063 18.1041542299192635 V
atom 3.3834841235082593 6.9239779123289846 20.4912644647505040 V
atom 3.3133029326493322 5.9992616984616944 18.8193843907724379 O
atom 4.8961538124353456 7.8486419581970095 19.7759386909736072 O
atom 2.2001751190711984 8.3072976394764186 19.7748000824965509 O
atom 4.5676986243852946 5.5407788589970224 21.2059640765154569 O
atom 0.6867799562075511 4.6162205616457088 20.4915107090934292 V
atom 4.8260923242254927 6.9239339241154605 18.1042328584036802 V
atom 1.8705152874252098 5.9995850155654118 21.2069190789056030 O
atom 6.0093749406634291 5.5407551833698134 18.8203336805731674 O
atom 6.0797193625524883 0.0004192943890277 20.4914622660571339 V
atom 7.2640488915573869 1.3837452247927355 21.2066249003518159 O
atom 0.6175964582079879 0.9247233964865332 18.8185071533313568 O
atom 8.7763948701800896 2.3083253616301826 20.4917546392002308 V
atom 8.7065204748952230 1.3837142157778743 18.8201930714498324 O
atom 10.2889955693656123 3.2326893398749639 19.7765294233192925 O
atom 7.5921214466772735 3.6915742048420062 19.7769491350435125 O
atom 9.9597432737846354 0.9248527429504559 21.2081459958836298 O
atom 6.0799145916566220 4.6161085812175831 20.4914013596795783 V
atom 7.2639171714480986 5.9991547482323266 21.2066255436268598 O
atom 0.6167402870172107 5.5408407898824512 18.8191175536104254 O
atom 7.5228120774455096 4.6162278257529108 18.1041902748938632 V
atom 8.7765641045041587 6.9239251999436480 20.4917841888244574 V
atom 8.7068495920052342 5.9996368597927958 18.8200974702851447 O
atom 10.2890147740853166 7.8479909172919147 19.7762366785274608 O
atom 7.5930196957801241 8.3066335582695778 19.7768285400353570 O
atom 9.9599634411283056 5.5411124676552515 21.2070440117819139 O
