#===============================================================================
# Created using the Atomic Simulation Environment (ASE)

# Mon Mar 23 14:01:46 2026

#=======================================================
lattice_vector 10.7863573876396668 0.0000000000000000 0.0000000000000000 
lattice_vector 2.8859864345801114 10.3931385144755009 0.0000000000000000 
lattice_vector 0.0000000000000000 0.0000000000000000 40.3934903788535138 
atom 7.9011069752626648 6.0060953693036794 17.9704987078700356 V
atom 12.0404066494795323 9.1528148913285392 16.9101844296976793 V
atom 11.9704373062174181 9.0996371345935749 15.0000512456396997 O
atom 13.5532937904234725 10.3029406004002091 16.6993878060233207 O
atom 7.9710741417540110 0.3166580002703583 16.9100516770354439 O
atom 2.4378638399142232 7.5963245804486919 16.9099419289892943 O
atom 9.3436795249317637 7.1026431629589384 15.8498056768195426 V
atom 10.5275565346277169 8.0028263471029515 17.1211611677276601 O
atom 7.9009689436099180 1.9062567022465904 15.8500456819861597 V
atom 9.0846024378233050 2.8062170268119533 17.1207766609439851 O
atom 10.5973918293994647 3.9560831689382971 16.9103763417038557 V
atom 10.5274645451861595 3.9031612219117489 15.0004583966564979 O
atom 12.1101083807676222 5.1061233739727072 16.6994629807996020 O
atom 9.4130227266113433 5.5130372620266082 16.9111677591854779 O
atom 0.9943170581977332 2.3985262807937140 16.9109734647244849 O
atom 3.9506479146669093 7.1028806557949746 15.8499703891321175 V
atom 5.1349774436718052 8.0030193737748192 17.1207176148273774 O
atom 2.5078704029587491 6.0060356469400960 17.9705165089091672 V
atom 6.6473234222945026 9.1526744995791436 16.9105248189824238 V
atom 6.5774490270096395 9.0993627565987882 15.0010270567750723 O
atom 8.1599241214800280 10.3023007017819399 16.6999174380167119 O
atom 2.5770635642115711 0.3165600466003800 16.9111104296060795 O
atom 7.8306718258990484 7.5947231062666338 16.9112449875896615 O
atom 1.0648567091909305 0.8095173379302039 17.9704493287844187 V
atom 5.2046247250649680 3.9561831228475550 16.9100478127147085 V
atom 5.1345090415693848 3.9029139054280662 15.0000000000000000 O
atom 6.7177594774117484 5.1062327241695593 16.6996071387320519 O
atom 4.0214171527715994 5.5132274120217870 16.9098934805553966 O
atom 6.3880397921911776 2.3991610294265837 16.9099326057342303 O
atom 2.5077541949798108 1.9063521835194148 15.8501356493859262 V
atom 3.6917917095395389 2.8062226506647363 17.1215823884339429 O
atom 5.0154572226756775 3.8125607513189803 22.2116214035019617 V
atom 9.1547568968925468 6.9592802733438388 21.1513071253296054 V
atom 9.0847875536304326 6.9061025166088745 19.2411739412716294 O
atom 10.6676440378364834 8.1094059824155096 20.9405105016552504 O
atom 7.9714108237471430 8.5162618967611596 21.1511743726673700 O
atom 10.3385714749669066 5.4027899624639923 21.1510646246212204 O
atom 6.4580297723447844 4.9091085449742407 20.0909283724514758 V
atom 10.5975711510121684 8.0560424167552984 19.0307629047331055 V
atom 7.6419067820407331 5.8092917291182529 21.3622838633595897 O
atom 12.1100808998621812 9.2059052668293049 18.8201567755347483 O
atom 9.4142056697944909 9.6127978403596472 19.0310492925138455 O
atom 11.7806691889513075 6.4992068552461779 19.0311720315392598 O
atom 7.9013056256030394 10.1058605987373920 20.0911683776180858 V
atom 9.1547836286822282 2.8594757656446008 19.0306055969201715 V
atom 6.1989526852363230 0.6126824088272540 21.3618993565759148 O
atom 10.6674533176093203 4.0094146920481872 18.8200467550438297 O
atom 7.9714746242451691 4.4173249069489255 19.0297503243476918 O
atom 10.3389981295592648 1.3025445774350100 19.0299488049555201 O
atom 6.4580794613815256 0.8095665640348012 17.9705979009931802 V
atom 7.7117420768124783 1.7625485509535976 21.1514990373357854 V
atom 7.6418147925991828 1.7096266039270493 19.2415810922884241 O
atom 9.2244586281806349 2.9125887559880068 20.9405856764315281 O
atom 6.5273729740243569 3.3195026440419086 21.1522904548174076 O
atom 8.8950246932504164 0.2049916628090140 21.1520961603564110 O
atom 11.8513555497195817 4.9093460378102742 20.0910930847640472 V
atom 5.2047256794866090 8.0560864505481700 19.0307575980101262 V
atom 2.2493276910848219 5.8094847557901206 21.3618403104593035 O
atom 6.7177659871850324 9.2060955946173468 18.8198941779824374 O
atom 4.0213043375096182 9.6138502425376000 19.0300365663828508 O
atom 6.3892326453750909 6.4989178872170408 19.0297834136863102 O
atom 10.4085780380114361 3.8125010289553969 22.2116392045410898 V
atom 3.7616736697075179 6.9591398815944459 21.1516475146143463 V
atom 3.6917992744226553 6.9058281386140878 19.2421497524069984 O
atom 5.2742743688930434 8.1087660837972404 20.9410401336486380 O
atom 2.5774002462046983 8.5161639430911809 21.1522331252380020 O
atom 4.9450220733120700 5.4011884882819361 21.1523676832215948 O
atom 11.8515507788237198 9.0091212344210057 22.2115720244163448 V
atom 2.3189749724779816 1.7626485048628555 21.1511705083466346 V
atom 2.2488592889824024 1.7093792874433662 19.2411226956319297 O
atom 3.8321097248247642 2.9126981061848598 20.9407298343639816 O
atom 1.1357674001846292 3.3196927940370871 21.1510161761873263 O
atom 3.5023900396041978 0.2056264114418839 21.1510553013661600 O
atom 13.2944482646126101 10.1059560800102162 20.0912583450178559 V
atom 3.7615062220384661 2.8591901746001249 19.0310430091558622 V
atom 0.8061419569525550 0.6126880326800376 21.3627050840658725 O
atom 5.2739568916196173 4.0086995235467429 18.8200123332934943 O
atom 2.5779618133144271 4.4158031458708056 19.0312469495703631 O
atom 4.9449055586626116 1.3023447530563521 19.0310612909708361 O
atom 6.2691071443055577 4.7657456553591402 25.3924298209615316 V
atom 6.1991378010434524 4.7125678986241759 23.4822966369035520 O
atom 7.7819942852494988 5.9158713644308083 25.1816331972871730 O
atom 5.0857610711601637 6.3227272787764592 25.3922970682992961 O
atom 7.4529217223799265 3.2092553444792911 25.3921873202531501 O
atom 3.5723800197577993 2.7155739269895398 24.3320510680833983 V
atom 7.7119213984251793 5.8625077987705989 23.2718856003650316 V
atom 9.2244311472751974 7.0123706488446063 23.0612794711666744 O
atom 6.5285559172075063 7.4192632223749477 23.2721719881457680 O
atom 8.8950194363643238 4.3056722372614793 23.2722947271711895 O
atom 5.0156558730160556 7.9123259807526916 24.3322910732500155 V
atom 6.2691338760952426 0.6659411476599012 23.2717282925520941 V
atom 7.7818035650223321 1.8158800740634868 23.0611694506757559 O
atom 5.0858248716581889 2.2237902889642243 23.2708730199796214 O
atom 10.3393348115523942 9.5021484739258106 23.2710715005874427 O
atom 6.4584161433746479 9.0091704605256027 22.2117205966251063 V
atom 7.7120787588056103 9.9621524474443994 25.3926217329677115 V
atom 7.6421514745923051 9.9092305004178503 23.4827037879203502 O
atom 6.3388088755936458 0.7190541380033070 25.1817083720634578 O
atom 3.6417232214373771 1.1259680260572087 25.3934131504493372 O
atom 8.8953613752435388 8.4045955592998158 25.3932188559883407 O
atom 8.9657057971326068 2.7158114198255738 24.3322157803959733 V
atom 2.3190759268996253 5.8625518325634696 23.2718802936420452 V
atom 3.8321162345980437 7.0125609766326491 23.0610168736143599 O
atom 11.9220119725623093 7.4203156245528996 23.2711592620147769 O
atom 3.5035828927881121 4.3053832692323413 23.2709061093182363 O
atom 11.6623813047602045 4.7656052636097428 25.3927702102462796 V
atom 11.5925069094753379 4.7122935206293883 23.4832724480389210 O
atom 2.3886246163060592 5.9152314658125400 25.1821628292805677 O
atom 10.4781078812573867 6.3226293251064813 25.3933558208699317 O
atom 2.0593723207250805 3.2076538702972348 25.3934903788535173 O
atom 13.1056690421107813 9.9622524013536573 25.3922932039785643 V
atom 13.0355533586151964 9.9089831839341667 23.4822453912638558 O
atom 0.9464599722377849 0.7191634882001601 25.1818525299959113 O
atom 9.0364750352373022 1.1261581760523878 25.3921388718192524 O
atom 3.5027267215973152 8.4052303079326851 25.3921779969980825 O
atom 10.4087985120256210 7.9124214620255167 24.3323810406497820 V
atom 0.8758564694514872 0.6656555566154266 23.2721657047877848 V
atom 2.3883071390326283 1.8151649055620429 23.0611350289254169 O
atom 10.4786694483671088 2.2222685278861061 23.2723696452022892 O
atom 4.9452422406557330 9.5019486495471526 23.2721839866027587 O
