#===============================================================================
# Created using the Atomic Simulation Environment (ASE)

# Mon Mar 23 14:01:39 2026

#=======================================================
lattice_vector 12.3188787347632243 0.0000000000000000 0.0000000000000000 
lattice_vector -1.5101125036326633 6.2644276927716032 0.0000000000000000 
lattice_vector 0.0000000000000000 0.0000000000000000 30.9683787946868954 
atom 6.3366213018477273 2.8734019251518692 15.1227280460040951 V
atom 2.0317706444407118 4.6321190111250719 15.8456493258164492 V
atom -0.5778724460122096 6.0056535832052944 15.1227315106123363 V
atom 8.9462855752775852 1.4999408167214658 15.8456581480605898 V
atom 5.5507688255007848 4.5287083745499519 15.0000000000000000 O
atom 2.8176001928783769 2.9768410843872188 15.9683722683776494 O
atom 7.2783560039486366 0.9982422823399836 15.2780983981357856 O
atom 2.6001539860372844 0.2428470729774091 15.6902804340190762 O
atom 0.1463896901921331 1.3965266225933963 15.0000036964433825 O
atom 8.2220019835480507 6.1090632041210906 15.9683787946868954 O
atom 0.3638597369373678 4.1304988551091748 15.2781014498935512 O
atom 8.0045356135464729 3.3750884026767349 15.6902820323280814 O
