#===============================================================================
# Created using the Atomic Simulation Environment (ASE)

# Mon Mar 23 14:01:41 2026

#=======================================================
lattice_vector 9.2181867428585846 0.0000000000000000 0.0000000000000000 
lattice_vector 0.0015442526650186 10.7770658557386358 0.0000000000000000 
lattice_vector 0.0000000000000000 0.0000000000000000 57.7835452625078787 
atom 2.3096761935299561 10.2708833087967246 15.7196495380998122 V
atom 4.6027509659638532 2.1888428839325664 15.7174862135902096 V
atom 1.3831545418205775 3.3645982373088437 15.0038483988504403 O
atom 3.6903468806718629 9.0954802754007940 16.4329867404630257 O
atom 0.9218683148226966 0.6730892599443167 15.0022618247686221 O
atom 3.2287378580300201 1.0161633809466735 16.4362110028371369 O
atom 2.3068208119909581 4.8830838111598860 15.7201614877107350 V
atom 4.6042461826152321 7.5777910199597098 15.7177009739220459 V
atom 1.3831078819478901 8.7537045072084876 15.0041154565770469 O
atom 3.6889748016158359 3.7066455846274415 16.4329928840931352 O
atom 0.9211282917709965 6.0601775365388741 15.0023327542157485 O
atom 3.2291485460527438 6.4040995292914795 16.4356706706611178 O
atom 6.9182041726901859 10.2704085304358887 15.7197470347542065 V
atom 9.2184413983702278 2.1881294143062902 15.7185133955722307 V
atom 5.9967699099394896 3.3669393368030711 15.0017088579155100 O
atom 8.2981698856339712 9.0969817140895781 16.4362081711565580 O
atom 5.5312473721307569 0.6708654083230134 15.0000000000000000 O
atom 7.8329823830813501 1.0129466099302815 16.4379849749191855 O
atom 6.9157312335833350 4.8823998627258192 15.7203374884921523 V
atom 0.0012649957755746 7.5770407437780047 15.7186134406039795 V
atom 5.9963120272699291 8.7563847491787001 15.0016588442547061 O
atom 8.2975512780620768 3.7082228757863454 16.4361633823355398 O
atom 5.5301737157536035 6.0580850366100902 15.0006384281833540 O
atom 7.8342519948433189 6.4002238292011358 16.4382901830758890 O
atom 2.3019425569164969 0.9555390580387384 18.1155812791226367 V
atom 0.0016573253716458 9.0377311113235486 18.1163070689616958 V
atom 2.3054268179170170 7.8013791303960840 20.5064849411979822 V
atom 4.6013370836436263 10.4958109682128349 20.5083563188182936 V
atom 1.3802118290426579 0.8952432313774074 19.7930083682792031 O
atom 3.6893461328219872 6.6248975743957192 21.2228088030019428 O
atom 3.2223116953007622 7.8593262608770367 18.8328364272493687 O
atom 0.9208676162284911 2.1297685534659374 17.3982654398007028 O
atom 3.6878191281357005 10.5552235945762209 18.8338783931145137 O
atom 1.3865737579697854 10.2127968921742021 17.3966860592977923 O
atom 0.9216633408945251 8.9785102138791224 19.7917043135527457 O
atom 3.2286601185448638 9.3230726180430903 21.2260318821567822 O
atom 2.3029872364048218 6.3436453506422232 18.1151435403756587 V
atom 9.2176881260711347 3.6485443034478422 18.1159396823534351 V
atom 2.3039477081551962 2.4123335885785933 20.5076769172158286 V
atom 4.6001472620081660 5.1077382185566984 20.5090329342564885 V
atom 1.3831360359178213 6.2838148169467063 19.7945810659896821 O
atom 3.6878340296864391 1.2362385732695704 21.2237695483217195 O
atom 3.2226636616843538 2.4699084414258796 18.8330266880559023 O
atom 0.9213007264805181 7.5177972848455044 17.3986006761528422 O
atom 3.6879984237650207 5.1678571891805891 18.8348340533825152 O
atom 1.3847257768308940 4.8255070063027965 17.3963507365106054 O
atom 0.9198970367186238 3.5889230672573826 19.7920829462398657 O
atom 3.2276162993190782 3.9339384467023528 21.2252503067584897 O
atom 6.9109984697311804 0.9549183454443757 18.1153861732845911 V
atom 4.6171810359060323 9.0373494454238124 18.1171430267230882 V
atom 6.9150274895849035 7.8006744635577157 20.5060190663185615 V
atom 9.2172644289112178 10.4957930230181002 20.5086491725113902 V
atom 5.9950481405980414 0.8972251943450817 19.7915991430201501 O
atom 8.2967225429484852 6.6253383089358842 21.2263527375119025 O
atom 7.8366536437319017 7.8608270447452551 18.8311478231410199 O
atom 5.5291493916662855 2.1309484265353573 17.4014123954737272 O
atom 8.2974372097053326 10.5538075361965920 18.8316506006494393 O
atom 5.9907515791369805 10.2097281208843071 17.3984559639976482 O
atom 5.5326013274282708 8.9784039703746608 19.7887981468462719 O
atom 7.8331209915443649 9.3197320900518541 21.2279394416121043 O
atom 6.9117137082202023 6.3427703248995568 18.1154609160196998 V
atom 4.6148634981861303 3.6479956532170235 18.1165886138829748 V
atom 6.9126680054823186 2.4120452456832906 20.5073463655256703 V
atom 9.2175293024017648 5.1071375729071020 20.5096671133153059 V
atom 5.9968959512807665 6.2859789274815654 19.7931064071522727 O
atom 8.2950360697397034 1.2367342033270725 21.2275555832460441 O
atom 7.8360015413664046 2.4723057717343107 18.8311065679726255 O
atom 5.5292157353105633 7.5185703662735941 17.4022491867706002 O
atom 8.2975716485543369 5.1658929530295561 18.8330324534303912 O
atom 5.9900075268501558 4.8216983490506058 17.3989088058207848 O
atom 5.5303254382510616 3.5887509717075869 19.7897527338144421 O
atom 7.8330139879960443 3.9306931219226899 21.2275301125871501 O
atom 2.3034347877124270 9.2624747449424838 22.9066553455506963 V
atom 0.0017232752430598 6.5677108552886265 22.9052566155948263 V
atom 2.3081119155487664 5.3311361584945853 25.2989014090261151 V
atom 4.6027309406476826 8.0261615893690657 25.2967380845165053 V
atom 1.3831345165044067 9.2019169427453420 24.5831002697767360 O
atom 3.6887826026906740 4.1557331250986564 26.0122386113893285 O
atom 3.2223254989728041 5.3887998364028089 23.6219680597618122 O
atom 0.9218613095991989 10.4374197818066463 22.1874276979404002 O
atom 3.6869041729949457 8.0847213005703598 23.6247007426619646 O
atom 1.3858315727242740 7.7431752213433693 22.1862092396066899 O
atom 0.9218482895065261 6.5104079653808151 24.5815136956949196 O
atom 3.2287178327138495 6.8534820863831722 26.0154628737634361 O
atom 2.3033590422154377 3.8739121608688163 22.9067463292556397 V
atom 9.2176434707654291 1.1785295989538105 22.9049768195390726 V
atom 2.3068007866747871 10.7204025165963852 25.2994133586370324 V
atom 4.6026819046340428 2.6380438696575732 25.2969528448483416 V
atom 1.3815436039667008 3.8139573569063492 24.5833673275033462 O
atom 3.6889547762996657 9.5439642900639399 26.0122447550194345 O
atom 3.2208089088117400 0.0001881403003930 23.6214427015110644 O
atom 0.9212672244385895 5.0483173716425869 22.1873950186979734 O
atom 3.6866142173086924 2.6972444947801888 23.6250415206552837 O
atom 1.3847338302267571 2.3550405188238956 22.1867982545290161 O
atom 0.9195640137898071 1.1204303862367369 24.5815846251420496 O
atom 3.2275842680715541 1.4643523789893420 26.0149225415874135 O
atom 6.9127457433413797 9.2619512002395048 22.9065754877997207 V
atom 4.6178471641004437 6.5676407428549890 22.9057137830992659 V
atom 6.9166398947089958 5.3306613801337512 25.2989989056805058 V
atom 9.2184213730540563 8.0254481197427872 25.2977652664985300 V
atom 5.9967498846233198 9.2042580422395712 24.5809607288418093 O
atom 8.2966056076527828 4.1572345637874406 26.0154600420828572 O
atom 7.8365017267516333 5.3907364305931704 23.6203905521404138 O
atom 5.5297435015411267 10.4385870099990061 22.1909106834725378 O
atom 8.2970668673012025 8.0839406056518222 23.6225534721077004 O
atom 5.9904801846510098 7.7402017524661320 22.1881225737420635 O
atom 5.5312273468145863 6.5081841137595129 24.5792518709262993 O
atom 7.8329623577651795 6.8502653153667792 26.0172368458454812 O
atom 6.9126981731590229 3.8735994216060008 22.9061695221304404 V
atom 4.6157711762754916 1.1782226411244983 22.9056636042798338 V
atom 6.9157112082671643 10.7197185681623193 25.2995893594184480 V
atom 9.2178874606529710 2.6372935934758672 25.2978653115302770 V
atom 5.9947477492887398 3.8166375988765622 24.5809107151810018 O
atom 8.2975312527459035 9.5455415812228441 26.0154152532618355 O
atom 7.8344378543539417 0.0025752229354297 23.6200241494717744 O
atom 5.5295062374590698 5.0495597911575993 22.1900731840435554 O
atom 8.2967559898984113 2.6966465377826174 23.6224583969066764 O
atom 5.9894697858220134 2.3523578249032875 22.1889767490201493 O
atom 5.5286094377724142 1.1183378863079532 24.5798902991096497 O
atom 7.8326877168621296 1.4604766788989985 26.0175420540021847 O
atom 2.3019225316003262 6.7928577634752365 27.6948331500489360 V
atom 9.2182797902490403 4.0979839610214110 27.6955589398879951 V
atom 2.3038625399358272 2.8616319800939465 30.0857368121242779 V
atom 4.5997728056624361 5.5560638179106956 30.0876081897445928 V
atom 1.3801918037264878 6.7325619368139069 29.3722602392055023 O
atom 3.6877818548407979 1.6851504240935813 30.8020606739282456 O
atom 3.2207474173195725 2.9195791105748983 28.4120882981756644 O
atom 0.9208475909123203 7.9670872589024349 26.9775173107269950 O
atom 3.6862548501545120 5.6154764442740843 28.4131302640408130 O
atom 1.3850094799885961 5.2730497418720645 26.9759379302240880 O
atom 0.9200990629133358 4.0387630635769849 29.3709561844790414 O
atom 3.2270958405636740 4.3833254677409537 30.8052837530830779 O
atom 2.3014229584236325 1.4038982003400864 27.6943954113019615 V
atom 9.2176681007549650 9.4858630088843405 27.6951915532797344 V
atom 2.3039276828390252 8.2496522940150925 30.0869287881421279 V
atom 4.5985829840269767 0.1679910682545607 30.0882848051827914 V
atom 1.3815717579366322 1.3440676666445683 29.3738329369159814 O
atom 3.6878140043702690 7.0735572787060681 30.8030214192480223 O
atom 3.2226436363681823 8.3072271468623775 28.4122785589822016 O
atom 0.9197364484993289 2.5780501345433664 26.9778525470791379 O
atom 3.6864341457838319 0.2281100388784520 28.4140859243088144 O
atom 1.3847057515147234 10.6628257117392948 26.9756026074369046 O
atom 0.9198770114024531 9.4262417726938814 29.3713348171661650 O
atom 3.2275962740029076 9.7712571521388494 30.8045021776847889 O
atom 6.9109784444150080 6.7922370508808720 27.6946380442108904 V
atom 4.6156167579248430 4.0976022951216757 27.6963948976493839 V
atom 6.9134632116037151 2.8609273132555768 30.0852709372448608 V
atom 9.2157001509300294 5.5560458727159618 30.0879010434376895 V
atom 5.9950281152818707 6.7345438997815794 29.3708510139464529 O
atom 8.2951582649672968 1.6855911586337484 30.8056046084381947 O
atom 7.8350893657507124 2.9210798944431167 28.4103996940673191 O
atom 5.5291293663501140 7.9682671319718557 26.9806642664000265 O
atom 8.2958729317241424 5.6140603858944544 28.4109024715757350 O
atom 5.9891873011557903 5.2699809705821714 26.9777078349239474 O
atom 5.5310370494470815 4.0386568200725241 29.3680500177725676 O
atom 7.8315567135631756 4.3799849397497139 30.8071913125384036 O
atom 6.9101494302390121 1.4030231745974193 27.6947127869459955 V
atom 4.6148434728699579 9.4853143586535218 27.6958404848092741 V
atom 6.9126479801661471 8.2493639511197898 30.0865982364519660 V
atom 9.2159650244205746 0.1673904226049650 30.0889189842416016 V
atom 5.9953316732995772 1.3462317771794257 29.3723582780785719 O
atom 8.2950160444235337 7.0740529087635711 30.8068074541723433 O
atom 7.8359815160502340 8.3096244771708090 28.4103584388989283 O
atom 5.5276514573293740 2.5788232159714557 26.9815010576968959 O
atom 8.2960073705731450 0.2261458027274185 28.4122843243566905 O
atom 5.9899875015339852 10.6590170544871050 26.9781606767470805 O
atom 5.5303054129348901 9.4260696771440866 29.3690046047407414 O
atom 7.8329939626798719 9.7680118273591887 30.8067819835134458 O
atom 2.3018705097312377 4.3227275946403463 32.4859072164769955 V
atom 9.2183457401204549 1.6279637049864857 32.4845084865211220 V
atom 2.3065476375675771 0.3913890081924498 34.8781532799524143 V
atom 4.6011666626664933 3.0864144390669286 34.8759899554428046 V
atom 1.3815702385232176 4.2621697924432054 34.1623521407030353 O
atom 3.6887625773745025 9.9930518305351530 35.5914904823156206 O
atom 3.2207612209916143 0.4490526861006716 33.2012199306881115 O
atom 0.9202970316180095 5.4976726315045088 31.7666795688666994 O
atom 3.6853398950137572 3.1449741502682218 33.2039526135882639 O
atom 1.3842672947430850 2.8034280710412283 31.7654611105329856 O
atom 0.9202840115253366 1.5706608150786781 34.1607655666212224 O
atom 3.2271535547326611 1.9137349360810367 35.5947147446897390 O
atom 2.3033390168992671 9.7112308663053142 32.4859982001819390 V
atom 9.2176234454492612 7.0158483043903077 32.4842286904653719 V
atom 2.3052365086935982 5.7806553662942468 34.8786652295633317 V
atom 4.6026618793178722 8.4753625750940689 34.8762047157746409 V
atom 1.3815235786505304 9.6512760623428484 34.1626191984296383 O
atom 3.6873904983184760 4.6042171397618006 35.5914966259457302 O
atom 3.2207888834955694 5.8375068457368915 33.2006945724373637 O
atom 0.9197029464574001 0.1085702213404500 31.7666468896242762 O
atom 3.6865941919925227 8.5345632002166880 33.2042933915815865 O
atom 1.3847138049105863 8.1923592242603931 31.7660501254553189 O
atom 0.9195439884736366 6.9577490916732341 34.1608364960683417 O
atom 3.2275642427553835 7.3016710844258403 35.5941744125137163 O
atom 6.9111814653601913 4.3222040499373682 32.4858273587260271 V
atom 4.6162828861192535 1.6278935925528530 32.4849656540255651 V
atom 6.9150756167278065 0.3909142298316131 34.8782507766068051 V
atom 9.2168570950728679 3.0857009694406496 34.8770171374248292 V
atom 5.9951856066421305 4.2645108919374310 34.1602125997681014 O
atom 8.2965855823366130 9.9945532692239389 35.5947119130091494 O
atom 7.8349374487704440 0.4509892802910309 33.1996424230667202 O
atom 5.5281792235599374 5.4988398596968686 31.7701625543988406 O
atom 8.2955025893200141 3.1441934553496846 33.2018053430339961 O
atom 5.9889159066698188 2.8004546021639944 31.7673744446683628 O
atom 5.5296630688333961 1.5684369634573743 34.1585037418525985 O
atom 7.8313980797839911 1.9105181650646410 35.5964887167717876 O
atom 6.9126781478428523 9.7109181270424987 32.4854213930567397 V
atom 4.6157511509593210 7.0155413465609948 32.4849154752061295 V
atom 6.9141469302859742 5.7799714178601809 34.8788412303447473 V
atom 9.2178674353367995 8.4746122989123656 34.8771171824565798 V
atom 5.9947277239725691 9.6539563043130627 34.1601625861073046 O
atom 8.2959669747647169 4.6057944309207048 35.5946671241881347 O
atom 7.8344178290377711 5.8398939283719260 33.1992760203980737 O
atom 5.5279419594778805 0.1098126408554629 31.7693250549698547 O
atom 8.2967359645822398 8.5339652432191144 33.2017102678329792 O
atom 5.9894497605058437 8.1896765303397849 31.7682286199464521 O
atom 5.5285894124562436 6.9556565917444502 34.1591421700359490 O
atom 7.8326676915459590 7.2977953843354957 35.5967939249284839 O
atom 2.3003582536191374 1.8531106131730981 37.2740850209752352 V
atom 9.2182597649328706 9.9353026664579094 37.2748108108142873 V
atom 2.3038425146196566 8.6989506855304448 39.6649886830505807 V
atom 4.5982085276812468 0.6163166676085590 39.6668600606708850 V
atom 1.3786275257452982 1.7928147865117696 38.9515121101317945 O
atom 3.6877618295246277 7.5224691295300792 40.3813125448545378 O
atom 3.2207273920034019 8.7568978160113957 37.9913401691019672 O
atom 0.9192833129311312 3.0273401086002982 36.5567691816532943 O
atom 3.6846905721733223 0.6757292939719459 37.9923821349671158 O
atom 1.3834452020074068 0.3333025915699255 36.5551898011503908 O
atom 0.9200790375971651 9.8760817690134832 38.9502080554053407 O
atom 3.2270758152475039 10.2206441731774529 40.3845356240093736 O
atom 2.3014029331074628 7.2412169057765849 37.2736472822282536 V
atom 9.2161038227737766 4.5461158585822039 37.2744434242060265 V
atom 2.3023634048578363 3.3099051437129536 39.6661806590684307 V
atom 4.5985629587108070 6.0053097736910592 39.6675366761090871 V
atom 1.3815517326204616 7.1813863720810689 38.9530848078422807 O
atom 3.6862497263890797 2.1338101284039328 40.3822732901743180 O
atom 3.2210793583869939 3.3674799965602387 37.9915304299084937 O
atom 0.9197164231831580 8.4153688399798643 36.5571044180054372 O
atom 3.6864141204676608 6.0654287443149499 37.9933377952351137 O
atom 1.3831414735335339 5.7230785614371555 36.5548544783631968 O
atom 0.9183127334212638 4.4864946223917439 38.9505866880924572 O
atom 3.2260319960217183 4.8315100018367119 40.3837540486110811 O
atom 6.9094141664338187 1.8524899005787354 37.2738899151371896 V
atom 4.6155967326086715 9.9349210005581732 37.2756467685756832 V
atom 6.9134431862875445 8.6982460186920747 39.6645228081711565 V
atom 9.2141358729488410 0.6162987224138246 39.6671529143639887 V
atom 5.9934638373006823 1.7947967494794415 38.9501028848727486 O
atom 8.2951382396511253 7.5229098640702450 40.3848564793644940 O
atom 7.8350693404345426 8.7583985998796141 37.9896515649936148 O
atom 5.5275650883689256 3.0285199816697186 36.5599161373263257 O
atom 8.2943086537429540 0.6743132355923186 37.9901543425020378 O
atom 5.9876230231746010 0.3302338202800348 36.5569597058502467 O
atom 5.5310170241309109 9.8759755255090234 38.9473018886988669 O
atom 7.8315366882470059 10.2173036451862131 40.3864431834646993 O
atom 6.9101294049228406 7.2403418800339177 37.2739646578722983 V
atom 4.6132791948887695 4.5455672083513834 37.2750923557355804 V
atom 6.9110837021849578 3.3096168008176505 39.6658501073782688 V
atom 9.2159449991044031 6.0047091280414637 39.6681708551679009 V
atom 5.9953116479834074 7.1835504826159235 38.9516101490048783 O
atom 8.2934517664423453 2.1343057584614336 40.3860593250986426 O
atom 7.8344172380690447 3.3698773268686697 37.9896103098252240 O
atom 5.5276314320132034 8.4161419214079540 36.5607529286232023 O
atom 8.2959873452569752 6.0634645081639178 37.9915361952829898 O
atom 5.9884232235527959 5.7192699041849675 36.5574125476733798 O
atom 5.5287411349537008 4.4863225268419473 38.9482564756670442 O
atom 7.8314296846986826 4.8282646770570512 40.3860338544397450 O
atom 2.3018504844150671 10.1600463000768446 42.0651590874032948 V
atom 9.2183257148042834 7.4652824104229856 42.0637603574474213 V
atom 3.2207411956754437 6.2863713915371697 42.7804718016144108 O
atom 0.9187327536368204 0.5579254812023693 41.3459314397929916 O
atom 3.6853198696975866 8.9822928557047188 42.7832044845145703 O
atom 1.3842472694269143 8.6407467764777284 41.3447129814592884 O
atom 2.3017747389180783 4.7714837160031767 42.0652500711082382 V
atom 9.2160591674680710 2.0761011540881711 42.0634805613916711 V
atom 3.2192246055143796 0.8977596954347534 42.7799464433636700 O
atom 0.9196829211412295 5.9458889267769477 41.3458987605505683 O
atom 3.6850299140113330 3.5948160499145483 42.7835452625078787 O
atom 1.3831495269293972 3.2526120739582556 41.3453019963816217 O
atom 6.9111614400440216 10.1595227553738656 42.0650792296523264 V
atom 4.6162628608030838 7.4652122979893516 42.0642175249518644 V
atom 7.8349174234542742 6.2883079857275295 42.7788942939930124 O
atom 5.5266149455787490 0.5590927093947303 41.3494144253251363 O
atom 8.2954825640038425 8.9815121607861794 42.7810572139602954 O
atom 5.9888958813536499 8.6377733076004919 41.3466263155946550 O
atom 6.9111138698616630 4.7711709767403612 42.0646732639830390 V
atom 4.6141868729781326 2.0757941962588582 42.0641673461324288 V
atom 7.8328535510565827 0.9001467780697875 42.7785278913243801 O
atom 5.5279219341617116 5.9471313462919611 41.3485769258961540 O
atom 8.2951716866010514 3.5942180929169765 42.7809621387592784 O
atom 5.9878854825246535 3.2499293800376470 41.3474804908727407 O
