#===============================================================================
# Created using the Atomic Simulation Environment (ASE)

# Mon Mar 23 14:01:39 2026

#=======================================================
lattice_vector 12.3188787347632243 0.0000000000000000 0.0000000000000000 
lattice_vector -1.5101125036326633 6.2644276927716032 0.0000000000000000 
lattice_vector 0.0000000000000000 0.0000000000000000 37.3425421181266444 
atom 6.0438539833035652 2.1350198022399285 15.4848641074108642 V
atom 4.2731288286542988 5.1724254763511377 15.1553688917973695 V
atom -0.8706522612860853 5.2672384671383767 15.4848610732368677 V
atom 11.1876437594911771 2.0402472819475324 15.1553777140415171 V
atom 5.0589583770919484 3.5171475496132802 15.2780918343585768 O
atom 7.3047063706906474 0.1961625038547638 15.7366099451825150 O
atom 4.8415121702508621 0.7831535382034701 15.0000000000000000 O
atom 7.7140805083928159 3.0450633548972150 16.0843835683979783 O
atom 11.9734726713942958 0.3849419765755514 15.2780983606678191 O
atom 0.3902512867060862 3.3284376245137341 15.7366274712587710 O
atom 10.2458937977600542 3.9153948679027990 15.0000015983090087 O
atom 0.7995779890352840 6.1773176987685270 16.0843844554662816 O
atom 5.6865933457962159 6.1809915808507814 17.6351823610295178 V
atom 4.9231748911967754 1.8648665696268909 19.0170859861402732 V
atom 7.4573003939545135 3.1435551577649008 17.9646694907144315 V
atom 3.1524497365475144 4.9022722437381017 18.6875907705267821 V
atom 0.2821831736688334 3.0487877706820070 17.6351745232734594 V
atom 10.3275473813703424 4.9970852345253460 19.0170829519662767 V
atom 2.0529191497272490 0.0113791230467284 17.9646729553226692 V
atom 10.0669646673843864 1.7700940493345005 18.6875995927709262 V
atom 6.6714479176075718 4.7988616071629782 17.8419414447103364 O
atom 3.9382792849851684 3.2469943170002482 18.8103137130879894 O
atom 5.9358376817659435 1.8553984279112135 17.3834297759804173 O
atom 4.6739147749512009 6.1904369640133350 19.2688318239119276 O
atom 8.3990350960554387 1.2683955149530184 18.1200398428461185 O
atom 3.7208330781440657 0.5130003055904382 18.5322218787294126 O
atom 4.0163417702952788 5.2709599928731334 17.0356558778336797 O
atom 6.5934014162860262 2.7749101222841834 19.6166054471273874 O
atom 1.2670687822989251 1.6666798552064255 17.8419451411537153 O
atom 10.8527935792875052 0.1147887439625195 18.8103202393972317 O
atom -0.9786565321560210 4.9876456903445234 17.3834327565329012 O
atom -0.7304278054006988 3.0582843919006995 19.2688493499881837 O
atom 1.4845388290441588 4.4006520877222064 18.1200428946038876 O
atom 9.1252147056532600 3.6452416352897643 18.5322234770384178 O
atom 10.9308516123650730 2.1387758785015176 17.0356626327780560 O
atom -0.3211011030715125 5.9071644661554945 19.6166063341956942 O
atom 4.5659142536894191 5.9108383482377471 21.1674042397589268 V
atom 6.3366213018477273 2.8734019251518692 21.4968913694438406 V
atom 2.0317706444407118 4.6321190111250719 22.2198126492561947 V
atom 11.4803828163252604 2.7786345380689750 21.1673964020028684 V
atom -0.5778724460122096 6.0056535832052944 21.4968948340520818 V
atom 8.9462855752775852 1.4999408167214658 22.2198214715003353 V
atom 5.5507688255007848 4.5287083745499519 21.3741633234397455 O
atom 2.8176001928783769 2.9768410843872188 22.3425355918173949 O
atom 4.8151585896591476 1.5852451952981788 20.9156516547098263 O
atom 7.2783560039486366 0.9982422823399836 21.6522617215755311 O
atom 2.6001539860372844 0.2428470729774091 22.0644437574588217 O
atom 2.8956626781884776 5.0008067602601018 20.5678777565630888 O
atom 0.1463896901921331 1.3965266225933963 21.3741670198831279 O
atom 8.2220019835480507 6.1090632041210906 22.3425421181266408 O
atom 10.2195431105003998 4.7174924577314918 20.9156546352623103 O
atom 0.3638597369373678 4.1304988551091748 21.6522647733332967 O
atom 8.0045356135464729 3.3750884026767349 22.0644453557678268 O
atom 9.8101725202582966 1.8686226458884883 20.5678845115074687 O
