#===============================================================================
# Created using the Atomic Simulation Environment (ASE)

# Mon Mar 23 14:01:42 2026

#=======================================================
lattice_vector 10.7770659663771120 0.0000000000000000 0.0000000000000000 
lattice_vector -4.9397473237365723 9.5792519092132657 0.0000000000000000 
lattice_vector 0.0000000000000000 0.0000000000000000 45.6755908607403995 
atom 3.4269438741326685 1.1981054345064222 15.9226224266588510 V
atom -0.5043453476186200 3.5905284442932222 15.9272937959630987 V
atom 3.3691194630934285 2.8725725651571437 15.0067845507515010 O
atom -1.6775744157500962 4.3068661833030086 17.3074916874111757 O
atom -0.4441384901865622 1.9118378555442859 16.8469969262584236 O
atom 2.2491316518965050 1.9139596319579637 17.3071763426758629 O
atom 1.9050622899608298 0.4797349614239738 15.0005106983824597 O
atom 1.0153898724449317 4.3086844748145907 16.8434627169016231 O
atom 8.8156581103772957 1.1976994040602171 15.9233469205452458 V
atom 4.8847116520132561 3.5911190501012031 15.9255929608825220 V
atom 8.7585647545301555 2.8725226614804491 15.0055544065448778 O
atom 3.7107326790046664 4.3068213807535249 17.3076452345359861 O
atom 4.9447660281146382 1.9114715683738586 16.8457050941884283 O
atom 7.6389035611651135 1.9138645155340088 17.3076374055815130 O
atom 7.2942842393065694 0.4805891580108596 15.0002724035318842 O
atom 6.4026672183329199 4.3089896384749817 16.8439604095432180 O
atom 3.6511859542754181 5.9865154060168360 18.2279408056602712 V
atom 0.9572294968909889 5.9861680981501992 15.9216371041148541 V
atom -2.9740798443311975 8.3768007091068188 15.9248989320276557 V
atom -0.2786314235378381 8.3792250122152474 18.2267498884107972 V
atom 0.8994050992763526 7.6624629534163988 15.0058449212037139 O
atom -4.1492180029203007 9.0970108282513884 17.3068267836954099 O
atom -2.9137952033609751 6.7018470729625950 16.8463667074190120 O
atom -0.2207487135846101 6.7023086873922697 17.3067644328795289 O
atom -0.5651586518216896 5.2693202874095233 15.0000000000000000 O
atom -1.4548906792276330 9.0986390163906066 16.8428392993630105 O
atom 6.3450815235209044 5.9862428459624946 15.9215803205282889 V
atom 2.4143566213997341 8.3781281502293243 15.9233117067483825 V
atom 5.1097791860026680 8.3802428602978001 18.2277869967870565 V
atom 6.2881590418653053 7.6639701213709142 15.0069207086602141 O
atom 1.2392436715121471 9.0982137557294234 17.3059125545749062 O
atom 2.4747494518841475 6.7018058070634554 16.8464867260257556 O
atom 5.1684027442021883 6.7036904591217565 17.3076710329933228 O
atom 4.8238774914200668 5.2697731267272614 15.0000280424352646 O
atom 3.9331363590121420 9.0982296278937369 16.8435044580513953 O
atom 3.4281278275852509 1.1977732234958420 20.5314980802730780 V
atom 0.7330341518835225 1.1965802496468181 18.2301726100129891 V
atom -0.5032100483144832 3.5900188088732712 20.5369524171657964 V
atom 2.1921441523181335 3.5876503623970586 22.8311850442052666 V
atom 3.3674381555961985 2.8743004221330093 19.6113563865652942 O
atom -1.6784152324590873 4.3032325508009999 21.9178552866717347 O
atom -0.4454153727500176 1.9130037293591937 21.4510077942083903 O
atom 4.6028748858412953 0.4786691170551264 19.1496919587844268 O
atom 2.2505726335158265 1.9156949098976654 21.9152004056202436 O
atom 1.9086968356327250 0.4774091417171919 19.6140481663745909 O
atom 0.6758631078649164 2.8727550560948569 19.1504556923335976 O
atom 1.0192677781553503 4.3064979810352373 21.4574042493605113 O
atom 8.8166312543546184 1.1978641449382639 20.5321944734827646 V
atom 6.1209185924767011 1.1963005871965524 18.2286782569140904 V
atom 4.8860560665880559 3.5905309447505012 20.5348691026675532 V
atom 7.5810924472723311 3.5878650580835485 22.8319080942195960 V
atom 8.7565443634847995 2.8745675530716461 19.6105375420942387 O
atom 3.7098159018609227 4.3032387480675842 21.9172553777458567 O
atom 4.9430387355315517 1.9124784376703006 21.4502632947061578 O
atom 9.9908384122525931 0.4786364218872935 19.1498700786334872 O
atom 7.6401618078632287 1.9160356447934068 21.9156824553953804 O
atom 7.2976279975092906 0.4779981857548452 19.6137225458147064 O
atom 6.0629512231166913 2.8728261207209207 19.1489437563175890 O
atom 6.4072039300347940 4.3059576811690823 21.4570428482589683 O
atom 3.4282647539981821 1.1972812580631549 25.1408090380387357 V
atom 0.7336254867906973 1.1966247003448351 22.8462964839514662 V
atom -0.5030244677531058 3.5897042678499544 25.1454804073429834 V
atom 2.1907711880635055 3.5890890427597291 18.2286889934697562 V
atom 3.3704403429589411 2.8717483887138759 24.2249711621313786 O
atom -1.6762535358845827 4.3060420068597418 26.5256782987910604 O
atom -0.4428176103210487 1.9110136791010190 26.0651835376383012 O
atom 4.6047023804037464 0.4817401226553814 23.7575742291569689 O
atom 2.2504525317620176 1.9131354555146964 26.5253629540557476 O
atom 1.9063831698263434 0.4789107849807066 24.2186973097623373 O
atom 0.6742997371353119 2.8700811175426488 23.7598348003308963 O
atom 1.0167107523104455 4.3078602983713230 26.0616493282815078 O
atom 8.8169789902428093 1.1968752276169501 25.1415335319251305 V
atom 6.1212731092960233 1.1965746380894573 22.8449927448283852 V
atom 4.8860325318787687 3.5902948736579354 25.1437795722624138 V
atom 7.5796826069844041 3.5891890664977764 18.2289271621211704 V
atom 8.7598856343956708 2.8716984850371823 24.2237410179247625 O
atom 3.7120535588701777 4.3059972043102563 26.5258318459158779 O
atom 4.9460869079801508 1.9106473919305913 26.0638917055683201 O
atom 9.9927411492660436 0.4809025754026320 23.7581090873482061 O
atom 7.6402244410306261 1.9130403390907418 26.5258240169613977 O
atom 7.2956051191720830 0.4797649815675920 24.2184590149117689 O
atom 6.0615191562717277 2.8707197107337259 23.7579892629114688 O
atom 6.4039880981984352 4.3081654620317140 26.0621470209231028 O
atom 0.9585106547792027 5.9859511124246980 20.5307677969205251 V
atom -1.7366929506256077 5.9868826689082795 18.2293245606194141 V
atom -2.9727148102586831 8.3768545411282993 20.5334848781668562 V
atom -0.2779540176550059 8.3785206813114765 22.8290091916051772 V
atom 0.8980827533522232 7.6634606038855919 19.6091956968417342 O
atom -4.1489980514987019 9.0930546520188358 21.9176367969619257 O
atom -2.9146362993529800 6.7031240580862832 21.4502118022043824 O
atom 2.1325422430413772 5.2687587696824743 19.1494604863106623 O
atom -0.2186722904728113 6.7041244385580532 21.9153330247104101 O
atom -0.5614287362782082 5.2671378550466113 19.6140082579127117 O
atom -1.7957820192125473 7.6621976504655374 19.1494888421577834 O
atom -1.4508890475442755 9.0963189545832606 21.4565644541998743 O
atom 6.3466170417606262 5.9855133493056663 20.5310403720680945 V
atom 3.6525068341409308 5.9856912295735683 27.4461274170401559 V
atom 2.4153054576828583 8.3780465803445434 20.5327780747721924 V
atom 5.1110390838901827 8.3791973340980235 22.8285914908635554 V
atom 6.2866547026133617 7.6650331091778137 19.6113479124256251 O
atom 1.2394087524025692 9.0940154634927470 21.9168969241325406 O
atom 2.4730119533347854 6.7033142183782282 21.4513360387118972 O
atom 7.5205709811675279 5.2690940363374477 19.1491215724543515 O
atom 5.1710273515073171 6.7050800137727720 21.9162843649502683 O
atom 4.8283471347355791 5.2668026284663396 19.6129321950249640 O
atom 3.5916966027780317 7.6625763720247457 19.1484948492409082 O
atom 3.9370426532479863 9.0955374034718091 21.4562927775842063 O
atom 0.9585503767565020 5.9853439217069333 25.1398237154947388 V
atom -1.7364132551812723 5.9873059635182804 22.8448483347528999 V
atom -2.9727589644656840 8.3759765326635520 25.1430855434075404 V
atom -0.2773105436723249 8.3784008357719806 27.4449364997906891 V
atom 0.9007259791418657 7.6616387769731329 24.2240315325835986 O
atom -4.1478971230547863 9.0961866518081198 26.5250133950753018 O
atom -2.9124743234954620 6.7010228965193273 26.0645533187989038 O
atom 2.1343824397373310 5.2714937096992980 23.7577423083178410 O
atom -0.2194278337190965 6.7014845109490038 26.5249510442594136 O
atom -0.5638377719561763 5.2684961109662565 24.2181866113798883 O
atom -1.7952275584670838 7.6588792306249776 23.7604265183160202 O
atom -1.4535697993621191 9.0978148399473362 26.0610259107428952 O
atom 6.3464024033864188 5.9854186695192277 25.1397669319081665 V
atom 3.6512986422352554 5.9867516888414718 22.8433029914409751 V
atom 2.4156775012652467 8.3773039737860575 25.1414983181282672 V
atom 5.1111000658681816 8.3794186838545333 27.4459736081669412 V
atom 6.2894799217308197 7.6631459449276473 24.2251073200400917 O
atom 1.2405645513776593 9.0973895792861565 26.5240991659547909 O
atom 2.4760703317496611 6.7009816306201868 26.0646733374056332 O
atom 7.5220043336721112 5.2723305640835285 23.7570367309912918 O
atom 5.1697236240677000 6.7028662826784906 26.5258576443732146 O
atom 4.8251983712855795 5.2689489502839928 24.2182146538151422 O
atom 3.5921851384600756 7.6598339520228915 23.7589230013358055 O
atom 3.9344572388776551 9.0974054514504701 26.0616910694312871 O
atom 3.4294487074507645 1.1969490470525748 29.7496846916529627 V
atom 0.7343550317490356 1.1957560732035508 27.4483592213928738 V
atom -0.5018891684489701 3.5891946324300035 29.7551390285456812 V
atom 3.3687590354617121 2.8734762456897416 28.8295429979451718 O
atom -0.4440944928845040 1.9121795529159265 30.6691944055882750 O
atom 4.6041957657068089 0.4778449406118592 28.3678785701643115 O
atom 1.9100177154982385 0.4765849652739246 28.8322347777544756 O
atom 0.6771839877304299 2.8719308796515897 28.3686423037134823 O
atom 1.0205886580208643 4.3056738045919696 30.6755908607404031 O
atom 8.8179521342201301 1.1970399684949955 29.7503810848626493 V
atom 6.1222394723422147 1.1954764107532851 27.4468648682939680 V
atom 4.8873769464535712 3.5897067683072343 29.7530557140474308 V
atom 8.7578652433503112 2.8737433766283784 28.8287241534741163 O
atom 4.9443596153970670 1.9116542612270335 30.6684499060860425 O
atom 9.9921592921181048 0.4778122454440261 28.3680566900133790 O
atom 7.2989488773748041 0.4771740093115784 28.8319091571945840 O
atom 6.0642721029822049 2.8720019442776534 28.3671303676974738 O
atom 6.4085248099003085 4.3051335047258155 30.6752294596388602 O
atom 2.1920920679290194 3.5882648663164618 27.4468756048496410 V
atom 7.5810034868499150 3.5883648900545086 27.4471137735010551 V
atom 0.9598315346447169 5.9851269359814294 29.7489544083004098 V
atom -1.7353720707600944 5.9860584924650109 27.4475111719992917 V
atom -2.9713939303931705 8.3760303646850325 29.7516714895467409 V
atom 0.8994036332177369 7.6626364274423242 28.8273823082216261 O
atom -2.9133154194874664 6.7022998816430155 30.6683984135842671 O
atom 2.1338631229068912 5.2679345932392065 28.3676470976905470 O
atom -0.5601078564126943 5.2663136786033427 28.8321948692925893 O
atom -1.7944611393470336 7.6613734740222696 28.3676754535376610 O
atom -1.4495681676787624 9.0954947781399937 30.6747510655797520 O
atom 6.3479379216261398 5.9846891728623985 29.7492269834479792 V
atom 2.4166263375483723 8.3772224039012766 29.7509646861520700 V
atom 6.2879755824788734 7.6642089327345451 28.8295345238055098 O
atom 2.4743328332003003 6.7024900419349613 30.6695226500917819 O
atom 7.5218918610330405 5.2682698598941808 28.3673081838342362 O
atom 4.8296680146010926 5.2659784520230728 28.8311188064048487 O
atom 3.5930174826435470 7.6617521955814771 28.3666814606207858 O
atom 3.9383635331135003 9.0947132270285422 30.6744793889640910 O
