#===============================================================================
# Created using the Atomic Simulation Environment (ASE)

# Mon Mar 23 14:01:46 2026

#=======================================================
lattice_vector 10.7863573876396668 0.0000000000000000 0.0000000000000000 
lattice_vector 2.8859864345801114 10.3931385144755009 0.0000000000000000 
lattice_vector 0.0000000000000000 0.0000000000000000 40.6048627501377553 
atom 7.9011069752626648 6.0060953693036794 18.1818710791542735 V
atom 12.0404066494795323 9.1528148913285392 17.1215568009819172 V
atom 11.9704373062174181 9.0996371345935749 15.2114236169239376 O
atom 13.5532937904234725 10.3029406004002091 16.9107601773075586 O
atom 7.9710741417540110 0.3166580002703583 17.1214240483196818 O
atom 2.4378638399142232 7.5963245804486919 17.1213143002735322 O
atom 9.3436795249317637 7.1026431629589384 16.0611780481037805 V
atom 13.4832209035991557 10.2495770347399979 15.0010125803854137 V
atom 10.5275565346277169 8.0028263471029515 17.3325335390118980 O
atom 9.4138689878013615 1.4131939438688472 15.0012989681661537 O
atom 3.8799615538986285 8.6927414732308801 15.0014217071915681 O
atom 7.9009689436099180 1.9062567022465904 16.0614180532703976 V
atom 12.0404333812692101 5.0530103836293012 15.0008552725724797 V
atom 9.0846024378233050 2.8062170268119533 17.3321490322282230 O
atom 10.8571243768321484 6.6108595249336242 15.0000000000000000 O
atom 2.4382904945065826 3.4960791954197101 15.0001984806078283 O
atom 10.5973918293994647 3.9560831689382971 17.1217487129880936 V
atom 10.5274645451861595 3.9031612219117489 15.2118307679407359 O
atom 12.1101083807676222 5.1061233739727072 16.9108353520838399 O
atom 9.4130227266113433 5.5130372620266082 17.1225401304697158 O
atom 0.9943170581977332 2.3985262807937140 17.1223458360087228 O
atom 3.9506479146669093 7.1028806557949746 16.0613427604163554 V
atom 8.0903754320735910 10.2496210685328695 15.0010072736624345 V
atom 5.1349774436718052 8.0030193737748192 17.3320899861116153 O
atom 4.0209676555164933 1.4142463460467982 15.0002862420351590 O
atom 9.2748823979620774 8.6924525052017412 15.0000330893386220 O
atom 2.5078704029587491 6.0060356469400960 18.1818888801934051 V
atom 6.6473234222945026 9.1526744995791436 17.1218971902666617 V
atom 6.5774490270096395 9.0993627565987882 15.2123994280593102 O
atom 8.1599241214800280 10.3023007017819399 16.9112898093009498 O
atom 2.5770635642115711 0.3165600466003800 17.1224828008903174 O
atom 7.8306718258990484 7.5947231062666338 17.1226173588738995 O
atom 1.0648567091909305 0.8095173379302039 18.1818217000686566 V
atom 5.2046247250649680 3.9561831228475550 17.1214201839989464 V
atom 5.1345090415693848 3.9029139054280662 15.2113723712842379 O
atom 6.7177594774117484 5.1062327241695593 16.9109795100162899 O
atom 4.0214171527715994 5.5132274120217870 17.1212658518396346 O
atom 6.3880397921911776 2.3991610294265837 17.1213049770184682 O
atom 2.5077541949798108 1.9063521835194148 16.0615080206701641 V
atom 6.6471559746254503 5.0527247925848249 15.0012926848081705 V
atom 3.6917917095395389 2.8062226506647363 17.3329547597181808 O
atom 5.4636115659014113 6.6093377638555051 15.0014966252226714 O
atom 7.8305553112495980 3.4958793710410516 15.0013109666231443 O
atom 5.0154572226756775 3.8125607513189803 22.4229937747861996 V
atom 9.1547568968925468 6.9592802733438388 21.3626794966138434 V
atom 9.0847875536304326 6.9061025166088745 19.4525463125558673 O
atom 10.6676440378364834 8.1094059824155096 21.1518828729394883 O
atom 7.9714108237471430 8.5162618967611596 21.3625467439516079 O
atom 10.3385714749669066 5.4027899624639923 21.3624369959054583 O
atom 6.4580297723447844 4.9091085449742407 20.3023007437357137 V
atom 10.5975711510121684 8.0560424167552984 19.2421352760173434 V
atom 7.6419067820407331 5.8092917291182529 21.5736562346438276 O
atom 12.1100808998621812 9.2059052668293049 19.0315291468189862 O
atom 9.4142056697944909 9.6127978403596472 19.2424216637980834 O
atom 11.7806691889513075 6.4992068552461779 19.2425444028234978 O
atom 7.9013056256030394 10.1058605987373920 20.3025407489023237 V
atom 9.1547836286822282 2.8594757656446008 19.2419779682044094 V
atom 6.1989526852363230 0.6126824088272540 21.5732717278601527 O
atom 10.6674533176093203 4.0094146920481872 19.0314191263280676 O
atom 7.9714746242451691 4.4173249069489255 19.2411226956319297 O
atom 10.3389981295592648 1.3025445774350100 19.2413211762397580 O
atom 6.4580794613815256 0.8095665640348012 18.1819702722774181 V
atom 7.7117420768124783 1.7625485509535976 21.3628714086200233 V
atom 7.6418147925991828 1.7096266039270493 19.4529534635726620 O
atom 9.2244586281806349 2.9125887559880068 21.1519580477157660 O
atom 6.5273729740243569 3.3195026440419086 21.3636628261016455 O
atom 8.8950246932504164 0.2049916628090140 21.3634685316406490 O
atom 11.8513555497195817 4.9093460378102742 20.3024654560482851 V
atom 5.2047256794866090 8.0560864505481700 19.2421299692943641 V
atom 2.2493276910848219 5.8094847557901206 21.5732126817435415 O
atom 6.7177659871850324 9.2060955946173468 19.0312665492666753 O
atom 4.0213043375096182 9.6138502425376000 19.2414089376670887 O
atom 6.3892326453750909 6.4989178872170408 19.2411557849705481 O
atom 10.4085780380114361 3.8125010289553969 22.4230115758253277 V
atom 3.7616736697075179 6.9591398815944459 21.3630198858985842 V
atom 3.6917992744226553 6.9058281386140878 19.4535221236912363 O
atom 5.2742743688930434 8.1087660837972404 21.1524125049328759 O
atom 2.5774002462046983 8.5161639430911809 21.3636054965222399 O
atom 4.9450220733120700 5.4011884882819361 21.3637400545058327 O
atom 11.8515507788237198 9.0091212344210057 22.4229443957005827 V
atom 2.3189749724779816 1.7626485048628555 21.3625428796308725 V
atom 2.2488592889824024 1.7093792874433662 19.4524950669161676 O
atom 3.8321097248247642 2.9126981061848598 21.1521022056482195 O
atom 1.1357674001846292 3.3196927940370871 21.3623885474715642 O
atom 3.5023900396041978 0.2056264114418839 21.3624276726503979 O
atom 13.2944482646126101 10.1059560800102162 20.3026307163020938 V
atom 3.7615062220384661 2.8591901746001249 19.2424153804401001 V
atom 0.8061419569525550 0.6126880326800376 21.5740774553501105 O
atom 5.2739568916196173 4.0086995235467429 19.0313847045777322 O
atom 2.5779618133144271 4.4158031458708056 19.2426193208546010 O
atom 4.9449055586626116 1.3023447530563521 19.2424336622550740 O
atom 6.2691071443055577 4.7657456553591402 25.6038021922457695 V
atom 6.1991378010434524 4.7125678986241759 23.6936690081877899 O
atom 7.7819942852494988 5.9158713644308083 25.3930055685714109 O
atom 5.0857610711601637 6.3227272787764592 25.6036694395835340 O
atom 7.4529217223799265 3.2092553444792911 25.6035596915373880 O
atom 3.5723800197577993 2.7155739269895398 24.5434234393676363 V
atom 7.7119213984251793 5.8625077987705989 23.4832579716492695 V
atom 9.2244311472751974 7.0123706488446063 23.2726518424509123 O
atom 6.5285559172075063 7.4192632223749477 23.4835443594300060 O
atom 8.8950194363643238 4.3056722372614793 23.4836670984554274 O
atom 5.0156558730160556 7.9123259807526916 24.5436634445342534 V
atom 6.2691338760952426 0.6659411476599012 23.4831006638363320 V
atom 7.7818035650223321 1.8158800740634868 23.2725418219599938 O
atom 5.0858248716581889 2.2237902889642243 23.4822453912638593 O
atom 10.3393348115523942 9.5021484739258106 23.4824438718716806 O
atom 6.4584161433746479 9.0091704605256027 22.4230929679093443 V
atom 7.7120787588056103 9.9621524474443994 25.6039941042519494 V
atom 7.6421514745923051 9.9092305004178503 23.6940761592045881 O
atom 6.3388088755936458 0.7190541380033070 25.3930807433476957 O
atom 3.6417232214373771 1.1259680260572087 25.6047855217335751 O
atom 8.8953613752435388 8.4045955592998158 25.6045912272725786 O
atom 8.9657057971326068 2.7158114198255738 24.5435881516802112 V
atom 2.3190759268996253 5.8625518325634696 23.4832526649262832 V
atom 3.8321162345980437 7.0125609766326491 23.2723892448985978 O
atom 11.9220119725623093 7.4203156245528996 23.4825316332990148 O
atom 3.5035828927881121 4.3053832692323413 23.4822784806024742 O
atom 11.6623813047602045 4.7656052636097428 25.6041425815305175 V
atom 11.5925069094753379 4.7122935206293883 23.6946448193231589 O
atom 2.3886246163060592 5.9152314658125400 25.3935352005648056 O
atom 10.4781078812573867 6.3226293251064813 25.6047281921541696 O
atom 2.0593723207250805 3.2076538702972348 25.6048627501377553 O
atom 13.1056690421107813 9.9622524013536573 25.6036655752628022 V
atom 13.0355533586151964 9.9089831839341667 23.6936177625480937 O
atom 0.9464599722377849 0.7191634882001601 25.3932249012801492 O
atom 9.0364750352373022 1.1261581760523878 25.6035112431034904 O
atom 3.5027267215973152 8.4052303079326851 25.6035503682823204 O
atom 10.4087985120256210 7.9124214620255167 24.5437534119340199 V
atom 0.8758564694514872 0.6656555566154266 23.4835380760720227 V
atom 2.3883071390326283 1.8151649055620429 23.2725074002096548 O
atom 10.4786694483671088 2.2222685278861061 23.4837420164865271 O
atom 4.9452422406557330 9.5019486495471526 23.4835563578869966 O
