#===============================================================================
# Created using the Atomic Simulation Environment (ASE)

# Mon Mar 23 14:01:44 2026

#=======================================================
lattice_vector 10.7779019647855687 0.0000000000000000 0.0000000000000000 
lattice_vector 4.9380262626701636 13.2931389776887805 0.0000000000000000 
lattice_vector 0.0000000000000000 0.0000000000000000 45.9460317153962663 
atom 10.2726186512975666 5.3992380061164722 18.8219867960395071 V
atom 11.5067785108144101 5.5296272228962575 15.5024268316215057 V
atom 3.4227296690513112 7.1305650488295154 17.1632201261290902 V
atom 12.9631870283745076 6.9962664916177779 20.4766983544145766 V
atom 11.7905085028318499 4.2464009570618328 18.6544619993914012 O
atom 4.5952464356305134 8.6052073785404755 17.6605210742881766 O
atom 12.6836350003936911 8.2811964945545462 17.3244203865893382 O
atom 9.0950765783505787 3.9262078051898865 18.3218805895567840 O
atom 11.4503968353134926 6.8757718466766953 19.3213526689159991 O
atom 10.3287572367449005 5.9739071225347589 16.9955385597092317 O
atom 2.2448405323327179 5.6509040970857463 16.6629855650199161 O
atom 3.3617417984011397 6.5573094007076813 18.9924743876123863 O
atom 12.7423950911081345 8.8503698171548901 15.5013693388955147 V
atom 9.0371451081308987 2.0784386241737511 18.8219914369403938 V
atom 11.7310687192382375 3.6778217796212145 20.4834636092933877 V
atom 4.6549676194724725 10.4470910344121481 17.1564136289718796 V
atom 3.4822633227262227 7.6960378281564896 15.3331803304531320 O
atom 2.1257082038654649 5.1543226266362465 20.9810346592190164 O
atom 10.2135221946863659 4.8302441984660662 20.6447982994886701 O
atom 11.5649905975067284 7.3773667745644715 15.0005176694105273 O
atom 13.9198976841321489 10.3259772454310745 16.0013293561633496 O
atom 7.8594161933382614 2.5225718315343006 20.3168664629563800 O
atom 10.5537857891211200 2.2000974315611352 19.9821581703079154 O
atom 5.8312172117859147 10.0082793884838033 15.6705445409420889 O
atom 10.2734565475677027 2.2038410602225733 15.5006656795724922 V
atom 11.5065469963137730 8.7303055936294971 18.8287247564501214 V
atom 14.2002670184606821 10.3263543999557648 20.4836810368922997 V
atom 2.1871930024605697 3.8050491673890825 17.1602089150857218 V
atom 1.0103002625275472 1.0528339607977693 15.3373529983303243 O
atom 4.5967526891201960 11.7982108025735251 20.9826848785436937 O
atom 12.6806756598053756 11.4799109026393875 20.6499046938354738 O
atom 9.0983063703404774 0.7275609708459622 15.0017044581748920 O
atom 11.4495149772811633 3.6818127618955607 15.9998296087277261 O
atom 10.3311522802012625 9.1680073725044053 20.3122416212741612 O
atom 13.0210824639632037 8.8491827600143598 19.9822318942131751 O
atom 3.3654624528658137 3.3595123040504151 15.6664322698397314 O
atom 12.7413567799787621 12.0468404608862443 18.8223002325206323 V
atom 13.9765903654836947 12.1806449919423212 15.5060939345901829 V
atom 0.9543056289424827 0.4821653663580294 17.1618363731511536 V
atom 10.4953283379099531 0.3542789661515074 20.4817754374623604 V
atom 14.2560839218034747 10.8938921618765523 18.6581429930734686 O
atom 2.1284722198726502 1.9559977411194265 17.6615121581625836 O
atom 10.2118356471927765 1.6364191248321636 17.3279566129040603 O
atom 11.5661326579335721 10.5710039134156553 18.3226489188268218 O
atom 8.9791805285603115 0.2307105340426230 19.3220250545043051 O
atom 12.8012777939710727 12.6177788494210699 16.9916361581736979 O
atom 4.7140321908275968 12.2991932463471780 16.6591656627522084 O
atom 5.8346533430359244 13.2030397199521872 18.9872438451355521 O
atom 4.8822630934023623 5.3990455214972251 18.8211584772901297 V
atom 6.1183615896102479 5.5287219040260043 15.5021211385746476 V
atom 8.8090316650926983 7.1288456257986583 17.1600623246176625 V
atom 7.5754449169218896 6.9944904900830958 20.4753877703631915 V
atom 6.4009060182156743 4.2447245467158465 18.6530766075060512 O
atom 9.9846967726339297 8.6054452177860501 17.6599889158473573 O
atom 7.2948242481646437 8.2800632648959667 17.3244063007764524 O
atom 3.7067480853811388 3.9261880847739787 18.3215783034685344 O
atom 6.0600943216267993 6.8758562715440013 19.3214554784125703 O
atom 4.9400130407617295 5.9740068306130949 16.9953872045311236 O
atom 7.6344404477607712 5.6514285747835915 16.6611388603098618 O
atom 8.7509958911168244 6.5568439715327296 18.9917567736005495 O
atom 7.3517516175893807 8.8503122695284180 15.4998229210511695 V
atom 3.6486528659806394 2.0776424724843436 18.8217341764384294 V
atom 6.3406440380955829 3.6776301901686539 20.4807458187245786 V
atom 10.0455175181230132 10.4443427333682255 17.1544555709096898 V
atom 8.8719678641444055 7.6963327742852901 15.3340211885246696 O
atom 7.5159264757277500 5.1540356798781639 20.9808133281962341 O
atom 4.8257166675745671 4.8306866413456566 20.6458613522765404 O
atom 6.1769592560246736 7.3768252463857493 15.0000000000000000 O
atom 8.5300910023915772 10.3261133283845989 16.0020337862873347 O
atom 2.4694633696626238 2.5219154284547072 20.3164012791515276 O
atom 5.1655782032918154 2.2006294152455905 19.9810231071210396 O
atom 11.2202589237234491 10.0079586957426105 15.6698121543639211 O
atom 4.8830431299254586 2.2035720142489619 15.4995570731735661 V
atom 6.1186096175554958 8.7290585954906259 18.8279150237615731 V
atom 8.8082715400086951 10.3257120125261412 20.4809754209599362 V
atom 7.5763813864763963 3.8032344217730047 17.1592642083862366 V
atom 6.3994132601673943 1.0519930390851979 15.3368582191413196 O
atom 9.9869758717301185 11.7987118483972679 20.9812798049206179 O
atom 7.2919658838458137 11.4792083854774560 20.6497061440989178 O
atom 3.7096733652106555 0.7279211631509940 15.0015910678196462 O
atom 6.0594321767738055 3.6819530730004835 15.9991228650228479 O
atom 4.9423243535975567 9.1678890308246945 20.3116467100361184 O
atom 7.6312369601349239 8.8496446573028109 19.9826085952216417 O
atom 8.7548919653280350 3.3592320464476972 15.6658367509185474 O
atom 7.3517658409335933 12.0464230054448596 18.8202501107312159 V
atom 8.5881753910265441 12.1793557940721193 15.5049894892529494 V
atom 6.3411514086378871 0.4817558155005074 17.1590643426042178 V
atom 5.1076600387207813 0.3530358677108483 20.4813894097144811 V
atom 8.8689957188766613 10.8945788406566777 18.6593784144322008 O
atom 7.5197335206372644 1.9552473176716811 17.6598295839668609 O
atom 4.8235796787755048 1.6368187788091539 17.3286568067763156 O
atom 6.1791789009491254 10.5702179520844570 18.3219170275990493 O
atom 3.5906947324854106 0.2310694244532271 19.3217263083395423 O
atom 7.4121783055001815 12.6180967219752933 16.9909910631732828 O
atom 10.1022810387898989 12.2996641575638783 16.6600083866332866 O
atom 11.2231041709694246 13.2026314713921860 18.9870039428516151 O
atom 10.2712807465183733 11.7910570014880935 25.4642465746563502 V
atom 11.5054406060352203 11.9214462182678815 22.1446866102383524 V
atom 9.2612674663875261 0.2292450665123603 23.8054799047459333 V
atom 8.0238228609251507 0.0949465093006185 27.1189581330314233 V
atom 11.7891705980526602 10.6382199524334577 25.2967217780082443 O
atom 10.4337842329667279 1.7038873962233176 24.3027808529050198 O
atom 7.7442708329443342 1.3798765122373877 23.9666801652061814 O
atom 9.0937386735713872 10.3180268005615101 24.9641403681736200 O
atom 11.4490589305343029 13.2675908420483175 25.9636124475328423 O
atom 10.3274193319657108 12.3657261179063820 23.6377983383260712 O
atom 13.0214045923390955 12.0427230924573703 23.3052453436367557 O
atom 14.1383058584075165 12.9491283960793027 25.6347341662292294 O
atom 7.8030309236587794 1.9490498348377332 22.1436291175123579 V
atom 9.0358072033517054 8.4702576195453769 25.4642512155572405 V
atom 11.7297308144590477 10.0696407749928358 27.1257233879102344 V
atom 10.4935054168086861 3.5457710520949903 23.7986734075887227 V
atom 9.3208011200624359 0.7947178458393344 21.9754401090699716 O
atom 12.9022722638718417 11.5461416220078714 27.6232944378358596 O
atom 10.2121842899071762 11.2220631938376911 27.2870580781055097 O
atom 6.6256264300573724 0.4760467922473128 21.6427774480273705 O
atom 8.9805335166827920 3.4246572631139158 22.6435891347801928 O
atom 7.8580782885590663 8.9143908269059242 26.9591262415732267 O
atom 10.5524478843419303 8.5919164269327606 26.6244179489247585 O
atom 11.6697550091221274 3.1069594061666441 22.3128043195589356 O
atom 10.2721186427885129 8.5956600555941964 22.1429254581893389 V
atom 6.5671828288644205 1.8289856113123395 25.4709845350669646 V
atom 9.2609028510113252 3.4250344176386078 27.1259408155091464 V
atom 12.9637570624669483 10.1968681627607065 23.8024686937025649 V
atom 11.7868643225339245 7.4446529561693922 21.9796127769471710 O
atom 10.4352904864564113 4.8968908202563668 27.6249446571605404 O
atom 7.7413114923560222 4.5785909203222301 27.2921644724523169 O
atom 9.0969684655612859 7.1193799662175854 21.6439642367917386 O
atom 11.4481770725019718 10.0736317572671812 22.6420893873445692 O
atom 5.3917881127519065 2.2666873901872457 26.9545013998910044 O
atom 8.0817182965138485 1.9478627776972013 26.6244916728300183 O
atom 14.1420265128721905 9.7513312994220378 22.3086920484565780 O
atom 7.8019926125294079 5.1455204785690869 25.4645600111374790 V
atom 9.0372261980343414 5.2793250096251638 22.1483537132070261 V
atom 11.7308696889488608 6.8739843617296534 23.8040961517680003 V
atom 10.4939904331307616 6.7460979615231329 27.1240352160792035 V
atom 9.3167197543541214 3.9925721795593945 25.3004027716903153 O
atom 12.9050362798790257 8.3478167364910494 24.3037719367794267 O
atom 10.2104977424135850 8.0282381202037865 23.9702163915208999 O
atom 6.6267684904842152 3.6696839310984966 24.9649086974436649 O
atom 8.9778426237811200 6.6225295294142459 25.9642848331211482 O
atom 7.8619136265217175 5.7164588671039134 23.6338959367905410 O
atom 10.5525699881638104 5.3978732640300207 23.3014254413690551 O
atom 11.6731911403721362 6.3017197376350289 25.6295036237523952 O
atom 4.8809251886231708 11.7908645168688473 25.4634182559069728 V
atom 6.1170236848310564 11.9205408993976274 22.1443809171914907 V
atom 3.8696674976433436 0.2275256434815015 23.8023221032345056 V
atom 2.6360807494725358 0.0931705077659355 27.1176475489800382 V
atom 6.3995681134364837 10.6365435420874661 25.2953363861228944 O
atom 5.0453326051845755 1.7041252354688925 24.3022486944642040 O
atom 2.3554600807152903 1.3787432825788117 23.9666660793932991 O
atom 14.4833121453875169 10.3180070801456001 24.9638380820853776 O
atom 6.0587564168476078 13.2676752669156262 25.9637152570294134 O
atom 4.9386751359825380 12.3658258259847180 23.6376469831479668 O
atom 7.6331025429815806 12.0432475701552146 23.3033986389267085 O
atom 8.7496579863376329 12.9486629669043509 25.6340165522173962 O
atom 2.4123874501400251 1.9489922872112599 22.1420826996680162 V
atom 3.6473149612014475 8.4694614678559663 25.4639939550552725 V
atom 6.3393061333163923 10.0694491855402752 27.1230055973414217 V
atom 5.1061533506736581 3.5430227510510668 23.7967153495265364 V
atom 3.9326036966950517 0.7950127919681331 21.9762809671415127 O
atom 7.5145885709485585 11.5458546752497853 27.6230731068130773 O
atom 4.8243787627953765 11.2225056367172797 27.2881211308933835 O
atom 1.2375950885753175 0.4755052640685880 21.6422597786168467 O
atom 3.5907268349422226 3.4247933460674416 22.6442935649041814 O
atom 13.2460274296690006 8.9137344238263285 26.9586610577683743 O
atom 5.1642402985126239 8.5924484106172123 26.6232828857378827 O
atom 6.2808947562740931 3.1066387134254536 22.3120719329807677 O
atom 4.8817052251462671 8.5953910096205846 22.1418168517904093 V
atom 1.1792454501061398 1.8277386131734679 25.4701748023784162 V
atom 3.8689073725593399 3.4243920302089830 27.1232351995767793 V
atom 7.5750434816972048 10.1950534171446261 23.8015239870030797 V
atom 6.3980753553882037 7.4438120344568208 21.9791179977581663 O
atom 5.0476117042807624 4.8973918660801115 27.6235395835374646 O
atom 2.3526017163964590 4.5778884031602960 27.2919659227157609 O
atom 3.7083354604314644 7.1197401585226157 21.6438508464364929 O
atom 6.0580942719946149 10.0737720683721061 22.6413826436396945 O
atom 10.7808621509337712 2.2665690485075336 26.9539064886529651 O
atom 2.6918727926855683 1.9483246749856529 26.6248683738384848 O
atom 8.7535540605488453 9.7510510418193199 22.3080965295353906 O
atom 2.4124016734842377 5.1451030231277004 25.4625098893480590 V
atom 3.6488112235771890 5.2780358117549602 22.1472492678697961 V
atom 6.3398135038586965 6.8735748108721291 23.8013241212210573 V
atom 5.1063221339415898 6.7448548630824687 27.1236491883313207 V
atom 3.9296315514273061 3.9932588583395199 25.3016381930490439 O
atom 7.5183956158580729 8.3470663130433049 24.3020893625837076 O
atom 4.8222417739963133 8.0286377741807762 23.9709165853931587 O
atom 12.0177166982853389 3.6688979697672970 24.9641768062158960 O
atom 3.5893568277062196 6.6228884198248483 25.9639860869563890 O
atom 2.4728141380508268 5.7167767396581333 23.6332508417901295 O
atom 5.1629168713405429 5.3983441752467209 23.3022681652501333 O
atom 6.2837400035200686 6.3013114890750295 25.6292637214684618 O
atom 6.5660764385858661 5.0201262359507259 28.7869463888551920 V
atom 9.2599295616083381 6.6210640618839829 30.4477396833627765 V
atom 10.4324463281875364 8.0957063915949430 30.9450406315218629 O
atom 7.7429329281651444 7.7716955076090128 30.6089399438230245 O
atom 5.3880551645163548 5.4644061355892246 30.2800581169429179 O
atom 8.0820404248897404 5.1414031101402111 29.9475051222535953 O
atom 7.8016930188795870 8.3408688302093577 28.7858888961292010 V
atom 10.4921675120294964 9.9375900474666157 30.4409331862055623 V
atom 9.3194632152832462 7.1865368412109563 28.6176998876868147 O
atom 6.6242885252781818 6.8678657876189382 28.2850372266442101 O
atom 8.9791956119036040 9.8164762584855385 29.2858489133970394 O
atom 11.6684171043429377 9.4987784015382672 28.9550640981757752 O
atom 5.3327544753391596 1.6943400732770397 28.7851852368061785 V
atom 8.0243928950175949 3.2955481804435509 30.4447284723194045 V
atom 6.8475001550845693 0.5433329738522350 28.6218725555640106 O
atom 4.1576042981119299 0.2180599839004267 28.2862240154085818 O
atom 6.5088129050526140 3.1723117749500251 29.2843491659614088 O
atom 9.2026623454228371 2.8500113171048800 28.9509518270734176 O
atom 9.0358882932551481 11.6711440049967869 28.7906134918238692 V
atom 11.7295317841696676 13.2658033571012748 30.4463559303848470 V
atom 7.9656721124296723 1.4464967541738942 30.9460317153962663 O
atom 5.2711335749642290 1.1269181378866289 30.6124761701377466 O
atom 7.8605757217425278 12.1082778624755374 30.2761557154073842 O
atom 10.5512320833846207 11.7896922594016456 29.9436852199858876 O
atom 11.9555614821672709 5.0192209170804682 28.7866406958083374 V
atom 3.8683295928641517 6.6193446388531223 30.4445818818513558 V
atom 5.0439947004053840 8.0959442308405158 30.9445084730810507 O
atom 13.1320241407216667 7.7705622779504342 30.6089258580101458 O
atom 10.7772129333187525 5.4645058436675598 30.2799067617648134 O
atom 2.6937383755322255 5.1419275878380564 29.9456584175435481 O
atom 13.1889515101464028 8.3408112825828820 28.7843424782848558 V
atom 5.1048154458944675 9.9348417464226895 30.4389751281433760 V
atom 3.9312657919158598 7.1868317873397540 28.6185407457583594 O
atom 12.0141591485816939 6.8673242594402097 28.2845195572336898 O
atom 14.3672908949485993 9.8166123414390665 29.2865533435210281 O
atom 6.2795568514949025 9.4984577087970781 28.9543317115976109 O
atom 10.7202430224824816 1.6940710273034314 28.7840766304072488 V
atom 2.6356793142478505 3.2937334348274701 30.4437837656199193 V
atom 1.4587111879388490 0.5424920521396642 28.6213777763750095 O
atom 9.5468732577676771 0.2184201762054577 28.2861106250533361 O
atom 11.8966320693308294 3.1724520860549488 29.2836424222565412 O
atom 3.8141898930994911 2.8497310595021643 28.9503563081522302 O
atom 14.4253752835835645 11.6698548071265815 28.7895090464866357 V
atom 6.3384755990795050 13.2653938062437504 30.4435838998379040 V
atom 2.5790314484087182 1.4457463307261453 30.9443491412005542 O
atom 10.6607795713325260 1.1273177918636195 30.6131763640100019 O
atom 13.2493781980572045 12.1085957350297608 30.2755106204069691 O
atom 5.1615789665613523 11.7901631706183441 29.9445279438669658 O
