#===============================================================================
# Created using the Atomic Simulation Environment (ASE)

# Mon Mar 23 14:01:42 2026

#=======================================================
lattice_vector 10.7770659663771120 0.0000000000000000 0.0000000000000000 
lattice_vector -4.9397473237365723 9.5792519092132657 0.0000000000000000 
lattice_vector 0.0000000000000000 0.0000000000000000 38.7603904551201595 
atom 2.1921441523181335 3.5876503623970586 15.9159846385850230 V
atom -1.6784152324590873 4.3032325508009999 15.0026548810514910 O
atom 2.2505726335158265 1.9156949098976654 15.0000000000000000 O
atom 7.5810924472723311 3.5878650580835485 15.9167076885993524 V
atom 3.7098159018609227 4.3032387480675842 15.0020549721256131 O
atom 7.6401618078632287 1.9160356447934068 15.0004820497751368 O
atom 3.4282647539981821 1.1972812580631549 18.2256086324184920 V
atom 0.7336254867906973 1.1966247003448351 15.9310960783312225 V
atom -0.5030244677531058 3.5897042678499544 18.2302800017227398 V
atom 3.3704403429589411 2.8717483887138759 17.3097707565111349 O
atom -1.6762535358845827 4.3060420068597418 19.6104778931708168 O
atom -0.4428176103210487 1.9110136791010190 19.1499831320180576 O
atom 4.6047023804037464 0.4817401226553814 16.8423738235367253 O
atom 2.2504525317620176 1.9131354555146964 19.6101625484355040 O
atom 1.9063831698263434 0.4789107849807066 17.3034969041420936 O
atom 0.6742997371353119 2.8700811175426488 16.8446343947106527 O
atom 1.0167107523104455 4.3078602983713230 19.1464489226612642 O
atom 8.8169789902428093 1.1968752276169501 18.2263331263048869 V
atom 6.1212731092960233 1.1965746380894573 15.9297923392081415 V
atom 4.8860325318787687 3.5902948736579354 18.2285791666421702 V
atom 8.7598856343956708 2.8716984850371823 17.3085406123045189 O
atom 3.7120535588701777 4.3059972043102563 19.6106314402956343 O
atom 4.9460869079801508 1.9106473919305913 19.1486912999480765 O
atom 9.9927411492660436 0.4809025754026320 16.8429086817279625 O
atom 7.6402244410306261 1.9130403390907418 19.6106236113411541 O
atom 7.2956051191720830 0.4797649815675920 17.3032586092915253 O
atom 6.0615191562717277 2.8707197107337259 16.8427888572912252 O
atom 6.4039880981984352 4.3081654620317140 19.1469466153028591 O
atom -0.2779540176550059 8.3785206813114765 15.9138087859849335 V
atom -4.1489980514987019 9.0930546520188358 15.0024363913416821 O
atom -0.2186722904728113 6.7041244385580532 15.0001326190901665 O
atom 3.6525068341409308 5.9856912295735683 20.5309270114199123 V
atom 5.1110390838901827 8.3791973340980235 15.9133910852433118 V
atom 1.2394087524025692 9.0940154634927470 15.0016965185122970 O
atom 5.1710273515073171 6.7050800137727720 15.0010839593300247 O
atom 0.9585503767565020 5.9853439217069333 18.2246233098744952 V
atom -1.7364132551812723 5.9873059635182804 15.9296479291326563 V
atom -2.9727589644656840 8.3759765326635520 18.2278851377872968 V
atom -0.2773105436723249 8.3784008357719806 20.5297360941704454 V
atom 0.9007259791418657 7.6616387769731329 17.3088311269633550 O
atom -4.1478971230547863 9.0961866518081198 19.6098129894550581 O
atom -2.9124743234954620 6.7010228965193273 19.1493529131786602 O
atom 2.1343824397373310 5.2714937096992980 16.8425419026975973 O
atom -0.2194278337190965 6.7014845109490038 19.6097506386391700 O
atom -0.5638377719561763 5.2684961109662565 17.3029862057596446 O
atom -1.7952275584670838 7.6588792306249776 16.8452261126957765 O
atom -1.4535697993621191 9.0978148399473362 19.1458255051226516 O
atom 6.3464024033864188 5.9854186695192277 18.2245665262879228 V
atom 3.6512986422352554 5.9867516888414718 15.9281025858207315 V
atom 2.4156775012652467 8.3773039737860575 18.2262979125080236 V
atom 5.1111000658681816 8.3794186838545333 20.5307732025466976 V
atom 6.2894799217308197 7.6631459449276473 17.3099069144198481 O
atom 1.2405645513776593 9.0973895792861565 19.6088987603345473 O
atom 2.4760703317496611 6.7009816306201868 19.1494729317853896 O
atom 7.5220043336721112 5.2723305640835285 16.8418363253710481 O
atom 5.1697236240677000 6.7028662826784906 19.6106572387529710 O
atom 4.8251983712855795 5.2689489502839928 17.3030142481948985 O
atom 3.5921851384600756 7.6598339520228915 16.8437225957155619 O
atom 3.9344572388776551 9.0974054514504701 19.1464906638110435 O
atom 3.4294487074507645 1.1969490470525748 22.8344842860327191 V
atom 0.7343550317490356 1.1957560732035508 20.5331588157726301 V
atom -0.5018891684489701 3.5891946324300035 22.8399386229254375 V
atom 3.3687590354617121 2.8734762456897416 21.9143425923249282 O
atom -0.4440944928845040 1.9121795529159265 23.7539939999680314 O
atom 4.6041957657068089 0.4778449406118592 21.4526781645440678 O
atom 1.9100177154982385 0.4765849652739246 21.9170343721342320 O
atom 0.6771839877304299 2.8719308796515897 21.4534418980932386 O
atom 1.0205886580208643 4.3056738045919696 23.7603904551201595 O
atom 8.8179521342201301 1.1970399684949955 22.8351806792424057 V
atom 6.1222394723422147 1.1954764107532851 20.5316644626737244 V
atom 4.8873769464535712 3.5897067683072343 22.8378553084271871 V
atom 8.7578652433503112 2.8737433766283784 21.9135237478538727 O
atom 4.9443596153970670 1.9116542612270335 23.7532495004657989 O
atom 9.9921592921181048 0.4778122454440261 21.4528562843931354 O
atom 7.2989488773748041 0.4771740093115784 21.9167087515743404 O
atom 6.0642721029822049 2.8720019442776534 21.4519299620772301 O
atom 6.4085248099003085 4.3051335047258155 23.7600290540186165 O
atom 2.1920920679290194 3.5882648663164618 20.5316751992293973 V
atom 7.5810034868499150 3.5883648900545086 20.5319133678808114 V
atom 0.9598315346447169 5.9851269359814294 22.8337540026801662 V
atom -1.7353720707600944 5.9860584924650109 20.5323107663790481 V
atom -2.9713939303931705 8.3760303646850325 22.8364710839264973 V
atom 0.8994036332177369 7.6626364274423242 21.9121819026013824 O
atom -2.9133154194874664 6.7022998816430155 23.7531980079640235 O
atom 2.1338631229068912 5.2679345932392065 21.4524466920703034 O
atom -0.5601078564126943 5.2663136786033427 21.9169944636723457 O
atom -1.7944611393470336 7.6613734740222696 21.4524750479174173 O
atom -1.4495681676787624 9.0954947781399937 23.7595506599595083 O
atom 6.3479379216261398 5.9846891728623985 22.8340265778277356 V
atom 2.4166263375483723 8.3772224039012766 22.8357642805318264 V
atom 6.2879755824788734 7.6642089327345451 21.9143341181852662 O
atom 2.4743328332003003 6.7024900419349613 23.7543222444715383 O
atom 7.5218918610330405 5.2682698598941808 21.4521077782139926 O
atom 4.8296680146010926 5.2659784520230728 21.9159184007846051 O
atom 3.5930174826435470 7.6617521955814771 21.4514810550005421 O
atom 3.9383635331135003 9.0947132270285422 23.7592789833438474 O
