#===============================================================================
# Created using the Atomic Simulation Environment (ASE)

# Mon Mar 23 14:01:48 2026

#=======================================================
lattice_vector 13.0550062955565522 0.0000000000000000 0.0000000000000000 
lattice_vector -0.0000004316329117 5.5790402700022366 0.0000000000000000 
lattice_vector 0.0000000000000000 0.0000000000000000 39.1438018241410575 
atom 13.0547922775549505 4.1842763966012884 16.3078266334591007 V
atom 13.0547850511695636 0.0001991585120077 15.0000000000000000 O
atom 13.0547125728902085 0.0001924147761996 17.6155532150146144 O
atom 11.0991594695451958 4.1844794715915210 16.3078599142705514 O
atom 1.9553111748533150 4.1847940813720976 16.3080591050049506 O
atom 6.5274583866379423 2.7894533021035297 19.5714979174475339 V
atom 13.0547901775918884 1.3947357165980709 16.3078289562815115 V
atom 13.0547856231336858 2.7892562682419948 15.0003025811850534 O
atom 13.0546909216125844 2.7892486449771852 17.6153299844777926 O
atom 11.0993257030909831 1.3945211914493483 16.3080187480936729 O
atom 1.9551503085739612 1.3942516815191957 16.3078923220035250 O
atom 9.7912492183676800 5.5790124514328756 16.3080169852614247 V
atom 9.7911468329655484 4.1844794468827029 19.5717444414916280 V
atom 9.7910758749799598 0.0000295087640715 18.2639500162761692 O
atom 7.8348458232851685 4.1855920319107387 19.5717298222758451 O
atom 11.7472650272694406 4.1853455818641114 19.5717469564214710 O
atom 9.7911489012978663 2.7894961814395254 16.3080074567860329 V
atom 9.7911432268494600 1.3945319168716350 19.5717555108571375 V
atom 9.7909573702464421 2.7894536585296561 18.2642118540427489 O
atom 7.8349132389552816 1.3934924818853909 19.5717574361635265 O
atom 11.7471956037464516 1.3937168318858209 19.5717208868915939 O
atom 3.2636204957222854 5.5790210815267098 16.3079111947550999 V
atom 3.2637263452740299 0.0004559383995911 18.2643580812391306 O
atom 5.2201720366565825 4.1856115018165569 19.5718035331504012 O
atom 3.2637112318495842 2.7895064715414950 16.3078942208553279 V
atom 3.2638498197834598 2.7889646982610401 18.2645150052697751 O
atom 13.0548992591232444 0.0000434418727997 19.5717536249024739 V
atom 6.5275748996556775 4.1845573864972936 16.3079451312763624 V
atom 6.5275519261643744 0.0003035984752533 15.0000433251034835 O
atom 6.5277056292302422 0.0003009643636844 17.6160178136124657 O
atom 4.5719760184175167 4.1848731413994091 16.3080770395151688 O
atom 8.4832816783992318 4.1845625816312539 16.3077738872056379 O
atom 6.5275770564838247 1.3944668564958598 16.3079455020004538 V
atom 6.5275562448106745 2.7891330777923007 15.0008067700082819 O
atom 6.5277234716263699 2.7891329753017793 17.6149723238386748 O
atom 4.5721177089939742 1.3941664515509287 16.3079079094190007 O
atom 8.4831336666216650 1.3944319014866557 16.3079327414155024 O
atom 6.5274365435320423 0.0000498817982536 19.5718371625898264 V
atom 6.5272612126003704 4.1842695872085169 22.8356106439876854 V
atom 6.5272539862149772 0.0001923491192365 21.5277840105285883 O
atom 6.5271815079356275 0.0001856053834284 24.1433372255431991 O
atom 4.5716284045906166 4.1844726621987505 22.8356439247991361 O
atom 8.4827864054552968 4.1847872719793262 22.8358431155335424 O
atom 6.5272591126373056 1.3947289072052997 22.8356129668100962 V
atom 6.5272545581791075 2.7892494588492243 21.5280865917136417 O
atom 6.5271598566580069 2.7892418355844142 24.1431139950063809 O
atom 4.5717946381363994 1.3945143820565771 22.8358027586222576 O
atom 8.4826255391759364 1.3942448721264245 22.8356763325321097 O
atom 3.2637181534130977 5.5790056420401042 22.8358009957900165 V
atom 9.7910842333514498 0.0000287951142312 20.8794079841856117 O
atom 3.2636178363432791 2.7894893720467544 22.8357914673146212 V
atom 9.7910279265988898 2.7894550952442319 20.8792636740941511 O
atom 9.7910957263242615 5.5790142721339384 22.8356952052836846 V
atom 3.2636878789443831 4.1844461467083125 19.5719394333222709 V
atom 3.2637936625390958 0.0004463348885220 20.8796616878563555 O
atom 1.3073868339530026 4.1853650217542997 19.5719047815977234 O
atom 9.7911864624515577 2.7894996621487245 22.8356782313839162 V
atom 3.2636933521169058 1.3944882767130169 19.5719329805918960 V
atom 3.2638375319063542 2.7889561551429547 20.8793793711273850 O
atom 1.3074655634163213 1.3936822917658760 19.5718912846948463 O
atom 5.2200996078072706 1.3934585717852268 19.5718366267687642 O
atom 0.0000438347010978 4.1845505771045222 22.8357291418049471 V
atom 0.0000208612098006 0.0002967890824822 21.5278273356320717 O
atom 0.0001745642756619 0.0002941549709132 24.1438018241410575 O
atom 11.0994512490194897 4.1848663320066386 22.8358610500437536 O
atom 1.9557506134446487 4.1845557722384825 22.8355578977342262 O
atom 13.0548892175545266 2.7894394116624386 19.5719895474122083 V
atom 0.0000459915292365 1.3944600471030886 22.8357295125290491 V
atom 0.0000251798560916 2.7891262683995302 21.5285907805368666 O
atom 0.0001924066717931 2.7891261659090083 24.1427563343672702 O
atom 11.0995929395959472 1.3941596421581575 22.8356919199475854 O
atom 1.9556026016670851 1.3944250920938845 22.8357167519440836 O
