#===============================================================================
# Created using the Atomic Simulation Environment (ASE)

# Mon Mar 23 14:01:37 2026

#=======================================================
lattice_vector 3.7155747600003020 0.0000000000000000 0.0000000000000000 
lattice_vector 0.0000010448242668 6.4438726005089801 0.0000000000000000 
lattice_vector 0.0000000000000000 0.0000000000000000 35.3078796766197414 
atom 3.7155593840119829 1.5576680384289032 19.8809590593376271 V
atom 3.7155602909135901 4.6337517701911137 18.8189486850529946 V
atom 3.7155615972275116 5.7629786321866243 15.4268606134563768 V
atom 3.7155607003229520 2.6869003271257101 16.4888813241336294 V
atom 3.7155604525639960 6.4270926114419096 19.2145022739332489 O
atom 1.8577718756528963 1.8041889227959966 20.3078796766197414 O
atom 3.7155601279982586 2.5901212646606186 18.3181725193542206 O
atom 1.8577727497152756 4.4777831927591105 19.1869544549184283 O
atom 3.7155605286739997 0.8935324366228468 16.0933120640038325 O
atom 1.8577743455616003 5.5164422033480456 15.0000000000000000 O
atom 3.7155608732369991 4.7305305426613247 16.9896608353821392 O
atom 1.8577734815150904 2.8428210864552041 16.1208706750088169 O
