#===============================================================================
# Created using the Atomic Simulation Environment (ASE)

# Mon Mar 23 14:01:43 2026

#=======================================================
lattice_vector 14.1833344881180565 0.0000000000000000 0.0000000000000000 
lattice_vector 3.7544216431755140 10.1019537203898881 0.0000000000000000 
lattice_vector 0.0000000000000000 0.0000000000000000 35.9820681533014977 
atom 14.5022336235225371 1.4955301556254932 15.5005474282156257 V
atom 3.3007525380601410 4.5813839949735344 17.1631786417697469 V
atom 15.0524103742246584 2.6096396054237445 18.8147282008208521 V
atom 2.0704736888700710 0.9092977318212110 15.9999526239116392 O
atom 3.2944063955305154 5.8374865509382170 18.6527557283613135 O
atom 15.7371471544732593 5.1689823939456643 16.6590494520627530 O
atom 14.4980666666602716 2.7533298714289556 16.9954060902477053 O
atom 3.3066512453648902 3.3213212615629670 15.6667625633460119 O
atom 2.6560777220232734 3.1967545190098550 18.3232253250912365 O
atom 16.3790635468139989 6.5466801094947185 15.5011122811707409 V
atom 5.1794078879921450 9.6310418650312979 17.1620325320690270 V
atom 16.9291515958946306 7.6603479268513350 18.8153980831025649 V
atom 3.9481974401588236 5.9594724269101738 15.9995477955189926 O
atom 1.4176948146936901 0.7866461677977041 18.6523277393998654 O
atom 13.8600928776876984 0.1180314995083847 16.6581487569853053 O
atom 16.3748263904392495 7.8033476072125545 16.9959897024043372 O
atom 5.1853960718020629 8.3732694324896411 15.6657223572910667 O
atom 4.5333664049329929 8.2483391592765241 18.3225902791778879 O
atom 11.5061202467151826 2.6088986735991111 18.8216109540546839 V
atom 13.9356865426435981 4.5806646710138157 17.1677622495365014 V
atom 3.8618300996336807 1.4988381727285920 15.4992318207283972 V
atom 13.2525079766229226 2.0215372024879610 19.3226890399554918 O
atom 6.2929853251225945 4.7221586172507362 15.3331120078714989 O
atom 11.5119806123944208 1.3516618518535302 17.3287397700784069 O
atom 12.1503886950711841 3.9930430882472385 17.6590568098900818 O
atom 14.4929465937022695 4.4368477699228377 18.9863622920914210 O
atom 5.6576484647309195 2.0853487429538866 15.0000000000000000 O
atom 13.3825228023670917 7.6599825620987829 18.8218514865970548 V
atom 15.8140193245043470 9.6321690805029867 17.1667880820160548 V
atom 5.7388218525095276 6.5494927239298297 15.4994727947316306 V
atom 15.1301667775320592 7.0713742921245784 19.3217680138496348 O
atom 8.1701447830676326 9.7733955514270825 15.3331915872212505 O
atom 13.3884502653705493 6.4034414122089407 17.3285444548789940 O
atom 14.0280913393631685 9.0431021513717784 17.6594773685373028 O
atom 16.3722458303439851 9.4884498137146664 18.9854752023654783 O
atom 7.5351793702160563 7.1375461943777525 15.0005702203137474 O
atom 4.4138732271526422 2.6082820188653151 18.8199792302455009 V
atom 6.8492132718754410 4.5785042379290539 17.1622375174392445 V
atom 10.9591763393605373 1.4962069265413742 15.4930610385725487 V
atom 6.1669497381913523 2.0212121233333455 19.3190347833257832 O
atom 13.3826955217227077 4.7252440953350492 15.3317722161421415 O
atom 4.4182037458052923 1.3541806027504690 17.3273520839773312 O
atom 5.0536874411820891 3.9920098735419001 17.6609747869622566 O
atom 7.4033398106644217 4.4355994177139051 18.9869008019508598 O
atom 12.7446214882143920 2.0839629632620005 15.0017933270164860 O
atom 6.2907598223313768 7.6598344843613253 18.8198721141566736 V
atom 8.7273032344320498 9.6298521529788079 17.1609857556103833 V
atom 12.8369553878619023 6.5464817354796292 15.4932292170873325 V
atom 8.0438103361725339 7.0722775750204541 19.3216759607415085 O
atom 15.2610801429774092 9.7759193211673754 15.3319052678529957 O
atom 6.2960369570355033 6.4054640936469909 17.3273403297992417 O
atom 6.9309382152116674 9.0416459354350049 17.6599669565892370 O
atom 9.2818197741564425 9.4872294215018584 18.9864471371541725 O
atom 14.6216904548636393 7.1356340102939413 15.0010556599810485 O
atom 7.4100823277972889 1.4960986251532917 15.4988549393197559 V
atom 10.3922612919395032 4.5818010269442020 17.1587878807004728 V
atom 7.9588376725053713 2.6106053862587211 18.8191502286015506 V
atom 9.1576748849617200 0.9082893620276559 16.0012332324015247 O
atom 10.3899513068753251 5.8363320279190267 18.6539546025972598 O
atom 8.6410288347475053 5.1683384088229332 16.6614292949793494 O
atom 7.4039335491821419 2.7550861775404614 16.9935054871943265 O
atom 10.3963152899594498 3.3240686704605080 15.6652526059496111 O
atom 9.7539842361858184 3.1983022462030966 18.3207406779346798 O
atom 9.2876177686930266 6.5476813043973419 15.4988658494308638 V
atom 12.2714339388748783 9.6321517365238787 17.1585645505570170 V
atom 9.8361045782296195 7.6616919544777193 18.8206032951974436 V
atom 11.0351275536754265 5.9589406129187941 16.0030534481854971 O
atom 8.5141720254411144 0.7848992058087473 18.6541298905359056 O
atom 6.7637080702689509 0.1173899571371876 16.6614871663424537 O
atom 9.2812729966653151 7.8053554263577229 16.9951168435250608 O
atom 12.2755384320335263 8.3754928005082494 15.6648311637779827 O
atom 11.6306624875679248 8.2500167949087242 18.3209361260110768 O
atom 10.9438231418289362 5.6918214493947596 20.4833416454821489 V
atom 8.5131471075605365 2.4667278625105125 20.6481594404388673 O
atom 9.1490712388684390 5.1046143533659256 20.9818943679994092 O
atom 9.0676205832406556 0.6411617498198076 20.4820709273256440 V
atom 10.3904184622036748 7.5182897389116157 20.6482651213905015 O
atom 7.2723312014771020 0.0530377358833266 20.9820681533014977 O
atom 14.4885854150472220 5.6944732426850413 20.4838009921678577 V
atom 12.7360028431320345 6.2815953805845348 19.9825797534731961 O
atom 11.5000928789966910 3.8676640220476930 20.3156497345418074 O
atom 12.6126963886109795 0.6424460969319306 20.4829849001091304 V
atom 10.8592547836545368 1.2300501686965299 19.9813949065166128 O
atom 13.3765081891514672 8.9176148131239632 20.3159160195256021 O
atom 7.3965599416484675 5.6937062320834171 20.4797074105620993 V
atom 5.6500034364641172 6.2808593477090984 19.9797807263796230 O
atom 4.4091857315713590 3.8658780683003351 20.3156341659833899 O
atom 5.5207922668045137 0.6427400019777423 20.4800246170143367 V
atom 3.7724985967021714 1.2309356171819994 19.9807226860053220 O
atom 6.2860172566500072 8.9157512687436444 20.3169822513997147 O
atom 3.8496304661142120 5.6930098693959943 20.4884125212250439 V
atom 1.4243454656810630 2.4648939076102869 20.6499114544328108 O
atom 2.0630465671882403 5.1060606277033749 20.9796227102583259 O
atom 1.9733356710266667 0.6425685240094601 20.4869146535556510 V
atom 3.3028975111042151 7.5163442751411074 20.6499832714135678 O
atom 0.1859481018717452 0.0545052237867638 20.9799569004667816 O
