#===============================================================================
# Created using the Atomic Simulation Environment (ASE)

# Mon Mar 23 14:01:46 2026

#=======================================================
lattice_vector 10.7863573876396668 0.0000000000000000 0.0000000000000000 
lattice_vector 2.8859864345801114 10.3931385144755009 0.0000000000000000 
lattice_vector 0.0000000000000000 0.0000000000000000 36.1523676832215841 
atom 5.0154572226756775 3.8125607513189803 17.9704987078700320 V
atom 9.1547568968925468 6.9592802733438388 16.9101844296976758 V
atom 9.0847875536304326 6.9061025166088745 15.0000512456396997 O
atom 10.6676440378364834 8.1094059824155096 16.6993878060233207 O
atom 7.9714108237471430 8.5162618967611596 16.9100516770354403 O
atom 10.3385714749669066 5.4027899624639923 16.9099419289892907 O
atom 6.4580297723447844 4.9091085449742407 15.8498056768195461 V
atom 7.6419067820407331 5.8092917291182529 17.1211611677276601 O
atom 7.9013056256030394 10.1058605987373920 15.8500456819861562 V
atom 6.1989526852363230 0.6126824088272540 17.1207766609439851 O
atom 7.7117420768124783 1.7625485509535976 16.9103763417038557 V
atom 7.6418147925991828 1.7096266039270493 15.0004583966564944 O
atom 9.2244586281806349 2.9125887559880068 16.6994629807995985 O
atom 6.5273729740243569 3.3195026440419086 16.9111677591854779 O
atom 8.8950246932504164 0.2049916628090140 16.9109734647244814 O
atom 11.8513555497195817 4.9093460378102742 15.8499703891321175 V
atom 2.2493276910848219 5.8094847557901206 17.1207176148273739 O
atom 10.4085780380114361 3.8125010289553969 17.9705165089091601 V
atom 3.7616736697075179 6.9591398815944459 16.9105248189824167 V
atom 3.6917992744226553 6.9058281386140878 15.0010270567750688 O
atom 5.2742743688930434 8.1087660837972404 16.6999174380167084 O
atom 2.5774002462046983 8.5161639430911809 16.9111104296060724 O
atom 4.9450220733120700 5.4011884882819361 16.9112449875896651 O
atom 11.8515507788237198 9.0091212344210057 17.9704493287844151 V
atom 2.3189749724779816 1.7626485048628555 16.9100478127147049 V
atom 2.2488592889824024 1.7093792874433662 15.0000000000000000 O
atom 3.8321097248247642 2.9126981061848598 16.6996071387320519 O
atom 1.1357674001846292 3.3196927940370871 16.9098934805553966 O
atom 3.5023900396041978 0.2056264114418839 16.9099326057342303 O
atom 13.2944482646126101 10.1059560800102162 15.8501356493859262 V
atom 0.8061419569525550 0.6126880326800376 17.1215823884339429 O
atom 6.2691071443055577 4.7657456553591402 21.1513071253296019 V
atom 6.1991378010434524 4.7125678986241759 19.2411739412716223 O
atom 7.7819942852494988 5.9158713644308083 20.9405105016552433 O
atom 5.0857610711601637 6.3227272787764592 21.1511743726673664 O
atom 7.4529217223799265 3.2092553444792911 21.1510646246212204 O
atom 3.5723800197577993 2.7155739269895398 20.0909283724514687 V
atom 7.7119213984251793 5.8625077987705989 19.0307629047331019 V
atom 9.2244311472751974 7.0123706488446063 18.8201567755347448 O
atom 6.5285559172075063 7.4192632223749477 19.0310492925138384 O
atom 8.8950194363643238 4.3056722372614793 19.0311720315392598 O
atom 5.0156558730160556 7.9123259807526916 20.0911683776180858 V
atom 6.2691338760952426 0.6659411476599012 19.0306055969201644 V
atom 7.7818035650223321 1.8158800740634868 18.8200467550438262 O
atom 5.0858248716581889 2.2237902889642243 19.0297503243476918 O
atom 10.3393348115523942 9.5021484739258106 19.0299488049555130 O
atom 6.4584161433746479 9.0091704605256027 17.9705979009931767 V
atom 7.7120787588056103 9.9621524474443994 21.1514990373357818 V
atom 7.6421514745923051 9.9092305004178503 19.2415810922884205 O
atom 6.3388088755936458 0.7190541380033070 20.9405856764315281 O
atom 3.6417232214373771 1.1259680260572087 21.1522904548174076 O
atom 8.8953613752435388 8.4045955592998158 21.1520961603564110 O
atom 8.9657057971326068 2.7158114198255738 20.0910930847640437 V
atom 2.3190759268996253 5.8625518325634696 19.0307575980101156 V
atom 3.8321162345980437 7.0125609766326491 18.8198941779824303 O
atom 11.9220119725623093 7.4203156245528996 19.0300365663828472 O
atom 3.5035828927881121 4.3053832692323413 19.0297834136863067 O
atom 11.6623813047602045 4.7656052636097428 21.1516475146143499 V
atom 11.5925069094753379 4.7122935206293883 19.2421497524069913 O
atom 2.3886246163060592 5.9152314658125400 20.9410401336486380 O
atom 10.4781078812573867 6.3226293251064813 21.1522331252380020 O
atom 2.0593723207250805 3.2076538702972348 21.1523676832215877 O
atom 13.1056690421107813 9.9622524013536573 21.1511705083466346 V
atom 13.0355533586151964 9.9089831839341667 19.2411226956319261 O
atom 0.9464599722377849 0.7191634882001601 20.9407298343639816 O
atom 9.0364750352373022 1.1261581760523878 21.1510161761873228 O
atom 3.5027267215973152 8.4052303079326851 21.1510553013661529 O
atom 10.4087985120256210 7.9124214620255167 20.0912583450178523 V
atom 0.8758564694514872 0.6656555566154266 19.0310430091558551 V
atom 2.3883071390326283 1.8151649055620429 18.8200123332934872 O
atom 10.4786694483671088 2.2222685278861061 19.0312469495703596 O
atom 4.9452422406557330 9.5019486495471526 19.0310612909708290 O
