#===============================================================================
# Created using the Atomic Simulation Environment (ASE)

# Mon Mar 23 14:01:46 2026

#=======================================================
lattice_vector 10.7863573876396668 0.0000000000000000 0.0000000000000000 
lattice_vector 2.8859864345801114 10.3931385144755009 0.0000000000000000 
lattice_vector 0.0000000000000000 0.0000000000000000 42.7247195939300468 
atom 10.7867567278496477 8.1996299872883789 16.0606052273146389 V
atom 1.2537125798467346 0.9532109948377379 15.0002909491422809 V
atom 10.8567238943409929 2.5101926182550587 15.0001581964800419 O
atom 5.3235135925012074 9.7898591984333905 15.0000484484338958 O
atom 13.4132062872147007 10.1963609650876510 15.2112676871722616 O
atom 11.9702521904102870 4.9997516447966532 15.2108831803885849 O
atom 2.6966841943467847 6.1496177869229971 15.0004828611484591 V
atom 12.2986724791983288 7.7065718800113086 15.0012742786300812 O
atom 3.8799668107847149 4.5920608987784144 15.0010799841690847 O
atom 8.0206271962587898 10.1965539917595169 15.2108241342719790 O
atom 5.3935201555457342 8.1995702649247963 16.0606230283537670 V
atom 6.6469867403013767 0.9530706030883437 15.0006313384270236 V
atom 5.4627133167985527 2.5100946645850799 15.0012169490506793 O
atom 10.7163215784860348 9.7882577242513324 15.0013515070342649 O
atom 3.9505064617779149 3.0030519559149034 16.0605558482290185 V
atom 8.0902744776519508 6.1497177408322541 15.0001543321593083 V
atom 6.9070669053585876 7.7067620300064874 15.0000000000000000 O
atom 9.2736895447781631 4.5926956474112837 15.0000391251788319 O
atom 6.5774414621265205 4.9997572686494367 15.2116889078785462 O
atom 7.9011069752626648 6.0060953693036794 20.3017279229465650 V
atom 12.0404066494795323 9.1528148913285392 19.2414136447742088 V
atom 11.9704373062174181 9.0996371345935749 17.3312804607162292 O
atom 13.5532937904234725 10.3029406004002091 19.0306170210998502 O
atom 7.9710741417540110 0.3166580002703583 19.2412808921119733 O
atom 2.4378638399142232 7.5963245804486919 19.2411711440658237 O
atom 9.3436795249317637 7.1026431629589384 18.1810348918960720 V
atom 13.4832209035991557 10.2495770347399979 17.1208694241777053 V
atom 10.5275565346277169 8.0028263471029515 19.4523903828041895 O
atom 1.3233868302293876 1.0063013703385046 16.9102632949793517 O
atom 9.4138689878013615 1.4131939438688472 17.1211558119584453 O
atom 3.8799615538986285 8.6927414732308801 17.1212785509838596 O
atom 7.9009689436099180 1.9062567022465904 18.1812748970626892 V
atom 12.0404333812692101 5.0530103836293012 17.1207121163647713 V
atom 9.0846024378233050 2.8062170268119533 19.4520058760205146 O
atom 2.7667456825566359 6.2029493100328867 16.9101532744884295 O
atom 10.8571243768321484 6.6108595249336242 17.1198568437922916 O
atom 2.4382904945065826 3.4960791954197101 17.1200553244001199 O
atom 9.3437292139685049 3.0031011820195008 16.0607044204377836 V
atom 10.5973918293994647 3.9560831689382971 19.2416055567803852 V
atom 10.5274645451861595 3.9031612219117489 17.3316876117330274 O
atom 12.1101083807676222 5.1061233739727072 19.0306921958761315 O
atom 9.4130227266113433 5.5130372620266082 19.2423969742620073 O
atom 0.9943170581977332 2.3985262807937140 19.2422026798010144 O
atom 3.9506479146669093 7.1028806557949746 18.1811996042086470 V
atom 8.0903754320735910 10.2496210685328695 17.1208641174547260 V
atom 5.1349774436718052 8.0030193737748192 19.4519468299039069 O
atom 6.7174293051919012 1.0064916981265462 16.9100006974270372 O
atom 4.0209676555164933 1.4142463460467982 17.1201430858274506 O
atom 9.2748823979620774 8.6924525052017412 17.1198899331309136 O
atom 2.5078704029587491 6.0060356469400960 20.3017457239856967 V
atom 6.6473234222945026 9.1526744995791436 19.2417540340589532 V
atom 6.5774490270096395 9.0993627565987882 17.3322562718516018 O
atom 8.1599241214800280 10.3023007017819399 19.0311466530932414 O
atom 2.5770635642115711 0.3165600466003800 19.2423396446826089 O
atom 7.8306718258990484 7.5947231062666338 19.2424742026661910 O
atom 1.0648567091909305 0.8095173379302039 20.3016785438609482 V
atom 5.2046247250649680 3.9561831228475550 19.2412770277912379 V
atom 5.1345090415693848 3.9029139054280662 17.3312292150765295 O
atom 6.7177594774117484 5.1062327241695593 19.0308363538085814 O
atom 4.0214171527715994 5.5132274120217870 19.2411226956319261 O
atom 6.3880397921911776 2.3991610294265837 19.2411618208107598 O
atom 2.5077541949798108 1.9063521835194148 18.1813648644624557 V
atom 6.6471559746254503 5.0527247925848249 17.1211495286004620 V
atom 3.6917917095395389 2.8062226506647363 19.4528116035104723 O
atom 8.1596066442066046 6.2022341415314424 16.9101188527380941 O
atom 5.4636115659014113 6.6093377638555051 17.1213534690149629 O
atom 7.8305553112495980 3.4958793710410516 17.1211678104154359 O
atom 5.0154572226756775 3.8125607513189803 24.5428506185784912 V
atom 9.1547568968925468 6.9592802733438388 23.4825363404061349 V
atom 9.0847875536304326 6.9061025166088745 21.5724031563481589 O
atom 10.6676440378364834 8.1094059824155096 23.2717397167317799 O
atom 7.9714108237471430 8.5162618967611596 23.4824035877438995 O
atom 10.3385714749669066 5.4027899624639923 23.4822938396977499 O
atom 6.4580297723447844 4.9091085449742407 22.4221575875280053 V
atom 10.5975711510121684 8.0560424167552984 21.3619921198096350 V
atom 7.6419067820407331 5.8092917291182529 23.6935130784361192 O
atom 12.1100808998621812 9.2059052668293049 21.1513859906112778 O
atom 9.4142056697944909 9.6127978403596472 21.3622785075903749 O
atom 11.7806691889513075 6.4992068552461779 21.3624012466157893 O
atom 7.9013056256030394 10.1058605987373920 22.4223975926946153 V
atom 9.1547836286822282 2.8594757656446008 21.3618348119967010 V
atom 6.1989526852363230 0.6126824088272540 23.6931285716524442 O
atom 10.6674533176093203 4.0094146920481872 21.1512759701203592 O
atom 7.9714746242451691 4.4173249069489255 21.3609795394242212 O
atom 10.3389981295592648 1.3025445774350100 21.3611780200320496 O
atom 6.4580794613815256 0.8095665640348012 20.3018271160697097 V
atom 7.7117420768124783 1.7625485509535976 23.4827282524123149 V
atom 7.6418147925991828 1.7096266039270493 21.5728103073649535 O
atom 9.2244586281806349 2.9125887559880068 23.2718148915080576 O
atom 6.5273729740243569 3.3195026440419086 23.4835196698939370 O
atom 8.8950246932504164 0.2049916628090140 23.4833253754329405 O
atom 11.8513555497195817 4.9093460378102742 22.4223222998405767 V
atom 5.2047256794866090 8.0560864505481700 21.3619868130866557 V
atom 2.2493276910848219 5.8094847557901206 23.6930695255358330 O
atom 6.7177659871850324 9.2060955946173468 21.1511233930589668 O
atom 4.0213043375096182 9.6138502425376000 21.3612657814593803 O
atom 6.3892326453750909 6.4989178872170408 21.3610126287628397 O
atom 10.4085780380114361 3.8125010289553969 24.5428684196176192 V
atom 3.7616736697075179 6.9591398815944459 23.4828767296908758 V
atom 3.6917992744226553 6.9058281386140878 21.5733789674835279 O
atom 5.2742743688930434 8.1087660837972404 23.2722693487251675 O
atom 2.5774002462046983 8.5161639430911809 23.4834623403145315 O
atom 4.9450220733120700 5.4011884882819361 23.4835968982981242 O
atom 11.8515507788237198 9.0091212344210057 24.5428012394928743 V
atom 2.3189749724779816 1.7626485048628555 23.4823997234231641 V
atom 2.2488592889824024 1.7093792874433662 21.5723519107084591 O
atom 3.8321097248247642 2.9126981061848598 23.2719590494405111 O
atom 1.1357674001846292 3.3196927940370871 23.4822453912638558 O
atom 3.5023900396041978 0.2056264114418839 23.4822845164426894 O
atom 13.2944482646126101 10.1059560800102162 22.4224875600943854 V
atom 3.7615062220384661 2.8591901746001249 21.3622722242323917 V
atom 0.8061419569525550 0.6126880326800376 23.6939342991424020 O
atom 5.2739568916196173 4.0086995235467429 21.1512415483700238 O
atom 2.5779618133144271 4.4158031458708056 21.3624761646468926 O
atom 4.9449055586626116 1.3023447530563521 21.3622905060473656 O
atom 6.2691071443055577 4.7657456553591402 27.7236590360380610 V
atom 6.1991378010434524 4.7125678986241759 25.8135258519800814 O
atom 7.7819942852494988 5.9158713644308083 27.5128624123637024 O
atom 5.0857610711601637 6.3227272787764592 27.7235262833758256 O
atom 7.4529217223799265 3.2092553444792911 27.7234165353296795 O
atom 3.5723800197577993 2.7155739269895398 26.6632802831599278 V
atom 7.7119213984251793 5.8625077987705989 25.6031148154415611 V
atom 9.2244311472751974 7.0123706488446063 25.3925086862432039 O
atom 6.5285559172075063 7.4192632223749477 25.6034012032222975 O
atom 8.8950194363643238 4.3056722372614793 25.6035239422477190 O
atom 5.0156558730160556 7.9123259807526916 26.6635202883265450 V
atom 6.2691338760952426 0.6659411476599012 25.6029575076286235 V
atom 7.7818035650223321 1.8158800740634868 25.3923986657522853 O
atom 5.0858248716581889 2.2237902889642243 25.6021022350561509 O
atom 10.3393348115523942 9.5021484739258106 25.6023007156639721 O
atom 6.4584161433746479 9.0091704605256027 24.5429498117016358 V
atom 7.7120787588056103 9.9621524474443994 27.7238509480442410 V
atom 7.6421514745923051 9.9092305004178503 25.8139330029968797 O
atom 6.3388088755936458 0.7190541380033070 27.5129375871399873 O
atom 3.6417232214373771 1.1259680260572087 27.7246423655258667 O
atom 8.8953613752435388 8.4045955592998158 27.7244480710648702 O
atom 8.9657057971326068 2.7158114198255738 26.6634449954725028 V
atom 2.3190759268996253 5.8625518325634696 25.6031095087185747 V
atom 3.8321162345980437 7.0125609766326491 25.3922460886908894 O
atom 11.9220119725623093 7.4203156245528996 25.6023884770913064 O
atom 3.5035828927881121 4.3053832692323413 25.6021353243947658 O
atom 11.6623813047602045 4.7656052636097428 27.7239994253228090 V
atom 11.5925069094753379 4.7122935206293883 25.8145016631154505 O
atom 2.3886246163060592 5.9152314658125400 27.5133920443570972 O
atom 10.4781078812573867 6.3226293251064813 27.7245850359464612 O
atom 2.0593723207250805 3.2076538702972348 27.7247195939300468 O
atom 13.1056690421107813 9.9622524013536573 27.7235224190550937 V
atom 13.0355533586151964 9.9089831839341667 25.8134746063403853 O
atom 0.9464599722377849 0.7191634882001601 27.5130817450724408 O
atom 9.0364750352373022 1.1261581760523878 27.7233680868957819 O
atom 3.5027267215973152 8.4052303079326851 27.7234072120746120 O
atom 10.4087985120256210 7.9124214620255167 26.6636102557263115 V
atom 0.8758564694514872 0.6656555566154266 25.6033949198643143 V
atom 2.3883071390326283 1.8151649055620429 25.3923642440019464 O
atom 10.4786694483671088 2.2222685278861061 25.6035988602788187 O
atom 4.9452422406557330 9.5019486495471526 25.6034132016792881 O
