#===============================================================================
# Created using the Atomic Simulation Environment (ASE)

# Mon Mar 23 14:01:47 2026

#=======================================================
lattice_vector 9.2314623421363340 0.0000000000000000 0.0000000000000000 
lattice_vector 0.0003972008493561 9.2315018135911977 0.0000000000000000 
lattice_vector 0.0000000000000000 0.0000000000000000 34.1856427249700232 
atom 0.0000484019886503 0.0000217087262182 19.1855616199809518 V
atom 2.3078122855400554 2.3079243789961832 15.0013385100002132 V
atom 1.3830153087386179 1.3831813667330752 19.1854171123335249 O
atom 3.2324832178045360 3.2326642888469985 19.1854211276810851 O
atom 0.9250273060027733 3.6908218376813084 15.0011354349752644 O
atom 3.6907090906782041 0.9252909278343240 15.0008208249869028 O
atom 9.2316814442587809 9.2312661422298525 16.3961582000310706 V
atom 2.3078145008450122 2.3079295639223552 17.7908791899994903 V
atom 1.3832276181480387 1.3833928572394676 16.3963600022894198 O
atom 3.2323079995534418 3.2325196976904267 16.3963648977144807 O
atom 0.9252592211735137 3.6908186577070201 17.7910937149502324 O
atom 3.6904794659355473 0.9252888078469012 17.7913632250122653 O
atom 2.3081140445078243 6.9236086135521253 15.0011320549954981 V
atom 1.3832947792066366 5.9989334418052724 19.1855833573245604 O
atom 3.2327524955932661 7.8482918541378517 19.1855813426855129 O
atom 0.9248227143073521 8.3069447030410171 15.0000194699827141 O
atom 3.6912675470887204 5.5403932368333546 15.0002659200114685 O
atom 0.0002513989429736 4.6158522104630597 16.3961187249725917 V
atom 2.3081213800132643 6.9236210484082488 17.7910795849935006 V
atom 1.3833940797675524 5.9992003247067007 16.3961592072873579 O
atom 3.2326085790294159 7.8482275722714157 16.3961550427075622 O
atom 0.9248919692195317 8.3069186167771658 17.7921190199777364 O
atom 3.6912020832144088 5.5404259534213693 17.7918946700154308 O
atom 6.9238157474488906 2.3079643331212254 15.0011653549664814 V
atom 5.9992245236740676 1.3833624464231282 19.1851569272633746 O
atom 7.8486147768166070 3.2325700202079113 19.1851638026465743 O
atom 5.5405102269654156 3.6912862829344877 15.0002464799566440 O
atom 8.3071301423242634 0.9243923029115386 15.0000000000000000 O
atom 4.6161473977160536 9.2314767479841819 16.3961084349887436 V
atom 6.9238171125507968 2.3079579581068095 17.7911232249669915 V
atom 5.9994207390580945 1.3833840373297661 16.3966481672397464 O
atom 7.8484441067297466 3.2323373190073341 16.3966539826881537 O
atom 5.5405584110344952 3.6912231270828495 17.7919292099576261 O
atom 8.3071043894530252 0.9244689786969149 17.7921529299952930 O
atom 4.6158905128264927 4.6157421374083212 19.1855680599935425 V
atom 6.9240279144574908 6.9235569996142949 15.0010575199805949 V
atom 5.9991666467713909 5.9987719687516972 19.1853126723250824 O
atom 7.8490923788045253 7.8483928310159250 19.1853125776089648 O
atom 5.5413366658920955 8.3065002062718545 15.0007417649408836 O
atom 8.3067676407480011 5.5405096818821562 15.0010523250252703 O
atom 4.6160481813462777 4.6159139990568132 16.3961720899593217 V
atom 6.9240317597281607 6.9235577945596019 17.7911480499801264 V
atom 5.9997074931594110 5.9993066822126595 16.3964831922131715 O
atom 7.8483636474689087 7.8476389017892538 16.3964805677629748 O
atom 5.5413193165290773 8.3062824817338115 17.7914484549642715 O
atom 8.3067773707183594 5.5407287267048693 17.7911830050026438 O
atom 0.0003314327911370 4.6157897637134324 19.1856427249700232 V
atom 4.6157004037346923 0.0000528504365696 19.1856340949865434 V
