#===============================================================================
# Created using the Atomic Simulation Environment (ASE)

# Mon Mar 23 14:01:40 2026

#=======================================================
lattice_vector 15.1536015195045284 0.0000000000000000 0.0000000000000000 
lattice_vector -0.0000014388224574 3.7155747600000235 0.0000000000000000 
lattice_vector 0.0000000000000000 0.0000000000000000 36.1273648918010863 
atom 1.4609384360376518 1.8577858163060692 16.0303889582342372 V
atom 13.0330733690977993 3.7155730326664425 18.2310988953545632 V
atom 14.4578076699346951 3.7155734464591545 15.0000000000000000 V
atom 7.5826330038582919 1.8577859236701311 15.8104555333728278 V
atom 9.7393622687157393 3.7155730735178114 16.8408384482714837 V
atom 4.7546867305150586 1.8577857354574963 17.4206277661474473 V
atom 0.9225393626062203 1.8577855841027207 17.6530711662455957 O
atom 13.5714454220353886 3.7155732648738593 16.6083830327608624 O
atom 1.3028598994459570 3.7155732634618266 15.5634257389681991 O
atom 3.3164012133983025 1.8577858008436874 16.2861017350221040 O
atom 11.1775742454175919 3.7155730581275965 17.9753950902752457 O
atom 14.8372237358896299 1.8577860521861138 15.1256918398605791 O
atom 10.6257305943845175 3.7155732451069134 15.2324247510227124 O
atom 7.7407126308351746 3.7155732465152087 16.2774122493390436 O
atom 6.7533746895998039 1.8577855624598480 17.9840570221713776 O
atom 5.7271582261330369 1.8577859491319937 15.5547466372742740 O
atom 5.1340933404712876 3.7155731011845727 17.5463186363766646 O
atom 9.3599755340394548 1.8577857077957549 16.7151074626705594 O
atom 12.3618155183836294 1.8577852143015621 20.8716521150132266 V
atom 0.0361676040672832 1.8577854125129840 19.2614899036831027 V
atom 10.2050832327761469 3.7155728444546474 19.8412631567789859 V
atom 6.9113679481195911 3.7155728753073478 18.4509918109828064 V
atom 3.3299085666997410 1.8577853216656244 20.6517186901518173 V
atom 13.1911234059364588 1.8577855855106529 18.6980616060182960 O
atom 12.2037369817919270 3.7155726614573203 20.4046888957471779 O
atom 14.2172782957442880 1.8577851988391803 21.1273648918010863 O
atom 10.5844992987310889 1.8577854501816069 19.9669549966395650 O
atom 14.8103841118882027 3.7155728067898508 19.1357679069322302 O
atom 6.3730061572259729 3.7155726431024063 20.0736879078016983 O
atom 3.8683014556254065 1.8577855538702723 19.0290257997021399 O
atom 3.4879881936766308 3.7155726445107016 21.1186754061180295 O
atom 8.7668739609624886 3.7155728698446246 18.7067085048455297 O
atom 1.4744337889744998 1.8577853471274870 20.3960097940532563 O
