#===============================================================================
# Created using the Atomic Simulation Environment (ASE)

# Mon Mar 23 14:01:46 2026

#=======================================================
lattice_vector 10.7863573876396668 0.0000000000000000 0.0000000000000000 
lattice_vector 2.8859864345801114 10.3931385144755009 0.0000000000000000 
lattice_vector 0.0000000000000000 0.0000000000000000 31.9112449875896615 
atom 6.2691071443055577 4.7657456553591402 16.9101844296976758 V
atom 6.1991378010434524 4.7125678986241759 15.0000512456396962 O
atom 7.7819942852494988 5.9158713644308083 16.6993878060233172 O
atom 5.0857610711601637 6.3227272787764592 16.9100516770354403 O
atom 7.4529217223799265 3.2092553444792911 16.9099419289892943 O
atom 3.5723800197577993 2.7155739269895398 15.8498056768195426 V
atom 5.0156558730160556 7.9123259807526916 15.8500456819861597 V
atom 7.7120787588056103 9.9621524474443994 16.9103763417038557 V
atom 7.6421514745923051 9.9092305004178503 15.0004583966564944 O
atom 6.3388088755936458 0.7190541380033070 16.6994629807996020 O
atom 3.6417232214373771 1.1259680260572087 16.9111677591854814 O
atom 8.8953613752435388 8.4045955592998158 16.9109734647244849 O
atom 8.9657057971326068 2.7158114198255738 15.8499703891321175 V
atom 11.6623813047602045 4.7656052636097428 16.9105248189824238 V
atom 11.5925069094753379 4.7122935206293883 15.0010270567750652 O
atom 2.3886246163060592 5.9152314658125400 16.6999174380167119 O
atom 10.4781078812573867 6.3226293251064813 16.9111104296060759 O
atom 2.0593723207250805 3.2076538702972348 16.9112449875896615 O
atom 13.1056690421107813 9.9622524013536573 16.9100478127147085 V
atom 13.0355533586151964 9.9089831839341667 15.0000000000000000 O
atom 0.9464599722377849 0.7191634882001601 16.6996071387320555 O
atom 9.0364750352373022 1.1261581760523878 16.9098934805553966 O
atom 3.5027267215973152 8.4052303079326851 16.9099326057342267 O
atom 10.4087985120256210 7.9124214620255167 15.8501356493859262 V
