#===============================================================================
# Created using the Atomic Simulation Environment (ASE)

# Mon Mar 23 14:01:42 2026

#=======================================================
lattice_vector 10.7770659663771120 0.0000000000000000 0.0000000000000000 
lattice_vector -4.9397473237365723 9.5792519092132657 0.0000000000000000 
lattice_vector 0.0000000000000000 0.0000000000000000 31.8482085525187770 
atom 3.4294487074507645 1.1969490470525748 15.9223023834313366 V
atom -0.5018891684489701 3.5891946324300035 15.9277567203240551 V
atom 3.3687590354617121 2.8734762456897416 15.0021606897235458 O
atom -0.4440944928845040 1.9121795529159265 16.8418120973666490 O
atom 1.9100177154982385 0.4765849652739246 15.0048524695328496 O
atom 1.0205886580208643 4.3056738045919696 16.8482085525187770 O
atom 8.8179521342201301 1.1970399684949955 15.9229987766410233 V
atom 4.8873769464535712 3.5897067683072343 15.9256734058258047 V
atom 8.7578652433503112 2.8737433766283784 15.0013418452524903 O
atom 4.9443596153970670 1.9116542612270335 16.8410675978644164 O
atom 7.2989488773748041 0.4771740093115784 15.0045268489729580 O
atom 6.4085248099003085 4.3051335047258155 16.8478471514172341 O
atom 0.9598315346447169 5.9851269359814294 15.9215721000787838 V
atom -2.9713939303931705 8.3760303646850325 15.9242891813251148 V
atom 0.8994036332177369 7.6626364274423242 15.0000000000000000 O
atom -2.9133154194874664 6.7022998816430155 16.8410161053626410 O
atom -0.5601078564126943 5.2663136786033427 15.0048125610709633 O
atom -1.4495681676787624 9.0954947781399937 16.8473687573581259 O
atom 6.3479379216261398 5.9846891728623985 15.9218446752263532 V
atom 2.4166263375483723 8.3772224039012766 15.9235823779304440 V
atom 6.2879755824788734 7.6642089327345451 15.0021522155838838 O
atom 2.4743328332003003 6.7024900419349613 16.8421403418701559 O
atom 4.8296680146010926 5.2659784520230728 15.0037364981832226 O
atom 3.9383635331135003 9.0947132270285422 16.8470970807424649 O
