#===============================================================================
# Created using the Atomic Simulation Environment (ASE)

# Mon Mar 23 14:01:47 2026

#=======================================================
lattice_vector 9.2314623421363340 0.0000000000000000 0.0000000000000000 
lattice_vector 0.0003972008493561 9.2315018135911977 0.0000000000000000 
lattice_vector 0.0000000000000000 0.0000000000000000 42.5528440749689310 
atom 0.0000395610600712 0.0000140890291975 16.3946824299814580 V
atom 1.3830064678100387 1.3831737470360543 16.3945379223340311 O
atom 3.2324743768759565 3.2326566691499776 16.3945419376815984 O
atom 2.3078056599164332 2.3079219442253343 15.0000000000000000 V
atom 0.9252503802449344 3.6908110380099992 15.0002145249507421 O
atom 3.6904706250069688 0.9252811881498805 15.0004840350127751 O
atom 1.3832859382780571 5.9989258221082524 16.3947041673250702 O
atom 3.2327436546646870 7.8482842344408308 16.3947021526860226 O
atom 2.3081125390846853 6.9236134287112296 15.0002003949940068 V
atom 0.9248831282909523 8.3069109970801449 15.0012398299782461 O
atom 3.6911932422858298 5.5404183337243467 15.0010154800159405 O
atom 5.9992156827454881 1.3833548267261075 16.3942777372638844 O
atom 7.8486059358880276 3.2325624005108904 16.3942846126470840 O
atom 6.9238082716222173 2.3079503384097890 15.0002440349675012 V
atom 5.5405495701059158 3.6912155073858286 15.0010500199581358 O
atom 8.3070955485244440 0.9244613589998943 15.0012737399958027 O
atom 4.6158816718979132 4.6157345177113003 16.3946888699940558 V
atom 5.9991578058428114 5.9987643490546771 16.3944334823255922 O
atom 7.8490835378759467 7.8483852113189023 16.3944333876094710 O
atom 6.9240229187995821 6.9235501748625810 15.0002688599806362 V
atom 5.5413104756004987 8.3062748620367906 15.0005692649647813 O
atom 8.3067685297897818 5.5407211070078484 15.0003038150031500 O
atom 0.0000439815243607 0.0000178988777078 21.9737226999806623 V
atom 2.3078078650757656 2.3079205691476727 17.7894995899999202 V
atom 1.3830108882743284 1.3831775568845646 21.9735781923332354 O
atom 3.2324787973402462 3.2326604789984876 21.9735822076807992 O
atom 0.9250228855384838 3.6908180278327976 17.7892965149749749 O
atom 3.6907046702139144 0.9252871179858136 17.7889819049866134 O
atom 9.2316770237944894 9.2312623323813430 19.1843192800307811 V
atom 2.3078100803807224 2.3079257540738443 20.5790402699991972 V
atom 1.3832231976837492 1.3833890473909574 19.1845210822891303 O
atom 3.2323035790891521 3.2325158878419162 19.1845259777141877 O
atom 0.9252548007092242 3.6908148478585097 20.5792547949499429 O
atom 3.6904750454712585 0.9252849979983910 20.5795243050119758 O
atom 0.0003225918625578 4.6157821440164115 16.3947635349705294 V
atom 2.3081096240435346 6.9236048037036158 17.7892931349952086 V
atom 1.3832903587423466 5.9989296319567629 21.9737444373242710 O
atom 3.2327480751289768 7.8482880442893412 21.9737424226852234 O
atom 0.9248182938430624 8.3069408931925075 17.7881805499824210 O
atom 3.6912631266244311 5.5403894269848442 17.7884270000111755 O
atom 0.0002469784786840 4.6158484006145493 19.1842798049723022 V
atom 2.3081169595489750 6.9236172385597392 20.5792406649932111 V
atom 1.3833896593032631 5.9991965148581912 19.1843202872870719 O
atom 3.2326041585651262 7.8482237624229061 19.1843161227072727 O
atom 0.9248875487552418 8.3069148069286562 20.5802800999774469 O
atom 3.6911976627501195 5.5404221435728571 20.5800557500151413 O
atom 4.6156915628061137 0.0000452307395489 16.3947549049870531 V
atom 6.9238113269846009 2.3079605232727149 17.7893264349661919 V
atom 5.9992201032097778 1.3833586365746176 21.9733180072630816 O
atom 7.8486103563523173 3.2325662103593999 21.9733248826462848 O
atom 5.5405058065011268 3.6912824730859772 17.7884075599563545 O
atom 8.3071257218599754 0.9243884930630284 17.7881610799997141 O
atom 4.6161429772517639 9.2314729381356724 19.1842695149884577 V
atom 6.9238126920865071 2.3079541482582995 20.5792843049667056 V
atom 5.9994163185938056 1.3833802274812554 19.1848092472394569 O
atom 7.8484396862654577 3.2323335091588237 19.1848150626878642 O
atom 5.5405539905702064 3.6912193172343386 20.5800902899573401 O
atom 8.3070999689887319 0.9244651688484047 20.5803140099950035 O
atom 4.6158860923622038 4.6157383275598107 21.9737291399932531 V
atom 6.9240234939932011 6.9235531897657845 17.7892185999803090 V
atom 5.9991622263071012 5.9987681589031867 21.9734737523247894 O
atom 7.8490879583402355 7.8483890211674145 21.9734736576086753 O
atom 5.5413322454278049 8.3064963964233431 17.7889028449405942 O
atom 8.3067632202837114 5.5405058720336458 17.7892134050249808 O
atom 4.6160437608819880 4.6159101892083028 19.1843331699590323 V
atom 6.9240273392638718 6.9235539847110923 20.5793091299798370 V
atom 5.9997030726951204 5.9993028723641491 19.1846442722128856 O
atom 7.8483592270046190 7.8476350919407434 19.1846416477626889 O
atom 5.5413148960647884 8.3062786718853019 20.5796095349639856 O
atom 8.3067729502540697 5.5407249168563597 20.5793440850023543 O
atom 0.0000484019886503 0.0000217087262182 27.5527629699798631 V
atom 2.3078122855400554 2.3079243789961832 23.3685398599991245 V
atom 1.3830153087386179 1.3831813667330752 27.5526184623324362 O
atom 3.2324832178045360 3.2326642888469985 27.5526224776799964 O
atom 0.9250273060027733 3.6908218376813084 23.3683367849741757 O
atom 3.6907090906782041 0.9252909278343240 23.3680221749858141 O
atom 9.2316814442587809 9.2312661422298525 24.7633595500299819 V
atom 2.3078145008450122 2.3079295639223552 26.1580805399984015 V
atom 1.3832276181480387 1.3833928572394676 24.7635613522883311 O
atom 3.2323079995534418 3.2325196976904267 24.7635662477133920 O
atom 0.9252592211735137 3.6908186577070201 26.1582950649491437 O
atom 3.6904794659355473 0.9252888078469012 26.1585645750111766 O
atom 0.0003270123268474 4.6157859538649220 21.9738038049697337 V
atom 2.3081140445078243 6.9236086135521253 23.3683334049944094 V
atom 1.3832947792066366 5.9989334418052724 27.5527847073234717 O
atom 3.2327524955932661 7.8482918541378517 27.5527826926844241 O
atom 0.9248227143073521 8.3069447030410171 23.3672208199816254 O
atom 3.6912675470887204 5.5403932368333546 23.3674672700103798 O
atom 0.0002513989429736 4.6158522104630597 24.7633200749715030 V
atom 2.3081213800132643 6.9236210484082488 26.1582809349924119 V
atom 1.3833940797675524 5.9992003247067007 24.7633605572862692 O
atom 3.2326085790294159 7.8482275722714157 24.7633563927064735 O
atom 0.9248919692195317 8.3069186167771658 26.1593203699766477 O
atom 3.6912020832144088 5.5404259534213693 26.1590960200143421 O
atom 4.6156959832704025 0.0000490405880592 21.9737951749862539 V
atom 6.9238157474488906 2.3079643331212254 23.3683667049653927 V
atom 5.9992245236740676 1.3833624464231282 27.5523582772622859 O
atom 7.8486147768166070 3.2325700202079113 27.5523651526454856 O
atom 5.5405102269654156 3.6912862829344877 23.3674478299555552 O
atom 8.3071301423242634 0.9243923029115386 23.3672013499989113 O
atom 4.6161473977160536 9.2314767479841819 24.7633097849876549 V
atom 6.9238171125507968 2.3079579581068095 26.1583245749659028 V
atom 5.9994207390580945 1.3833840373297661 24.7638495172386577 O
atom 7.8484441067297466 3.2323373190073341 24.7638553326870650 O
atom 5.5405584110344952 3.6912231270828495 26.1591305599565374 O
atom 8.3071043894530252 0.9244689786969149 26.1593542799942043 O
atom 4.6158905128264927 4.6157421374083212 27.5527694099924538 V
atom 6.9240279144574908 6.9235569996142949 23.3682588699795062 V
atom 5.9991666467713909 5.9987719687516972 27.5525140223239937 O
atom 7.8490923788045253 7.8483928310159250 27.5525139276078761 O
atom 5.5413366658920955 8.3065002062718545 23.3679431149397949 O
atom 8.3067676407480011 5.5405096818821562 23.3682536750241816 O
atom 4.6160481813462777 4.6159139990568132 24.7633734399582330 V
atom 6.9240317597281607 6.9235577945596019 26.1583493999790377 V
atom 5.9997074931594110 5.9993066822126595 24.7636845422120828 O
atom 7.8483636474689087 7.8476389017892538 24.7636819177618861 O
atom 5.5413193165290773 8.3062824817338115 26.1586498049631828 O
atom 8.3067773707183594 5.5407287267048693 26.1583843550015551 O
atom 0.0003314327911370 4.6157897637134324 27.5528440749689345 V
atom 4.6157004037346923 0.0000528504365696 27.5528354449854547 V
