#===============================================================================
# Created using the Atomic Simulation Environment (ASE)

# Mon Mar 23 14:01:42 2026

#=======================================================
lattice_vector 10.7770659663771120 0.0000000000000000 0.0000000000000000 
lattice_vector -4.9397473237365723 9.5792519092132657 0.0000000000000000 
lattice_vector 0.0000000000000000 0.0000000000000000 36.4574042493605148 
atom 3.4282647539981821 1.1972812580631549 15.9226224266588474 V
atom -0.5030244677531058 3.5897042678499544 15.9272937959630951 V
atom 3.3704403429589411 2.8717483887138759 15.0067845507514903 O
atom -1.6762535358845827 4.3060420068597418 17.3074916874111722 O
atom -0.4428176103210487 1.9110136791010190 16.8469969262584129 O
atom 2.2504525317620176 1.9131354555146964 17.3071763426758594 O
atom 1.9063831698263434 0.4789107849807066 15.0005106983824490 O
atom 1.0167107523104455 4.3078602983713230 16.8434627169016196 O
atom 8.8169789902428093 1.1968752276169501 15.9233469205452423 V
atom 4.8860325318787687 3.5902948736579354 15.9255929608825255 V
atom 8.7598856343956708 2.8716984850371823 15.0055544065448743 O
atom 3.7120535588701777 4.3059972043102563 17.3076452345359897 O
atom 4.9460869079801508 1.9106473919305913 16.8457050941884319 O
atom 7.6402244410306261 1.9130403390907418 17.3076374055815094 O
atom 7.2956051191720830 0.4797649815675920 15.0002724035318806 O
atom 6.4039880981984352 4.3081654620317140 16.8439604095432145 O
atom 3.6525068341409308 5.9856912295735683 18.2279408056602676 V
atom 0.9585503767565020 5.9853439217069333 15.9216371041148506 V
atom -2.9727589644656840 8.3759765326635520 15.9248989320276522 V
atom -0.2773105436723249 8.3784008357719806 18.2267498884108008 V
atom 0.9007259791418657 7.6616387769731329 15.0058449212037104 O
atom -4.1478971230547863 9.0961866518081198 17.3068267836954135 O
atom -2.9124743234954620 6.7010228965193273 16.8463667074190155 O
atom -0.2194278337190965 6.7014845109490038 17.3067644328795254 O
atom -0.5638377719561763 5.2684961109662565 15.0000000000000000 O
atom -1.4535697993621191 9.0978148399473362 16.8428392993630069 O
atom 6.3464024033864188 5.9854186695192277 15.9215803205282782 V
atom 2.4156775012652467 8.3773039737860575 15.9233117067483789 V
atom 5.1111000658681816 8.3794186838545333 18.2277869967870529 V
atom 6.2894799217308197 7.6631459449276473 15.0069207086602034 O
atom 1.2405645513776593 9.0973895792861565 17.3059125545749026 O
atom 2.4760703317496611 6.7009816306201868 16.8464867260257449 O
atom 5.1697236240677000 6.7028662826784906 17.3076710329933263 O
atom 4.8251983712855795 5.2689489502839928 15.0000280424352539 O
atom 3.9344572388776551 9.0974054514504701 16.8435044580513988 O
atom 3.4294487074507645 1.1969490470525748 20.5314980802730744 V
atom 0.7343550317490356 1.1957560732035508 18.2301726100129855 V
atom -0.5018891684489701 3.5891946324300035 20.5369524171657929 V
atom 3.3687590354617121 2.8734762456897416 19.6113563865652836 O
atom -0.4440944928845040 1.9121795529159265 21.4510077942083868 O
atom 4.6041957657068089 0.4778449406118592 19.1496919587844232 O
atom 1.9100177154982385 0.4765849652739246 19.6140481663745874 O
atom 0.6771839877304299 2.8719308796515897 19.1504556923335940 O
atom 1.0205886580208643 4.3056738045919696 21.4574042493605148 O
atom 8.8179521342201301 1.1970399684949955 20.5321944734827611 V
atom 6.1222394723422147 1.1954764107532851 18.2286782569140797 V
atom 4.8873769464535712 3.5897067683072343 20.5348691026675425 V
atom 8.7578652433503112 2.8737433766283784 19.6105375420942281 O
atom 4.9443596153970670 1.9116542612270335 21.4502632947061542 O
atom 9.9921592921181048 0.4778122454440261 19.1498700786334908 O
atom 7.2989488773748041 0.4771740093115784 19.6137225458146958 O
atom 6.0642721029822049 2.8720019442776534 19.1489437563175855 O
atom 6.4085248099003085 4.3051335047258155 21.4570428482589719 O
atom 2.1920920679290194 3.5882648663164618 18.2286889934697527 V
atom 7.5810034868499150 3.5883648900545086 18.2289271621211668 V
atom 0.9598315346447169 5.9851269359814294 20.5307677969205216 V
atom -1.7353720707600944 5.9860584924650109 18.2293245606194034 V
atom -2.9713939303931705 8.3760303646850325 20.5334848781668526 V
atom 0.8994036332177369 7.6626364274423242 19.6091956968417378 O
atom -2.9133154194874664 6.7022998816430155 21.4502118022043788 O
atom 2.1338631229068912 5.2679345932392065 19.1494604863106588 O
atom -0.5601078564126943 5.2663136786033427 19.6140082579127011 O
atom -1.7944611393470336 7.6613734740222696 19.1494888421577727 O
atom -1.4495681676787624 9.0954947781399937 21.4565644541998637 O
atom 6.3479379216261398 5.9846891728623985 20.5310403720680910 V
atom 2.4166263375483723 8.3772224039012766 20.5327780747721818 V
atom 6.2879755824788734 7.6642089327345451 19.6113479124256216 O
atom 2.4743328332003003 6.7024900419349613 21.4513360387118937 O
atom 7.5218918610330405 5.2682698598941808 19.1491215724543480 O
atom 4.8296680146010926 5.2659784520230728 19.6129321950249604 O
atom 3.5930174826435470 7.6617521955814771 19.1484948492408975 O
atom 3.9383635331135003 9.0947132270285422 21.4562927775842027 O
