#===============================================================================
# Created using the Atomic Simulation Environment (ASE)

# Mon Mar 23 14:01:45 2026

#=======================================================
lattice_vector 18.4059850900857853 0.0000000000000000 0.0000000000000000 
lattice_vector -0.0015568314247998 9.2181866113943300 0.0000000000000000 
lattice_vector 0.0000000000000000 0.0000000000000000 30.0072830441378109 
atom 8.2793616780451451 3.6887888270506979 15.0001903505217911 O
atom 0.9255315766191442 0.9214035224661464 15.0032788038663014 O
atom 5.5255796265034709 0.9204771998798045 15.0034315580806563 O
atom 6.9039478651515447 6.9153130155918978 15.0035683158085860 V
atom 8.2788865668163876 8.2973652889816059 15.0037185180121533 O
atom 5.5257061992089538 5.5295227109703333 15.0008957530304379 O
atom 16.1056355050571973 2.3050183264529616 15.0007645474896236 V
atom 17.4828008800383934 3.6891702463549048 15.0001405679092592 O
atom 14.7287186384968134 0.9210222864055484 15.0030443314366835 O
atom 16.1052162555143354 6.9146189930544359 15.0000000000000000 V
atom 17.4834908256240453 8.2965468387118495 15.0033960993968876 O
atom 12.8826790257236912 8.2964844884047455 15.0031087203096263 O
atom 14.7265181403757879 5.5319599670623134 15.0005074711482358 O
atom 2.3024998877281324 2.3037279119323886 15.0063205710783976 V
atom 6.9040506303022999 2.3064025456256965 15.0037739849418408 V
atom 3.6808502568601718 3.6872158921431928 15.0072830441378109 O
atom 2.3016882828021177 6.9130669715421247 15.0056652745534507 V
atom 0.9250862374019179 5.5296425259945909 15.0062122884858553 O
atom 3.6792378910170274 8.2973574581724385 15.0047661207539242 O
atom 11.5044472255387422 2.3023012374331571 15.0051553023962256 V
atom 10.1286881306594090 0.9209939292911010 15.0037601680327697 O
atom 12.8834077995105432 3.6868664641758877 15.0057480019306411 O
atom 11.5040972993755162 6.9113571568814693 15.0046656570804124 V
atom 10.1285401707161533 5.5292757454609456 15.0070613994381112 O
