#===============================================================================
# Created using the Atomic Simulation Environment (ASE)

# Mon Mar 23 14:01:43 2026

#=======================================================
lattice_vector 14.1833344881180565 0.0000000000000000 0.0000000000000000 
lattice_vector 3.7544216431755140 10.1019537203898881 0.0000000000000000 
lattice_vector 0.0000000000000000 0.0000000000000000 44.2861357186365296 
atom 10.0655214634021171 9.3718735283335253 17.1626908476933338 V
atom 8.7448900233550972 1.2406007540310420 15.5035609191025294 V
atom 9.2929532228822538 2.3557736472916782 18.8253220612474479 V
atom 6.8612765709287107 0.3840292577418857 20.4768716202985601 V
atom 11.8170960168677013 8.7856411045292422 17.6620960433893472 O
atom 9.2866070803526277 3.6118762032563607 20.3148991478390144 O
atom 7.5460133511773195 2.9433720462638076 18.3211928715404611 O
atom 10.0686356322622181 8.1174608875366854 15.6683787140592479 O
atom 6.3069328633643282 0.5277195237470965 18.6575495097254063 O
atom 6.9501381203946160 0.6533936580022079 16.0021136416197933 O
atom 9.2988519301870056 1.0957109138811103 17.3289059828237200 O
atom 8.6482784068453853 0.9711441713279962 19.9853687445689445 O
atom 8.1879297435180565 4.3210697618128604 17.1632557006484419 V
atom 10.6231091079423408 6.2918947748459813 15.5022902009460211 V
atom 11.1716085728142573 7.4054315173494398 18.8241759515467351 V
atom 8.7380177925986899 5.4347375791694770 20.4775415025802801 V
atom 9.9403981249809270 3.7338620792283170 17.6616912149967007 O
atom 11.1643171426913153 8.6629895405057340 20.3144711588775664 O
atom 9.4233807175672641 7.9943748722164152 18.3202921764630133 O
atom 8.1914853437298429 3.0670690435479018 15.6684843950108785 O
atom 8.1836925871432964 5.5777372595306973 18.6581331218820452 O
atom 8.8278197261787774 5.7037707609095003 16.0022874269218711 O
atom 11.1775967566241601 6.1476590848077821 17.3278657767687747 O
atom 10.5255670897551017 6.0227288115946669 19.9847336986555888 O
atom 3.3149864434192389 0.3832883259172546 20.4837543735323919 V
atom 5.7445527393476485 2.3550543233319572 18.8299056690142024 V
atom 12.2896522965733883 1.2432525473213283 15.5040202657882382 V
atom 13.6084524276313132 9.3751815454366234 17.1613752402061053 V
atom 8.8157958165024919 9.8978805751959911 20.9848324594332070 O
atom 12.2851860099447059 2.4965482695688794 16.9952554273492069 O
atom 10.5370697246582079 1.8303746852208196 15.0027990270935732 O
atom 7.0752684522739848 9.2280052245615600 18.9908831895561150 O
atom 13.0555814036983708 9.5183970470738668 15.3358690081621880 O
atom 3.9592548917752395 1.7674327405653820 19.3212002293677898 O
atom 6.3018127904063181 2.2112374222409810 20.6485057115691220 O
atom 15.4042707927285427 9.9616921156619167 16.6621434194777009 O
atom 5.1913889990711448 5.4343722144169240 20.4839949060747628 V
atom 7.6228855212083992 7.4065587328211269 18.8289315014937699 V
atom 14.1681849133126629 6.2931791219581044 15.5032041737295074 V
atom 11.7310225373316417 4.3238823762479726 17.1616162142093316 V
atom 6.9390329742361168 4.8457639444427194 20.9839114333273429 O
atom 14.1623454678897449 7.5477852037452244 16.9953350066989586 O
atom 12.4147433083562220 6.8807831937227037 15.0016141801370004 O
atom 5.1973164620746006 4.1778310645270826 18.9906878743567020 O
atom 11.1775750706776336 4.4663941177602480 15.3361352931459827 O
atom 5.8369575360672172 6.8174918036899212 19.3216207880150108 O
atom 8.1811120270480444 7.2628394660328102 20.6476186218431792 O
atom 13.5273800550381686 4.9119358466958953 16.6627136397914555 O
atom 10.4060739119747510 0.3826716711834562 20.4821226497232018 V
atom 12.8414139566975507 2.3528938902471972 18.8243809369169526 V
atom 5.1976268231746321 1.2424855367197039 15.4999266841824763 V
atom 6.5224641792401057 9.3725502992494061 17.1552044580502496 V
atom 15.9135720661889781 9.8975554960413756 20.9811782028034912 O
atom 5.1915617184267635 2.4996337476531929 16.9939156356198495 O
atom 3.4510703179902853 1.8296386523453827 15.0000000000000000 O
atom 14.1648260738029155 9.2305239754584978 18.9894955034550321 O
atom 5.9646742562730397 9.5166110933265067 15.3358534396037705 O
atom 11.0458881260042006 1.7663995258600458 19.3231182064399576 O
atom 13.3955404954865358 2.2099890700320484 20.6490442214285679 O
atom 8.3079093280939524 9.9603063359700297 16.6639367464941870 O
atom 12.2829605071534935 5.4342241366794681 20.4820155336343888 V
atom 14.7195039192541621 7.4042418052969490 18.8231291750880914 V
atom 7.0762807915061954 6.2934730270039134 15.5002438906347138 V
atom 4.6458215845659563 4.3208713877977711 17.1553726365650334 V
atom 14.0360110209946392 4.8466672273385969 20.9838193802192166 O
atom 7.0699463396814677 7.5503089734855173 16.9940486873307037 O
atom 5.3279871214038534 6.8816686422081741 15.0009419596257025 O
atom 12.2882376418576111 4.1798537459651337 18.9894837492769426 O
atom 4.0870841381761815 4.4645305733799283 15.3372015250200917 O
atom 12.9231389000337806 6.8160355877531460 19.3221103760669450 O
atom 15.2740204589785513 7.2616190738200013 20.6485905566318735 O
atom 6.4305566515676906 4.9100236626120832 16.6631990794587566 O
atom 17.1567046557949148 9.3724419978613209 17.1609983587974639 V
atom 1.6506973476403837 1.2417891740322808 15.5086317948454173 V
atom 2.2011274886435572 2.3561906792623457 18.8209313001781737 V
atom 13.9510383573274854 0.3849950385768622 20.4812936480792587 V
atom 4.7209627248412884 8.7846327347356858 17.6633766518792257 O
atom 2.1988175035793813 3.6107216802371700 20.3160980220749678 O
atom 14.6332295195696176 2.9427280611410764 18.3235727144570575 O
atom 17.1631684785008005 8.1156269326364612 15.6701307280531950 O
atom 13.3961342340042506 0.5294758298586023 18.6556489066720275 O
atom 14.0474479368324658 0.6548399323396595 15.9998419838787029 O
atom 2.2051814866635056 1.0984583227786537 17.3273960254273192 O
atom 1.5628504328898711 0.9726918985212401 19.9828840974123949 O
atom 15.2798184535151336 4.3220709567154847 17.1610092689085718 V
atom 3.5288241957283426 6.2933015490356334 15.5071339271760316 V
atom 4.0803001355789323 7.4065413888420197 18.8207079700347180 V
atom 15.8283052630517282 5.4360816067958613 20.4827467146751516 V
atom 2.8439937503794854 3.7333302652369369 17.6651968676631981 O
atom 4.0774598653206819 8.6612425785167755 20.3162733100136066 O
atom 16.5103303982665714 7.9937333298452202 18.3236305858201618 O
atom 15.2872988807484393 3.0651235797773917 15.6702025450339484 O
atom 15.2734736814874275 5.5797450786758640 18.6572602630027617 O
atom 15.9247711146914792 5.7052382488129361 16.0001761740871586 O
atom 4.0844046287375786 6.1498824528263913 17.3269745832556907 O
atom 3.4395286842719841 6.0244064472268670 19.9830795454887848 O
atom 14.5022336235225371 1.4955301556254932 23.8046149935506577 V
atom 2.7526893385329849 3.4662111017129007 22.1454850649598569 V
atom 3.3007525380601410 4.5813839949735344 25.4672462071047789 V
atom 15.0524103742246584 2.6096396054237445 27.1187957661558841 V
atom 2.0704736888700710 0.9092977318212110 24.3040201892466712 O
atom 3.2944063955305154 5.8374865509382170 26.9568232936963454 O
atom 15.7371471544732593 5.1689823939456643 24.9631170173977850 O
atom 0.3220133042646000 0.2411175148286558 22.3103028599165754 O
atom 14.4980666666602716 2.7533298714289556 25.2994736555827373 O
atom 15.1412719236905549 2.8790040056840644 22.6440377874771173 O
atom 3.3066512453648902 3.3213212615629670 23.9708301286810439 O
atom 2.6560777220232734 3.1967545190098550 26.6272928904262685 O
atom 16.3790635468139989 6.5466801094947185 23.8051798465057729 V
atom 4.6309084231202311 8.5175051225278384 22.1442143468033450 V
atom 5.1794078879921450 9.6310418650312979 25.4661000974040590 V
atom 16.9291515958946306 7.6603479268513350 27.1194656484375969 V
atom 3.9481974401588236 5.9594724269101738 24.3036153608540246 O
atom 1.4176948146936901 0.7866461677977041 26.9563953047348974 O
atom 13.8600928776876984 0.1180314995083847 24.9622163223203373 O
atom 2.1992846589077319 5.2926793912297603 22.3104085408682096 O
atom 16.3748263904392495 7.8033476072125545 25.3000572677393691 O
atom 17.0189535294747216 7.9293811085913566 22.6442115727791986 O
atom 5.1853960718020629 8.3732694324896411 23.9697899226260986 O
atom 4.5333664049329929 8.2483391592765241 26.6266578445129198 O
atom 11.5061202467151826 2.6088986735991111 27.1256785193897159 V
atom 13.9356865426435981 4.5806646710138157 25.4718298148715334 V
atom 6.2974516117512733 3.4688628950031850 22.1459444116455657 V
atom 3.8618300996336807 1.4988381727285920 23.8032993860634292 V
atom 13.2525079766229226 2.0215372024879610 27.6267566052905238 O
atom 6.2929853251225945 4.7221586172507362 23.6371795732065308 O
atom 4.5448690398360938 4.0559850329026759 21.6447231729508971 O
atom 11.5119806123944208 1.3516618518535302 25.6328073354134389 O
atom 3.3089590757007481 1.6420536743658363 21.9777931540195155 O
atom 12.1503886950711841 3.9930430882472385 25.9631243752251137 O
atom 14.4929465937022695 4.4368477699228377 27.2904298574264530 O
atom 5.6576484647309195 2.0853487429538866 23.3040675653350320 O
atom 13.3825228023670917 7.6599825620987829 27.1259190519320867 V
atom 15.8140193245043470 9.6321690805029867 25.4708556473510868 V
atom 8.1759842284905453 8.5187894696399624 22.1451283195868314 V
atom 5.7388218525095276 6.5494927239298297 23.8035403600666626 V
atom 15.1301667775320592 7.0713742921245784 27.6258355791846668 O
atom 8.1701447830676326 9.7733955514270825 23.6372591525562825 O
atom 6.4225426235341114 9.1063935414045609 21.6435383259943279 O
atom 13.3884502653705493 6.4034414122089407 25.6326120202140260 O
atom 5.1853743858555266 6.6920044654421051 21.9780594390033102 O
atom 14.0280913393631685 9.0431021513717784 25.9635449338723348 O
atom 16.3722458303439851 9.4884498137146664 27.2895427677005102 O
atom 7.5351793702160563 7.1375461943777525 23.3046377856487794 O
atom 4.4138732271526422 2.6082820188653151 27.1240467955805329 V
atom 6.8492132718754410 4.5785042379290539 25.4663050827742765 V
atom 13.3887606264705727 3.4680958844015604 22.1418508300398074 V
atom 10.9591763393605373 1.4962069265413742 23.7971286039075807 V
atom 6.1669497381913523 2.0212121233333455 27.6231023486608152 O
atom 13.3826955217227077 4.7252440953350492 23.6358397814771735 O
atom 11.6422041212862286 4.0552490000272394 21.6419241458573310 O
atom 4.4182037458052923 1.3541806027504690 25.6314196493123632 O
atom 10.4013864163934677 1.6402677206184759 21.9777775854610979 O
atom 5.0536874411820891 3.9920098735419001 25.9650423522972886 O
atom 7.4033398106644217 4.4355994177139051 27.2909683672858918 O
atom 12.7446214882143920 2.0839629632620005 23.3058608923515180 O
atom 6.2907598223313768 7.6598344843613253 27.1239396794917056 V
atom 8.7273032344320498 9.6298521529788079 25.4650533209454153 V
atom 15.2674145948021369 8.5190833746857724 22.1421680364920448 V
atom 12.8369553878619023 6.5464817354796292 23.7972967824223645 V
atom 8.0438103361725339 7.0722775750204541 27.6257435260765405 O
atom 15.2610801429774092 9.7759193211673754 23.6359728331880277 O
atom 13.5191209246997914 9.1072789898900322 21.6428661054830300 O
atom 6.2960369570355033 6.4054640936469909 25.6314078951342736 O
atom 12.2782179414721266 6.6901409210617864 21.9791256708774227 O
atom 6.9309382152116674 9.0416459354350049 25.9640345219242690 O
atom 9.2818197741564425 9.4872294215018584 27.2905147024892045 O
atom 14.6216904548636393 7.1356340102939413 23.3051232253160805 O
atom 7.4100823277972889 1.4960986251532917 23.8029225046547879 V
atom 9.8418311509363239 3.4673995217141376 22.1505559407027448 V
atom 10.3922612919395032 4.5818010269442020 25.4628554460355048 V
atom 7.9588376725053713 2.6106053862587211 27.1232177939365826 V
atom 9.1576748849617200 0.9082893620276559 24.3053007977365567 O
atom 10.3899513068753251 5.8363320279190267 26.9580221679322918 O
atom 8.6410288347475053 5.1683384088229332 24.9654968603143814 O
atom 7.4165461505031747 0.2392835599284282 22.3120548739105189 O
atom 7.4039335491821419 2.7550861775404614 25.2975730525293585 O
atom 8.0552472520103500 2.8804502800215164 22.6417661297360340 O
atom 10.3963152899594498 3.3240686704605080 23.9693201712846431 O
atom 9.7539842361858184 3.1983022462030966 26.6248082432697117 O
atom 9.2876177686930266 6.5476813043973419 23.8029334147658957 V
atom 11.7199579990242935 8.5189118967174906 22.1490580730333591 V
atom 12.2714339388748783 9.6321517365238787 25.4626321158920490 V
atom 9.8361045782296195 7.6616919544777193 27.1246708605324756 V
atom 11.0351275536754265 5.9589406129187941 24.3071210135205291 O
atom 8.5141720254411144 0.7848992058087473 26.9581974558709376 O
atom 6.7637080702689509 0.1173899571371876 24.9655547316774857 O
atom 9.2950981959263270 5.2907339274592484 22.3121266908912759 O
atom 9.2812729966653151 7.8053554263577229 25.2991844088600928 O
atom 9.9325704298693687 7.9308485964947950 22.6421003199444897 O
atom 12.2755384320335263 8.3754928005082494 23.9688987291130147 O
atom 11.6306624875679248 8.2500167949087242 26.6250036913461088 O
atom 10.9438231418289362 5.6918214493947596 28.7874092108171808 V
atom 8.5131471075605365 2.4667278625105125 28.9522270057738993 O
atom 9.1490712388684390 5.1046143533659256 29.2859619333344412 O
atom 9.0676205832406556 0.6411617498198076 28.7861384926606760 V
atom 10.3904184622036748 7.5182897389116157 28.9523326867255335 O
atom 7.2723312014771020 0.0530377358833266 29.2861357186365296 O
atom 14.4885854150472220 5.6944732426850413 28.7878685575028896 V
atom 12.7360028431320345 6.2815953805845348 28.2866473188082281 O
atom 11.5000928789966910 3.8676640220476930 28.6197172998768394 O
atom 12.6126963886109795 0.6424460969319306 28.7870524654441624 V
atom 10.8592547836545368 1.2300501686965299 28.2854624718516448 O
atom 13.3765081891514672 8.9176148131239632 28.6199835848606341 O
atom 7.3965599416484675 5.6937062320834171 28.7837749758971313 V
atom 5.6500034364641172 6.2808593477090984 28.2838482917146550 O
atom 4.4091857315713590 3.8658780683003351 28.6197017313184219 O
atom 5.5207922668045137 0.6427400019777423 28.7840921823493687 V
atom 3.7724985967021714 1.2309356171819994 28.2847902513403540 O
atom 6.2860172566500072 8.9157512687436444 28.6210498167347467 O
atom 3.8496304661142120 5.6930098693959943 28.7924800865600758 V
atom 1.4243454656810630 2.4648939076102869 28.9539790197678428 O
atom 2.0630465671882403 5.1060606277033749 29.2836902755933579 O
atom 1.9733356710266667 0.6425685240094601 28.7909822188906830 V
atom 3.3028975111042151 7.5163442751411074 28.9540508367485998 O
atom 0.1859481018717452 0.0545052237867638 29.2840244658018136 O
