#===============================================================================
# Created using the Atomic Simulation Environment (ASE)

# Mon Mar 23 14:01:42 2026

#=======================================================
lattice_vector 10.7770659663771120 0.0000000000000000 0.0000000000000000 
lattice_vector -4.9397473237365723 9.5792519092132657 0.0000000000000000 
lattice_vector 0.0000000000000000 0.0000000000000000 47.9785770665000371 
atom 2.1908232724526213 3.5884745388403254 15.9159846385850088 V
atom -1.6797361123246006 4.3040567272442667 15.0026548810514839 O
atom 2.2492517536503129 1.9165190863409329 15.0000000000000000 O
atom 7.5797715674068167 3.5886892345268162 15.9167076885993453 V
atom 3.7084950219954105 4.3040629245108510 15.0020549721256060 O
atom 7.6388409279977161 1.9168598212366739 15.0004820497751297 O
atom 3.4269438741326685 1.1981054345064222 18.2256086324184849 V
atom 0.7323046069251836 1.1974488767881022 15.9310960783312190 V
atom -0.5043453476186200 3.5905284442932222 18.2302800017227327 V
atom 3.3691194630934285 2.8725725651571437 17.3097707565111349 O
atom -1.6775744157500962 4.3068661833030086 19.6104778931708097 O
atom -0.4441384901865622 1.9118378555442859 19.1499831320180576 O
atom 4.6033815005382337 0.4825642990986487 16.8423738235367217 O
atom 2.2491316518965050 1.9139596319579637 19.6101625484354969 O
atom 1.9050622899608298 0.4797349614239738 17.3034969041420936 O
atom 0.6729788572697982 2.8709052939859161 16.8446343947106527 O
atom 1.0153898724449317 4.3086844748145907 19.1464489226612571 O
atom 8.8156581103772957 1.1976994040602171 18.2263331263048798 V
atom 6.1199522294305098 1.1973988145327246 15.9297923392081344 V
atom 4.8847116520132561 3.5911190501012031 18.2285791666421559 V
atom 8.7585647545301555 2.8725226614804491 17.3085406123045118 O
atom 3.7107326790046664 4.3068213807535249 19.6106314402956201 O
atom 4.9447660281146382 1.9114715683738586 19.1486912999480623 O
atom 9.9914202694005301 0.4817267518458992 16.8429086817279554 O
atom 7.6389035611651135 1.9138645155340088 19.6106236113411470 O
atom 7.2942842393065694 0.4805891580108596 17.3032586092915182 O
atom 6.0601982764062150 2.8715438871769927 16.8427888572912181 O
atom 6.4026672183329199 4.3089896384749817 19.1469466153028520 O
atom -0.2792748975205194 8.3793448577547416 15.9138087859849300 V
atom -4.1503189313642164 9.0938788284621044 15.0024363913416785 O
atom -0.2199931703383245 6.7049486150013191 15.0001326190901594 O
atom 3.6511859542754181 5.9865154060168360 20.5309270114199052 V
atom 5.1097182040246691 8.3800215105412885 15.9133910852433047 V
atom 1.2380878725370568 9.0948396399360139 15.0016965185122970 O
atom 5.1697064716418035 6.7059041902160406 15.0010839593300105 O
atom 0.9572294968909889 5.9861680981501992 18.2246233098744881 V
atom -1.7377341350467859 5.9881301399615481 15.9296479291326527 V
atom -2.9740798443311975 8.3768007091068188 18.2278851377872897 V
atom -0.2786314235378381 8.3792250122152474 20.5297360941704312 V
atom 0.8994050992763526 7.6624629534163988 17.3088311269633479 O
atom -4.1492180029203007 9.0970108282513884 19.6098129894550439 O
atom -2.9137952033609751 6.7018470729625950 19.1493529131786460 O
atom 2.1330615598718179 5.2723178861425657 16.8425419026975902 O
atom -0.2207487135846101 6.7023086873922697 19.6097506386391629 O
atom -0.5651586518216896 5.2693202874095233 17.3029862057596340 O
atom -1.7965484383325978 7.6597034070682426 16.8452261126957694 O
atom -1.4548906792276330 9.0986390163906066 19.1458255051226445 O
atom 6.3450815235209044 5.9862428459624946 18.2245665262879228 V
atom 3.6499777623697427 5.9875758652847395 15.9281025858207279 V
atom 2.4143566213997341 8.3781281502293243 18.2262979125080165 V
atom 5.1097791860026680 8.3802428602978001 20.5307732025466905 V
atom 6.2881590418653053 7.6639701213709142 17.3099069144198481 O
atom 1.2392436715121471 9.0982137557294234 19.6088987603345402 O
atom 2.4747494518841475 6.7018058070634554 19.1494729317853896 O
atom 7.5206834538065976 5.2731547405267944 16.8418363253710446 O
atom 5.1684027442021883 6.7036904591217565 19.6106572387529567 O
atom 4.8238774914200668 5.2697731267272614 17.3030142481948985 O
atom 3.5908642585945634 7.6606581284661592 16.8437225957155547 O
atom 3.9331363590121420 9.0982296278937369 19.1464906638110293 O
atom 3.4281278275852509 1.1977732234958420 22.8344842860327120 V
atom 0.7330341518835225 1.1965802496468181 20.5331588157726230 V
atom -0.5032100483144832 3.5900188088732712 22.8399386229254304 V
atom 2.1921441523181335 3.5876503623970586 25.1341712499649006 V
atom 3.3674381555961985 2.8743004221330093 21.9143425923249282 O
atom -1.6784152324590873 4.3032325508009999 24.2208414924313686 O
atom -0.4454153727500176 1.9130037293591937 23.7539939999680243 O
atom 4.6028748858412953 0.4786691170551264 21.4526781645440607 O
atom 2.2505726335158265 1.9156949098976654 24.2181866113798776 O
atom 1.9086968356327250 0.4774091417171919 21.9170343721342249 O
atom 0.6758631078649164 2.8727550560948569 21.4534418980932315 O
atom 1.0192677781553503 4.3064979810352373 23.7603904551201452 O
atom 8.8166312543546184 1.1978641449382639 22.8351806792423986 V
atom 6.1209185924767011 1.1963005871965524 20.5316644626737244 V
atom 4.8860560665880559 3.5905309447505012 22.8378553084271871 V
atom 7.5810924472723311 3.5878650580835485 25.1348942999792300 V
atom 8.7565443634847995 2.8745675530716461 21.9135237478538727 O
atom 3.7098159018609227 4.3032387480675842 24.2202415835054907 O
atom 4.9430387355315517 1.9124784376703006 23.7532495004657918 O
atom 9.9908384122525931 0.4786364218872935 21.4528562843931212 O
atom 7.6401618078632287 1.9160356447934068 24.2186686611550144 O
atom 7.2976279975092906 0.4779981857548452 21.9167087515743404 O
atom 6.0629512231166913 2.8728261207209207 21.4519299620772230 O
atom 6.4072039300347940 4.3059576811690823 23.7600290540186023 O
atom 3.4282647539981821 1.1972812580631549 27.4437952437983697 V
atom 0.7336254867906973 1.1966247003448351 25.1492826897111001 V
atom -0.5030244677531058 3.5897042678499544 27.4484666131026174 V
atom 2.1907711880635055 3.5890890427597291 20.5316751992293902 V
atom 3.3704403429589411 2.8717483887138759 26.5279573678910126 O
atom -1.6762535358845827 4.3060420068597418 28.8286645045506944 O
atom -0.4428176103210487 1.9110136791010190 28.3681697433979352 O
atom 4.6047023804037464 0.4817401226553814 26.0605604349166029 O
atom 2.2504525317620176 1.9131354555146964 28.8283491598153816 O
atom 1.9063831698263434 0.4789107849807066 26.5216835155219712 O
atom 0.6742997371353119 2.8700811175426488 26.0628210060905303 O
atom 1.0167107523104455 4.3078602983713230 28.3646355340411418 O
atom 8.8169789902428093 1.1968752276169501 27.4445197376847645 V
atom 6.1212731092960233 1.1965746380894573 25.1479789505880191 V
atom 4.8860325318787687 3.5902948736579354 27.4467657780220478 V
atom 7.5796826069844041 3.5891890664977764 20.5319133678808043 V
atom 8.7598856343956708 2.8716984850371823 26.5267272236843965 O
atom 3.7120535588701777 4.3059972043102563 28.8288180516755119 O
atom 4.9460869079801508 1.9106473919305913 28.3668779113279541 O
atom 9.9927411492660436 0.4809025754026320 26.0610952931078401 O
atom 7.6402244410306261 1.9130403390907418 28.8288102227210317 O
atom 7.2956051191720830 0.4797649815675920 26.5214452206714029 O
atom 6.0615191562717277 2.8707197107337259 26.0609754686711028 O
atom 6.4039880981984352 4.3081654620317140 28.3651332266827367 O
atom 0.9585106547792027 5.9859511124246980 22.8337540026801591 V
atom -1.7366929506256077 5.9868826689082795 20.5323107663790481 V
atom -2.9727148102586831 8.3768545411282993 22.8364710839264902 V
atom -0.2779540176550059 8.3785206813114765 25.1319953973648111 V
atom 0.8980827533522232 7.6634606038855919 21.9121819026013682 O
atom -4.1489980514987019 9.0930546520188358 24.2206230027215597 O
atom -2.9146362993529800 6.7031240580862832 23.7531980079640164 O
atom 2.1325422430413772 5.2687587696824743 21.4524466920702963 O
atom -0.2186722904728113 6.7041244385580532 24.2183192304700441 O
atom -0.5614287362782082 5.2671378550466113 21.9169944636723457 O
atom -1.7957820192125473 7.6621976504655374 21.4524750479174173 O
atom -1.4508890475442755 9.0963189545832606 23.7595506599595083 O
atom 6.3466170417606262 5.9855133493056663 22.8340265778277285 V
atom 3.6525068341409308 5.9856912295735683 29.7491136227997899 V
atom 2.4153054576828583 8.3780465803445434 22.8357642805318264 V
atom 5.1110390838901827 8.3791973340980235 25.1315776966231894 V
atom 6.2866547026133617 7.6650331091778137 21.9143341181852591 O
atom 1.2394087524025692 9.0940154634927470 24.2198831298921746 O
atom 2.4730119533347854 6.7033142183782282 23.7543222444715312 O
atom 7.5205709811675279 5.2690940363374477 21.4521077782139855 O
atom 5.1710273515073171 6.7050800137727720 24.2192705707099023 O
atom 4.8283471347355791 5.2668026284663396 21.9159184007845980 O
atom 3.5916966027780317 7.6625763720247457 21.4514810550005421 O
atom 3.9370426532479863 9.0955374034718091 23.7592789833438403 O
atom 0.9585503767565020 5.9853439217069333 27.4428099212543728 V
atom -1.7364132551812723 5.9873059635182804 25.1478345405125339 V
atom -2.9727589644656840 8.3759765326635520 27.4460717491671744 V
atom -0.2773105436723249 8.3784008357719806 29.7479227055503230 V
atom 0.9007259791418657 7.6616387769731329 26.5270177383432326 O
atom -4.1478971230547863 9.0961866518081198 28.8279996008349357 O
atom -2.9124743234954620 6.7010228965193273 28.3675395245585378 O
atom 2.1343824397373310 5.2714937096992980 26.0607285140774749 O
atom -0.2194278337190965 6.7014845109490038 28.8279372500190476 O
atom -0.5638377719561763 5.2684961109662565 26.5211728171395222 O
atom -1.7952275584670838 7.6588792306249776 26.0634127240756541 O
atom -1.4535697993621191 9.0978148399473362 28.3640121165025292 O
atom 6.3464024033864188 5.9854186695192277 27.4427531376678004 V
atom 3.6512986422352554 5.9867516888414718 25.1462891972006091 V
atom 2.4156775012652467 8.3773039737860575 27.4444845238879012 V
atom 5.1111000658681816 8.3794186838545333 29.7489598139265752 V
atom 6.2894799217308197 7.6631459449276473 26.5280935257997257 O
atom 1.2405645513776593 9.0973895792861565 28.8270853717144249 O
atom 2.4760703317496611 6.7009816306201868 28.3676595431652672 O
atom 7.5220043336721112 5.2723305640835285 26.0600229367509257 O
atom 5.1697236240677000 6.7028662826784906 28.8288438501328486 O
atom 4.8251983712855795 5.2689489502839928 26.5212008595747761 O
atom 3.5921851384600756 7.6598339520228915 26.0619092070954395 O
atom 3.9344572388776551 9.0974054514504701 28.3646772751909211 O
atom 3.4294487074507645 1.1969490470525748 32.0526708974125967 V
atom 0.7343550317490356 1.1957560732035508 29.7513454271525077 V
atom -0.5018891684489701 3.5891946324300035 32.0581252343053151 V
atom 3.3687590354617121 2.8734762456897416 31.1325292037048058 O
atom -0.4440944928845040 1.9121795529159265 32.9721806113479090 O
atom 4.6041957657068089 0.4778449406118592 30.6708647759239454 O
atom 1.9100177154982385 0.4765849652739246 31.1352209835141096 O
atom 0.6771839877304299 2.8719308796515897 30.6716285094731163 O
atom 1.0205886580208643 4.3056738045919696 32.9785770665000371 O
atom 8.8179521342201301 1.1970399684949955 32.0533672906222833 V
atom 6.1222394723422147 1.1954764107532851 29.7498510740536020 V
atom 4.8873769464535712 3.5897067683072343 32.0560419198070647 V
atom 8.7578652433503112 2.8737433766283784 31.1317103592337503 O
atom 4.9443596153970670 1.9116542612270335 32.9714361118456765 O
atom 9.9921592921181048 0.4778122454440261 30.6710428957730130 O
atom 7.2989488773748041 0.4771740093115784 31.1348953629542180 O
atom 6.0642721029822049 2.8720019442776534 30.6701165734571077 O
atom 6.4085248099003085 4.3051335047258155 32.9782156653984941 O
atom 2.1920920679290194 3.5882648663164618 29.7498618106092749 V
atom 7.5810034868499150 3.5883648900545086 29.7500999792606891 V
atom 0.9598315346447169 5.9851269359814294 32.0519406140600438 V
atom -1.7353720707600944 5.9860584924650109 29.7504973777589257 V
atom -2.9713939303931705 8.3760303646850325 32.0546576953063749 V
atom 0.8994036332177369 7.6626364274423242 31.1303685139812600 O
atom -2.9133154194874664 6.7022998816430155 32.9713846193439011 O
atom 2.1338631229068912 5.2679345932392065 30.6706333034501810 O
atom -0.5601078564126943 5.2663136786033427 31.1351810750522233 O
atom -1.7944611393470336 7.6613734740222696 30.6706616592972949 O
atom -1.4495681676787624 9.0954947781399937 32.9777372713393859 O
atom 6.3479379216261398 5.9846891728623985 32.0522131892076132 V
atom 2.4166263375483723 8.3772224039012766 32.0539508919117040 V
atom 6.2879755824788734 7.6642089327345451 31.1325207295651438 O
atom 2.4743328332003003 6.7024900419349613 32.9725088558514159 O
atom 7.5218918610330405 5.2682698598941808 30.6702943895938702 O
atom 4.8296680146010926 5.2659784520230728 31.1341050121644827 O
atom 3.5930174826435470 7.6617521955814771 30.6696676663804197 O
atom 3.9383635331135003 9.0947132270285422 32.9774655947237250 O
