#===============================================================================
# Created using the Atomic Simulation Environment (ASE)

# Mon Mar 23 14:01:41 2026

#=======================================================
lattice_vector 9.2181867428585846 0.0000000000000000 0.0000000000000000 
lattice_vector 0.0015442526650186 10.7770658557386358 0.0000000000000000 
lattice_vector 0.0000000000000000 0.0000000000000000 52.9947471156616103 
atom 2.3054268179170170 7.8013791303960840 15.7176867943517102 V
atom 4.6013370836436263 10.4958109682128349 15.7195581719720217 V
atom 1.3802118290426579 0.8952432313774074 15.0042102214329311 O
atom 3.6893461328219872 6.6248975743957192 16.4340106561556709 O
atom 0.9216633408945251 8.9785102138791224 15.0029061667064738 O
atom 3.2286601185448638 9.3230726180430903 16.4372337353105102 O
atom 2.3039477081551962 2.4123335885785933 15.7188787703695567 V
atom 4.6001472620081660 5.1077382185566984 15.7202347874102166 V
atom 1.3831360359178213 6.2838148169467063 15.0057829191434102 O
atom 3.6878340296864391 1.2362385732695704 16.4349714014754475 O
atom 0.9198970367186238 3.5889230672573826 15.0032847993935938 O
atom 3.2276162993190782 3.9339384467023528 16.4364521599122178 O
atom 6.9150274895849035 7.8006744635577157 15.7172209194722896 V
atom 9.2172644289112178 10.4957930230181002 15.7198510256651183 V
atom 5.9950481405980414 0.8972251943450817 15.0028009961738782 O
atom 8.2967225429484852 6.6253383089358842 16.4375545906656306 O
atom 5.5326013274282708 8.9784039703746608 15.0000000000000000 O
atom 7.8331209915443649 9.3197320900518541 16.4391412947658324 O
atom 6.9126680054823186 2.4120452456832906 15.7185482186793983 V
atom 9.2175293024017648 5.1071375729071020 15.7208689664690340 V
atom 5.9968959512807665 6.2859789274815654 15.0043082603060007 O
atom 8.2950360697397034 1.2367342033270725 16.4387574363997722 O
atom 5.5303254382510616 3.5887509717075869 15.0009545869681702 O
atom 7.8330139879960443 3.9306931219226899 16.4387319657408781 O
atom 2.3034347877124270 9.2624747449424838 18.1178571987044243 V
atom 0.0017232752430598 6.5677108552886265 18.1164584687485544 V
atom 2.3081119155487664 5.3311361584945853 20.5101032621798431 V
atom 4.6027309406476826 8.0261615893690657 20.5079399376702334 V
atom 1.3831345165044067 9.2019169427453420 19.7943021229304641 O
atom 3.6887826026906740 4.1557331250986564 21.2234404645430565 O
atom 3.2223254989728041 5.3887998364028089 18.8331699129155403 O
atom 0.9218613095991989 10.4374197818066463 17.3986295510941282 O
atom 3.6869041729949457 8.0847213005703598 18.8359025958156927 O
atom 1.3858315727242740 7.7431752213433693 17.3974110927604180 O
atom 0.9218482895065261 6.5104079653808151 19.7927155488486477 O
atom 3.2287178327138495 6.8534820863831722 21.2266647269171642 O
atom 2.3033590422154377 3.8739121608688163 18.1179481824093678 V
atom 9.2176434707654291 1.1785295989538105 18.1161786726928007 V
atom 2.3068007866747871 10.7204025165963852 20.5106152117907605 V
atom 4.6026819046340428 2.6380438696575732 20.5081546980020697 V
atom 1.3815436039667008 3.8139573569063492 19.7945691806570743 O
atom 3.6889547762996657 9.5439642900639399 21.2234466081731625 O
atom 3.2208089088117400 0.0001881403003930 18.8326445546647925 O
atom 0.9212672244385895 5.0483173716425869 17.3985968718517015 O
atom 3.6866142173086924 2.6972444947801888 18.8362433738090118 O
atom 1.3847338302267571 2.3550405188238956 17.3980001076827442 O
atom 0.9195640137898071 1.1204303862367369 19.7927864782957776 O
atom 3.2275842680715541 1.4643523789893420 21.2261243947411415 O
atom 6.9127457433413797 9.2619512002395048 18.1177773409534488 V
atom 4.6178471641004437 6.5676407428549890 18.1169156362529939 V
atom 6.9166398947089958 5.3306613801337512 20.5102007588342339 V
atom 9.2184213730540563 8.0254481197427872 20.5089671196522580 V
atom 5.9967498846233198 9.2042580422395712 19.7921625819955374 O
atom 8.2966056076527828 4.1572345637874406 21.2266618952365853 O
atom 7.8365017267516333 5.3907364305931704 18.8315924052941419 O
atom 5.5297435015411267 10.4385870099990061 17.4021125366262659 O
atom 8.2970668673012025 8.0839406056518222 18.8337553252614285 O
atom 5.9904801846510098 7.7402017524661320 17.3993244268957916 O
atom 5.5312273468145863 6.5081841137595129 19.7904537240800273 O
atom 7.8329623577651795 6.8502653153667792 21.2284386989992093 O
atom 6.9126981731590229 3.8735994216060008 18.1173713752841685 V
atom 4.6157711762754916 1.1782226411244983 18.1168654574335619 V
atom 6.9157112082671643 10.7197185681623193 20.5107912125721761 V
atom 9.2178874606529710 2.6372935934758672 20.5090671646840050 V
atom 5.9947477492887398 3.8166375988765622 19.7921125683347299 O
atom 8.2975312527459035 9.5455415812228441 21.2266171064155635 O
atom 7.8344378543539417 0.0025752229354297 18.8312260026255025 O
atom 5.5295062374590698 5.0495597911575993 17.4012750371972835 O
atom 8.2967559898984113 2.6966465377826174 18.8336602500604045 O
atom 5.9894697858220134 2.3523578249032875 17.4001786021738774 O
atom 5.5286094377724142 1.1183378863079532 19.7910921522633778 O
atom 7.8326877168621296 1.4604766788989985 21.2287439071559128 O
atom 2.3019225316003262 6.7928577634752365 22.9060350032026641 V
atom 9.2182797902490403 4.0979839610214110 22.9067607930417232 V
atom 2.3038625399358272 2.8616319800939465 25.2969386652780059 V
atom 4.5997728056624361 5.5560638179106956 25.2988100428983209 V
atom 1.3801918037264878 6.7325619368139069 24.5834620923592304 O
atom 3.6877818548407979 1.6851504240935813 26.0132625270819737 O
atom 3.2207474173195725 2.9195791105748983 23.6232901513293925 O
atom 0.9208475909123203 7.9670872589024349 22.1887191638807231 O
atom 3.6862548501545120 5.6154764442740843 23.6243321171945411 O
atom 1.3850094799885961 5.2730497418720645 22.1871397833778161 O
atom 0.9200990629133358 4.0387630635769849 24.5821580376327695 O
atom 3.2270958405636740 4.3833254677409537 26.0164856062368059 O
atom 2.3014229584236325 1.4038982003400864 22.9055972644556896 V
atom 9.2176681007549650 9.4858630088843405 22.9063934064334624 V
atom 2.3039276828390252 8.2496522940150925 25.2981306412958560 V
atom 4.5985829840269767 0.1679910682545607 25.2994866583365194 V
atom 1.3815717579366322 1.3440676666445683 24.5850347900697095 O
atom 3.6878140043702690 7.0735572787060681 26.0142232724017504 O
atom 3.2226436363681823 8.3072271468623775 23.6234804121359296 O
atom 0.9197364484993289 2.5780501345433664 22.1890544002328660 O
atom 3.6864341457838319 0.2281100388784520 23.6252877774625425 O
atom 1.3847057515147234 10.6628257117392948 22.1868044605906327 O
atom 0.9198770114024531 9.4262417726938814 24.5825366703198931 O
atom 3.2275962740029076 9.7712571521388494 26.0157040308385170 O
atom 6.9109784444150080 6.7922370508808720 22.9058398973646185 V
atom 4.6156167579248430 4.0976022951216757 22.9075967508031120 V
atom 6.9134632116037151 2.8609273132555768 25.2964727903985889 V
atom 9.2157001509300294 5.5560458727159618 25.2991028965914175 V
atom 5.9950281152818707 6.7345438997815794 24.5820528671001810 O
atom 8.2951582649672968 1.6855911586337484 26.0168064615919228 O
atom 7.8350893657507124 2.9210798944431167 23.6216015472210472 O
atom 5.5291293663501140 7.9682671319718557 22.1918661195537545 O
atom 8.2958729317241424 5.6140603858944544 23.6221043247294631 O
atom 5.9891873011557903 5.2699809705821714 22.1889096880776755 O
atom 5.5310370494470815 4.0386568200725241 24.5792518709262957 O
atom 7.8315567135631756 4.3799849397497139 26.0183931656921317 O
atom 6.9101494302390121 1.4030231745974193 22.9059146400997236 V
atom 4.6148434728699579 9.4853143586535218 22.9070423379630022 V
atom 6.9126479801661471 8.2493639511197898 25.2978000896056940 V
atom 9.2159650244205746 0.1673904226049650 25.3001208373953297 V
atom 5.9953316732995772 1.3462317771794257 24.5835601312323000 O
atom 8.2950160444235337 7.0740529087635711 26.0180093073260714 O
atom 7.8359815160502340 8.3096244771708090 23.6215602920526564 O
atom 5.5276514573293740 2.5788232159714557 22.1927029108506240 O
atom 8.2960073705731450 0.2261458027274185 23.6234861775104186 O
atom 5.9899875015339852 10.6590170544871050 22.1893625299008086 O
atom 5.5303054129348901 9.4260696771440866 24.5802064578944695 O
atom 7.8329939626798719 9.7680118273591887 26.0179838366671738 O
atom 2.3018705097312377 4.3227275946403463 27.6971090696307236 V
atom 9.2183457401204549 1.6279637049864857 27.6957103396748501 V
atom 2.3065476375675771 0.3913890081924498 30.0893551331061424 V
atom 4.6011666626664933 3.0864144390669286 30.0871918085965326 V
atom 1.3815702385232176 4.2621697924432054 29.3735539938567634 O
atom 3.6887625773745025 9.9930518305351530 30.8026923354693487 O
atom 3.2207612209916143 0.4490526861006716 28.4124217838418396 O
atom 0.9202970316180095 5.4976726315045088 26.9778814220204275 O
atom 3.6853398950137572 3.1449741502682218 28.4151544667419920 O
atom 1.3842672947430850 2.8034280710412283 26.9766629636867137 O
atom 0.9202840115253366 1.5706608150786781 29.3719674197749505 O
atom 3.2271535547326611 1.9137349360810367 30.8059165978434670 O
atom 2.3033390168992671 9.7112308663053142 27.6972000533356670 V
atom 9.2176234454492612 7.0158483043903077 27.6954305436191000 V
atom 2.3052365086935982 5.7806553662942468 30.0898670827170598 V
atom 4.6026618793178722 8.4753625750940689 30.0874065689283690 V
atom 1.3815235786505304 9.6512760623428484 29.3738210515833664 O
atom 3.6873904983184760 4.6042171397618006 30.8026984790994582 O
atom 3.2207888834955694 5.8375068457368915 28.4118964255910917 O
atom 0.9197029464574001 0.1085702213404500 26.9778487427780043 O
atom 3.6865941919925227 8.5345632002166880 28.4154952447353146 O
atom 1.3847138049105863 8.1923592242603931 26.9772519786090470 O
atom 0.9195439884736366 6.9577490916732341 29.3720383492220698 O
atom 3.2275642427553835 7.3016710844258403 30.8053762656674444 O
atom 6.9111814653601913 4.3222040499373682 27.6970292118797552 V
atom 4.6162828861192535 1.6278935925528530 27.6961675071792932 V
atom 6.9150756167278065 0.3909142298316131 30.0894526297605331 V
atom 9.2168570950728679 3.0857009694406496 30.0882189905785573 V
atom 5.9951856066421305 4.2645108919374310 29.3714144529218295 O
atom 8.2965855823366130 9.9945532692239389 30.8059137661628775 O
atom 7.8349374487704440 0.4509892802910309 28.4108442762204483 O
atom 5.5281792235599374 5.4988398596968686 26.9813644075525687 O
atom 8.2955025893200141 3.1441934553496846 28.4130071961877242 O
atom 5.9889159066698188 2.8004546021639944 26.9785762978220909 O
atom 5.5296630688333961 1.5684369634573743 29.3697055950063266 O
atom 7.8313980797839911 1.9105181650646410 30.8076905699255157 O
atom 6.9126781478428523 9.7109181270424987 27.6966232462104678 V
atom 4.6157511509593210 7.0155413465609948 27.6961173283598576 V
atom 6.9141469302859742 5.7799714178601809 30.0900430834984753 V
atom 9.2178674353367995 8.4746122989123656 30.0883190356103078 V
atom 5.9947277239725691 9.6539563043130627 29.3713644392610327 O
atom 8.2959669747647169 4.6057944309207048 30.8058689773418628 O
atom 7.8344178290377711 5.8398939283719260 28.4104778735518018 O
atom 5.5279419594778805 0.1098126408554629 26.9805269081235828 O
atom 8.2967359645822398 8.5339652432191144 28.4129121209867073 O
atom 5.9894497605058437 8.1896765303397849 26.9794304731001802 O
atom 5.5285894124562436 6.9556565917444502 29.3703440231896771 O
atom 7.8326676915459590 7.2977953843354957 30.8079957780822120 O
atom 2.3003582536191374 1.8531106131730981 32.4852868741289598 V
atom 9.2182597649328706 9.9353026664579094 32.4860126639680118 V
atom 2.3038425146196566 8.6989506855304448 34.8761905362043052 V
atom 4.5982085276812468 0.6163166676085590 34.8780619138246095 V
atom 1.3786275257452982 1.7928147865117696 34.1627139632855261 O
atom 3.6877618295246277 7.5224691295300792 35.5925143980082623 O
atom 3.2207273920034019 8.7568978160113957 33.2025420222556988 O
atom 0.9192833129311312 3.0273401086002982 31.7679710348070223 O
atom 3.6846905721733223 0.6757292939719459 33.2035839881208403 O
atom 1.3834452020074068 0.3333025915699255 31.7663916543041189 O
atom 0.9200790375971651 9.8760817690134832 34.1614099085590652 O
atom 3.2270758152475039 10.2206441731774529 35.5957374771630981 O
atom 2.3014029331074628 7.2412169057765849 32.4848491353819782 V
atom 9.2161038227737766 4.5461158585822039 32.4856452773597510 V
atom 2.3023634048578363 3.3099051437129536 34.8773825122221552 V
atom 4.5985629587108070 6.0053097736910592 34.8787385292628187 V
atom 1.3815517326204616 7.1813863720810689 34.1642866609960123 O
atom 3.6862497263890797 2.1338101284039328 35.5934751433280496 O
atom 3.2210793583869939 3.3674799965602387 33.2027322830622182 O
atom 0.9197164231831580 8.4153688399798643 31.7683062711591653 O
atom 3.6864141204676608 6.0654287443149499 33.2045396483888453 O
atom 1.3831414735335339 5.7230785614371555 31.7660563315169249 O
atom 0.9183127334212638 4.4864946223917439 34.1617885412461817 O
atom 3.2260319960217183 4.8315100018367119 35.5949559017648056 O
atom 6.9094141664338187 1.8524899005787354 32.4850917682909142 V
atom 4.6155967326086715 9.9349210005581732 32.4868486217294077 V
atom 6.9134431862875445 8.6982460186920747 34.8757246613248810 V
atom 9.2141358729488410 0.6162987224138246 34.8783547675177203 V
atom 5.9934638373006823 1.7947967494794415 34.1613047380264732 O
atom 8.2951382396511253 7.5229098640702450 35.5960583325182256 O
atom 7.8350693404345426 8.7583985998796141 33.2008534181473465 O
atom 5.5275650883689256 3.0285199816697186 31.7711179904800538 O
atom 8.2943086537429540 0.6743132355923186 33.2013561956557623 O
atom 5.9876230231746010 0.3302338202800348 31.7681615590039748 O
atom 5.5310170241309109 9.8759755255090234 34.1585037418525985 O
atom 7.8315366882470059 10.2173036451862131 35.5976450366184309 O
atom 6.9101294049228406 7.2403418800339177 32.4851665110260228 V
atom 4.6132791948887695 4.5455672083513834 32.4862942088893050 V
atom 6.9110837021849578 3.3096168008176505 34.8770519605320004 V
atom 9.2159449991044031 6.0047091280414637 34.8793727083216254 V
atom 5.9953116479834074 7.1835504826159235 34.1628120021586028 O
atom 8.2934517664423453 2.1343057584614336 35.5972611782523671 O
atom 7.8344172380690447 3.3698773268686697 33.2008121629789485 O
atom 5.5276314320132034 8.4161419214079540 31.7719547817769303 O
atom 8.2959873452569752 6.0634645081639178 33.2027380484367143 O
atom 5.9884232235527959 5.7192699041849675 31.7686144008271079 O
atom 5.5287411349537008 4.4863225268419473 34.1594583288207758 O
atom 7.8314296846986826 4.8282646770570512 35.5972357075934696 O
atom 2.3018504844150671 10.1600463000768446 37.2763609405570264 V
atom 9.2183257148042834 7.4652824104229856 37.2749622106011458 V
atom 3.2207411956754437 6.2863713915371697 37.9916736547681353 O
atom 0.9187327536368204 0.5579254812023693 36.5571332929467161 O
atom 3.6853198696975866 8.9822928557047188 37.9944063376682948 O
atom 1.3842472694269143 8.6407467764777284 36.5559148346130200 O
atom 2.3017747389180783 4.7714837160031767 37.2764519242619627 V
atom 9.2160591674680710 2.0761011540881711 37.2746824145453957 V
atom 3.2192246055143796 0.8977596954347534 37.9911482965173946 O
atom 0.9196829211412295 5.9458889267769477 36.5571006137042929 O
atom 3.6850299140113330 3.5948160499145483 37.9947471156616103 O
atom 1.3831495269293972 3.2526120739582556 36.5565038495353463 O
atom 6.9111614400440216 10.1595227553738656 37.2762810828060509 V
atom 4.6162628608030838 7.4652122979893516 37.2754193781055960 V
atom 7.8349174234542742 6.2883079857275295 37.9900961471467440 O
atom 5.5266149455787490 0.5590927093947303 36.5606162784788609 O
atom 8.2954825640038425 8.9815121607861794 37.9922590671140199 O
atom 5.9888958813536499 8.6377733076004919 36.5578281687483866 O
atom 6.9111138698616630 4.7711709767403612 37.2758751171367635 V
atom 4.6141868729781326 2.0757941962588582 37.2753691992861604 V
atom 7.8328535510565827 0.9001467780697875 37.9897297444781117 O
atom 5.5279219341617116 5.9471313462919611 36.5597787790498785 O
atom 8.2951716866010514 3.5942180929169765 37.9921639919130030 O
atom 5.9878854825246535 3.2499293800376470 36.5586823440264652 O
