#===============================================================================
# Created using the Atomic Simulation Environment (ASE)

# Mon Mar 23 14:01:44 2026

#=======================================================
lattice_vector 10.7779019647855687 0.0000000000000000 0.0000000000000000 
lattice_vector 4.9380262626701636 13.2931389776887805 0.0000000000000000 
lattice_vector 0.0000000000000000 0.0000000000000000 39.3037719367794196 
atom 10.2712807465183733 11.7910570014880935 18.8219867960395035 V
atom 11.5054406060352203 11.9214462182678815 15.5024268316215057 V
atom 9.2612674663875261 0.2292450665123603 17.1632201261290867 V
atom 8.0238228609251507 0.0949465093006185 20.4766983544145766 V
atom 11.7891705980526602 10.6382199524334577 18.6544619993913976 O
atom 10.4337842329667279 1.7038873962233176 17.6605210742881731 O
atom 7.7442708329443342 1.3798765122373877 17.3244203865893347 O
atom 9.0937386735713872 10.3180268005615101 18.3218805895567733 O
atom 11.4490589305343029 13.2675908420483175 19.3213526689159956 O
atom 10.3274193319657108 12.3657261179063820 16.9955385597092246 O
atom 13.0214045923390955 12.0427230924573703 16.6629855650199090 O
atom 14.1383058584075165 12.9491283960793027 18.9924743876123827 O
atom 7.8030309236587794 1.9490498348377332 15.5013693388955112 V
atom 9.0358072033517054 8.4702576195453769 18.8219914369403938 V
atom 11.7297308144590477 10.0696407749928358 20.4834636092933877 V
atom 10.4935054168086861 3.5457710520949903 17.1564136289718761 V
atom 9.3208011200624359 0.7947178458393344 15.3331803304531249 O
atom 12.9022722638718417 11.5461416220078714 20.9810346592190129 O
atom 10.2121842899071762 11.2220631938376911 20.6447982994886630 O
atom 6.6256264300573724 0.4760467922473128 15.0005176694105238 O
atom 8.9805335166827920 3.4246572631139158 16.0013293561633461 O
atom 7.8580782885590663 8.9143908269059242 20.3168664629563800 O
atom 10.5524478843419303 8.5919164269327606 19.9821581703079119 O
atom 11.6697550091221274 3.1069594061666441 15.6705445409420889 O
atom 10.2721186427885129 8.5956600555941964 15.5006656795724922 V
atom 6.5671828288644205 1.8289856113123395 18.8287247564501179 V
atom 9.2609028510113252 3.4250344176386078 20.4836810368922997 V
atom 12.9637570624669483 10.1968681627607065 17.1602089150857182 V
atom 11.7868643225339245 7.4446529561693922 15.3373529983303243 O
atom 10.4352904864564113 4.8968908202563668 20.9826848785436937 O
atom 7.7413114923560222 4.5785909203222301 20.6499046938354702 O
atom 9.0969684655612859 7.1193799662175854 15.0017044581748920 O
atom 11.4481770725019718 10.0736317572671812 15.9998296087277225 O
atom 5.3917881127519065 2.2666873901872457 20.3122416212741577 O
atom 8.0817182965138485 1.9478627776972013 19.9822318942131716 O
atom 14.1420265128721905 9.7513312994220378 15.6664322698397314 O
atom 7.8019926125294079 5.1455204785690869 18.8223002325206323 V
atom 9.0372261980343414 5.2793250096251638 15.5060939345901794 V
atom 11.7308696889488608 6.8739843617296534 17.1618363731511536 V
atom 10.4939904331307616 6.7460979615231329 20.4817754374623568 V
atom 9.3167197543541214 3.9925721795593945 18.6581429930734686 O
atom 12.9050362798790257 8.3478167364910494 17.6615121581625800 O
atom 10.2104977424135850 8.0282381202037865 17.3279566129040532 O
atom 6.6267684904842152 3.6696839310984966 18.3226489188268182 O
atom 8.9778426237811200 6.6225295294142459 19.3220250545043015 O
atom 7.8619136265217175 5.7164588671039134 16.9916361581736943 O
atom 10.5525699881638104 5.3978732640300207 16.6591656627522084 O
atom 11.6731911403721362 6.3017197376350289 18.9872438451355485 O
atom 4.8809251886231708 11.7908645168688473 18.8211584772901261 V
atom 6.1170236848310564 11.9205408993976274 15.5021211385746440 V
atom 3.8696674976433436 0.2275256434815015 17.1600623246176589 V
atom 2.6360807494725358 0.0931705077659355 20.4753877703631915 V
atom 6.3995681134364837 10.6365435420874661 18.6530766075060477 O
atom 5.0453326051845755 1.7041252354688925 17.6599889158473573 O
atom 2.3554600807152903 1.3787432825788117 17.3244063007764524 O
atom 14.4833121453875169 10.3180070801456001 18.3215783034685309 O
atom 6.0587564168476078 13.2676752669156262 19.3214554784125667 O
atom 4.9386751359825380 12.3658258259847180 16.9953872045311201 O
atom 7.6331025429815806 12.0432475701552146 16.6611388603098618 O
atom 8.7496579863376329 12.9486629669043509 18.9917567736005495 O
atom 2.4123874501400251 1.9489922872112599 15.4998229210511695 V
atom 3.6473149612014475 8.4694614678559663 18.8217341764384258 V
atom 6.3393061333163923 10.0694491855402752 20.4807458187245750 V
atom 5.1061533506736581 3.5430227510510668 17.1544555709096898 V
atom 3.9326036966950517 0.7950127919681331 15.3340211885246660 O
atom 7.5145885709485585 11.5458546752497853 20.9808133281962306 O
atom 4.8243787627953765 11.2225056367172797 20.6458613522765368 O
atom 1.2375950885753175 0.4755052640685880 15.0000000000000000 O
atom 3.5907268349422226 3.4247933460674416 16.0020337862873347 O
atom 13.2460274296690006 8.9137344238263285 20.3164012791515276 O
atom 5.1642402985126239 8.5924484106172123 19.9810231071210360 O
atom 6.2808947562740931 3.1066387134254536 15.6698121543639211 O
atom 4.8817052251462671 8.5953910096205846 15.4995570731735626 V
atom 1.1792454501061398 1.8277386131734679 18.8279150237615696 V
atom 3.8689073725593399 3.4243920302089830 20.4809754209599326 V
atom 7.5750434816972048 10.1950534171446261 17.1592642083862330 V
atom 6.3980753553882037 7.4438120344568208 15.3368582191413196 O
atom 5.0476117042807624 4.8973918660801115 20.9812798049206179 O
atom 2.3526017163964590 4.5778884031602960 20.6497061440989143 O
atom 3.7083354604314644 7.1197401585226157 15.0015910678196462 O
atom 6.0580942719946149 10.0737720683721061 15.9991228650228479 O
atom 10.7808621509337712 2.2665690485075336 20.3116467100361184 O
atom 2.6918727926855683 1.9483246749856529 19.9826085952216381 O
atom 8.7535540605488453 9.7510510418193199 15.6658367509185439 O
atom 2.4124016734842377 5.1451030231277004 18.8202501107312123 V
atom 3.6488112235771890 5.2780358117549602 15.5049894892529494 V
atom 6.3398135038586965 6.8735748108721291 17.1590643426042107 V
atom 5.1063221339415898 6.7448548630824687 20.4813894097144740 V
atom 3.9296315514273061 3.9932588583395199 18.6593784144321972 O
atom 7.5183956158580729 8.3470663130433049 17.6598295839668609 O
atom 4.8222417739963133 8.0286377741807762 17.3286568067763120 O
atom 12.0177166982853389 3.6688979697672970 18.3219170275990493 O
atom 3.5893568277062196 6.6228884198248483 19.3217263083395423 O
atom 2.4728141380508268 5.7167767396581333 16.9909910631732828 O
atom 5.1629168713405429 5.3983441752467209 16.6600083866332866 O
atom 6.2837400035200686 6.3013114890750295 18.9870039428516151 O
atom 6.5660764385858661 5.0201262359507259 22.1446866102383453 V
atom 9.2599295616083381 6.6210640618839829 23.8054799047459298 V
atom 10.4324463281875364 8.0957063915949430 24.3027808529050162 O
atom 7.7429329281651444 7.7716955076090128 23.9666801652061778 O
atom 5.3880551645163548 5.4644061355892246 23.6377983383260712 O
atom 8.0820404248897404 5.1414031101402111 23.3052453436367486 O
atom 7.8016930188795870 8.3408688302093577 22.1436291175123543 V
atom 10.4921675120294964 9.9375900474666157 23.7986734075887156 V
atom 9.3194632152832462 7.1865368412109563 21.9754401090699680 O
atom 6.6242885252781818 6.8678657876189382 21.6427774480273634 O
atom 8.9791956119036040 9.8164762584855385 22.6435891347801928 O
atom 11.6684171043429377 9.4987784015382672 22.3128043195589285 O
atom 5.3327544753391596 1.6943400732770397 22.1429254581893318 V
atom 8.0243928950175949 3.2955481804435509 23.8024686937025578 V
atom 6.8475001550845693 0.5433329738522350 21.9796127769471639 O
atom 4.1576042981119299 0.2180599839004267 21.6439642367917351 O
atom 6.5088129050526140 3.1723117749500251 22.6420893873445621 O
atom 9.2026623454228371 2.8500113171048800 22.3086920484565709 O
atom 9.0358882932551481 11.6711440049967869 22.1483537132070225 V
atom 11.7295317841696676 13.2658033571012748 23.8040961517680003 V
atom 7.9656721124296723 1.4464967541738942 24.3037719367794196 O
atom 5.2711335749642290 1.1269181378866289 23.9702163915208999 O
atom 7.8605757217425278 12.1082778624755374 23.6338959367905375 O
atom 10.5512320833846207 11.7896922594016456 23.3014254413690409 O
atom 11.9555614821672709 5.0192209170804682 22.1443809171914907 V
atom 3.8683295928641517 6.6193446388531223 23.8023221032345091 V
atom 5.0439947004053840 8.0959442308405158 24.3022486944642040 O
atom 13.1320241407216667 7.7705622779504342 23.9666660793932991 O
atom 10.7772129333187525 5.4645058436675598 23.6376469831479668 O
atom 2.6937383755322255 5.1419275878380564 23.3033986389267014 O
atom 13.1889515101464028 8.3408112825828820 22.1420826996680091 V
atom 5.1048154458944675 9.9348417464226895 23.7967153495265293 V
atom 3.9312657919158598 7.1868317873397540 21.9762809671415127 O
atom 12.0141591485816939 6.8673242594402097 21.6422597786168431 O
atom 14.3672908949485993 9.8166123414390665 22.6442935649041814 O
atom 6.2795568514949025 9.4984577087970781 22.3120719329807642 O
atom 10.7202430224824816 1.6940710273034314 22.1418168517904022 V
atom 2.6356793142478505 3.2937334348274701 23.8015239870030726 V
atom 1.4587111879388490 0.5424920521396642 21.9791179977581628 O
atom 9.5468732577676771 0.2184201762054577 21.6438508464364894 O
atom 11.8966320693308294 3.1724520860549488 22.6413826436396945 O
atom 3.8141898930994911 2.8497310595021643 22.3080965295353835 O
atom 14.4253752835835645 11.6698548071265815 22.1472492678697890 V
atom 6.3384755990795050 13.2653938062437504 23.8013241212210573 V
atom 2.5790314484087182 1.4457463307261453 24.3020893625837076 O
atom 10.6607795713325260 1.1273177918636195 23.9709165853931552 O
atom 13.2493781980572045 12.1085957350297608 23.6332508417901224 O
atom 5.1615789665613523 11.7901631706183441 23.3022681652501191 O
