#===============================================================================
# Created using the Atomic Simulation Environment (ASE)

# Mon Mar 23 14:01:46 2026

#=======================================================
lattice_vector 10.7863573876396668 0.0000000000000000 0.0000000000000000 
lattice_vector 2.8859864345801114 10.3931385144755009 0.0000000000000000 
lattice_vector 0.0000000000000000 0.0000000000000000 34.0316500683942138 
atom 5.0154572226756775 3.8125607513189803 15.8497810930426581 V
atom 7.6419067820407331 5.8092917291182529 15.0004435529002862 O
atom 6.1989526852363230 0.6126824088272540 15.0000590461166112 O
atom 2.2493276910848219 5.8094847557901206 15.0000000000000000 O
atom 10.4085780380114361 3.8125010289553969 15.8497988940817862 V
atom 11.8515507788237198 9.0091212344210057 15.8497317139570413 V
atom 0.8061419569525550 0.6126880326800376 15.0008647736065690 O
atom 6.2691071443055577 4.7657456553591402 19.0305895105022280 V
atom 6.1991378010434524 4.7125678986241759 17.1204563264442484 O
atom 7.7819942852494988 5.9158713644308083 18.8197928868278694 O
atom 5.0857610711601637 6.3227272787764592 19.0304567578399926 O
atom 7.4529217223799265 3.2092553444792911 19.0303470097938465 O
atom 3.5723800197577993 2.7155739269895398 17.9702107576240948 V
atom 7.7119213984251793 5.8625077987705989 16.9100452899057281 V
atom 9.2244311472751974 7.0123706488446063 16.6994391607073709 O
atom 6.5285559172075063 7.4192632223749477 16.9103316776864645 O
atom 8.8950194363643238 4.3056722372614793 16.9104544167118860 O
atom 5.0156558730160556 7.9123259807526916 17.9704507627907120 V
atom 6.2691338760952426 0.6659411476599012 16.9098879820927905 V
atom 7.7818035650223321 1.8158800740634868 16.6993291402164523 O
atom 5.0858248716581889 2.2237902889642243 16.9090327095203179 O
atom 10.3393348115523942 9.5021484739258106 16.9092311901281391 O
atom 6.4584161433746479 9.0091704605256027 15.8498802861658028 V
atom 7.7120787588056103 9.9621524474443994 19.0307814225084080 V
atom 7.6421514745923051 9.9092305004178503 17.1208634774610466 O
atom 6.3388088755936458 0.7190541380033070 18.8198680616041543 O
atom 3.6417232214373771 1.1259680260572087 19.0315728399900337 O
atom 8.8953613752435388 8.4045955592998158 19.0313785455290372 O
atom 8.9657057971326068 2.7158114198255738 17.9703754699366698 V
atom 2.3190759268996253 5.8625518325634696 16.9100399831827417 V
atom 3.8321162345980437 7.0125609766326491 16.6991765631550564 O
atom 11.9220119725623093 7.4203156245528996 16.9093189515554734 O
atom 3.5035828927881121 4.3053832692323413 16.9090657988589328 O
atom 11.6623813047602045 4.7656052636097428 19.0309298997869760 V
atom 11.5925069094753379 4.7122935206293883 17.1214321375796175 O
atom 2.3886246163060592 5.9152314658125400 18.8203225188212642 O
atom 10.4781078812573867 6.3226293251064813 19.0315155104106282 O
atom 2.0593723207250805 3.2076538702972348 19.0316500683942138 O
atom 13.1056690421107813 9.9622524013536573 19.0304528935192607 V
atom 13.0355533586151964 9.9089831839341667 17.1204050808045523 O
atom 0.9464599722377849 0.7191634882001601 18.8200122195366077 O
atom 9.0364750352373022 1.1261581760523878 19.0302985613599489 O
atom 3.5027267215973152 8.4052303079326851 19.0303376865387790 O
atom 10.4087985120256210 7.9124214620255167 17.9705407301904785 V
atom 0.8758564694514872 0.6656555566154266 16.9103253943284813 V
atom 2.3883071390326283 1.8151649055620429 16.6992947184661134 O
atom 10.4786694483671088 2.2222685278861061 16.9105293347429857 O
atom 4.9452422406557330 9.5019486495471526 16.9103436761434551 O
