#===============================================================================
# Created using the Atomic Simulation Environment (ASE)

# Mon Mar 23 14:01:44 2026

#=======================================================
lattice_vector 10.7779019647855687 0.0000000000000000 0.0000000000000000 
lattice_vector 4.9380262626701636 13.2931389776887805 0.0000000000000000 
lattice_vector 0.0000000000000000 0.0000000000000000 40.9650086082752267 
atom 12.9631870283745076 6.9962664916177779 15.4956752472935371 V
atom 11.7310687192382375 3.6778217796212145 15.5024405021723481 V
atom 2.1257082038654649 5.1543226266362465 16.0000115520979769 O
atom 10.2135221946863659 4.8302441984660662 15.6637751923676305 O
atom 7.8594161933382614 2.5225718315343006 15.3358433558353404 O
atom 10.5537857891211200 2.2000974315611352 15.0011350631868758 O
atom 14.2002670184606821 10.3263543999557648 15.5026579297712601 V
atom 4.5967526891201960 11.7982108025735251 16.0016617714226541 O
atom 12.6806756598053756 11.4799109026393875 15.6688815867144342 O
atom 10.3311522802012625 9.1680073725044053 15.3312185141531216 O
atom 13.0210824639632037 8.8491827600143598 15.0012087870921356 O
atom 10.4953283379099531 0.3542789661515074 15.5007523303413208 V
atom 7.5754449169218896 6.9944904900830958 15.4943646632421519 V
atom 6.3406440380955829 3.6776301901686539 15.4997227116035390 V
atom 7.5159264757277500 5.1540356798781639 15.9997902210751946 O
atom 4.8257166675745671 4.8306866413456566 15.6648382451555008 O
atom 2.4694633696626238 2.5219154284547072 15.3353781720304880 O
atom 5.1655782032918154 2.2006294152455905 15.0000000000000000 O
atom 8.8082715400086951 10.3257120125261412 15.4999523138388966 V
atom 9.9869758717301185 11.7987118483972679 16.0002566977995784 O
atom 7.2919658838458137 11.4792083854774560 15.6686830369778782 O
atom 4.9423243535975567 9.1678890308246945 15.3306236029150789 O
atom 7.6312369601349239 8.8496446573028109 15.0015854881006021 O
atom 5.1076600387207813 0.3530358677108483 15.5003663025934415 V
atom 10.2712807465183733 11.7910570014880935 20.4832234675353106 V
atom 11.5054406060352203 11.9214462182678815 17.1636635031173128 V
atom 9.2612674663875261 0.2292450665123603 18.8244567976248938 V
atom 8.0238228609251507 0.0949465093006185 22.1379350259103838 V
atom 11.7891705980526602 10.6382199524334577 20.3156986708872047 O
atom 10.4337842329667279 1.7038873962233176 19.3217577457839802 O
atom 7.7442708329443342 1.3798765122373877 18.9856570580851418 O
atom 9.0937386735713872 10.3180268005615101 19.9831172610525805 O
atom 11.4490589305343029 13.2675908420483175 20.9825893404118027 O
atom 10.3274193319657108 12.3657261179063820 18.6567752312050317 O
atom 13.0214045923390955 12.0427230924573703 18.3242222365157161 O
atom 14.1383058584075165 12.9491283960793027 20.6537110591081898 O
atom 7.8030309236587794 1.9490498348377332 17.1626060103913183 V
atom 9.0358072033517054 8.4702576195453769 20.4832281084362009 V
atom 11.7297308144590477 10.0696407749928358 22.1447002807891948 V
atom 10.4935054168086861 3.5457710520949903 18.8176503004676832 V
atom 9.3208011200624359 0.7947178458393344 16.9944170019489320 O
atom 12.9022722638718417 11.5461416220078714 22.6422713307148200 O
atom 10.2121842899071762 11.2220631938376911 22.3060349709844701 O
atom 6.6256264300573724 0.4760467922473128 16.6617543409063309 O
atom 8.9805335166827920 3.4246572631139158 17.6625660276591532 O
atom 7.8580782885590663 8.9143908269059242 21.9781031344521871 O
atom 10.5524478843419303 8.5919164269327606 21.6433948418037190 O
atom 11.6697550091221274 3.1069594061666441 17.3317812124378960 O
atom 10.2721186427885129 8.5956600555941964 17.1619023510682993 V
atom 6.5671828288644205 1.8289856113123395 20.4899614279459250 V
atom 9.2609028510113252 3.4250344176386078 22.1449177083881068 V
atom 12.9637570624669483 10.1968681627607065 18.8214455865815253 V
atom 11.7868643225339245 7.4446529561693922 16.9985896698261314 O
atom 10.4352904864564113 4.8968908202563668 22.6439215500395008 O
atom 7.7413114923560222 4.5785909203222301 22.3111413653312773 O
atom 9.0969684655612859 7.1193799662175854 16.6629411296706991 O
atom 11.4481770725019718 10.0736317572671812 17.6610662802235296 O
atom 5.3917881127519065 2.2666873901872457 21.9734782927699648 O
atom 8.0817182965138485 1.9478627776972013 21.6434685657089787 O
atom 14.1420265128721905 9.7513312994220378 17.3276689413355385 O
atom 7.8019926125294079 5.1455204785690869 20.4835369040164395 V
atom 9.0372261980343414 5.2793250096251638 17.1673306060859865 V
atom 11.7308696889488608 6.8739843617296534 18.8230730446469607 V
atom 10.4939904331307616 6.7460979615231329 22.1430121089581640 V
atom 9.3167197543541214 3.9925721795593945 20.3193796645692757 O
atom 12.9050362798790257 8.3478167364910494 19.3227488296583871 O
atom 10.2104977424135850 8.0282381202037865 18.9891932843998603 O
atom 6.6267684904842152 3.6696839310984966 19.9838855903226253 O
atom 8.9778426237811200 6.6225295294142459 20.9832617260001086 O
atom 7.8619136265217175 5.7164588671039134 18.6528728296695014 O
atom 10.5525699881638104 5.3978732640300207 18.3204023342480156 O
atom 11.6731911403721362 6.3017197376350289 20.6484805166313556 O
atom 4.8809251886231708 11.7908645168688473 20.4823951487859333 V
atom 6.1170236848310564 11.9205408993976274 17.1633578100704511 V
atom 3.8696674976433436 0.2275256434815015 18.8212989961134660 V
atom 2.6360807494725358 0.0931705077659355 22.1366244418589986 V
atom 6.3995681134364837 10.6365435420874661 20.3143132790018548 O
atom 5.0453326051845755 1.7041252354688925 19.3212255873431644 O
atom 2.3554600807152903 1.3787432825788117 18.9856429722722595 O
atom 14.4833121453875169 10.3180070801456001 19.9828149749643380 O
atom 6.0587564168476078 13.2676752669156262 20.9826921499083738 O
atom 4.9386751359825380 12.3658258259847180 18.6566238760269272 O
atom 7.6331025429815806 12.0432475701552146 18.3223755318056689 O
atom 8.7496579863376329 12.9486629669043509 20.6529934450963566 O
atom 2.4123874501400251 1.9489922872112599 17.1610595925469767 V
atom 3.6473149612014475 8.4694614678559663 20.4829708479342329 V
atom 6.3393061333163923 10.0694491855402752 22.1419824902203821 V
atom 5.1061533506736581 3.5430227510510668 18.8156922424054969 V
atom 3.9326036966950517 0.7950127919681331 16.9952578600204731 O
atom 7.5145885709485585 11.5458546752497853 22.6420499996920377 O
atom 4.8243787627953765 11.2225056367172797 22.3070980237723440 O
atom 1.2375950885753175 0.4755052640685880 16.6612366714958071 O
atom 3.5907268349422226 3.4247933460674416 17.6632704577831419 O
atom 13.2460274296690006 8.9137344238263285 21.9776379506473347 O
atom 5.1642402985126239 8.5924484106172123 21.6422597786168431 O
atom 6.2808947562740931 3.1066387134254536 17.3310488258597282 O
atom 4.8817052251462671 8.5953910096205846 17.1607937446693697 V
atom 1.1792454501061398 1.8277386131734679 20.4891516952573767 V
atom 3.8689073725593399 3.4243920302089830 22.1422120924557397 V
atom 7.5750434816972048 10.1950534171446261 18.8205008798820401 V
atom 6.3980753553882037 7.4438120344568208 16.9980948906371268 O
atom 5.0476117042807624 4.8973918660801115 22.6425164764164251 O
atom 2.3526017163964590 4.5778884031602960 22.3109428155947214 O
atom 3.7083354604314644 7.1197401585226157 16.6628277393154534 O
atom 6.0580942719946149 10.0737720683721061 17.6603595365186550 O
atom 10.7808621509337712 2.2665690485075336 21.9728833815319256 O
atom 2.6918727926855683 1.9483246749856529 21.6438452667174452 O
atom 8.7535540605488453 9.7510510418193199 17.3270734224143510 O
atom 2.4124016734842377 5.1451030231277004 20.4814867822270195 V
atom 3.6488112235771890 5.2780358117549602 17.1662261607487565 V
atom 6.3398135038586965 6.8735748108721291 18.8203010141000178 V
atom 5.1063221339415898 6.7448548630824687 22.1426260812102811 V
atom 3.9296315514273061 3.9932588583395199 20.3206150859280044 O
atom 7.5183956158580729 8.3470663130433049 19.3210662554626680 O
atom 4.8222417739963133 8.0286377741807762 18.9898934782721192 O
atom 12.0177166982853389 3.6688979697672970 19.9831536990948564 O
atom 3.5893568277062196 6.6228884198248483 20.9829629798353494 O
atom 2.4728141380508268 5.7167767396581333 18.6522277346690899 O
atom 5.1629168713405429 5.3983441752467209 18.3212450581290938 O
atom 6.2837400035200686 6.3013114890750295 20.6482406143474222 O
atom 6.5660764385858661 5.0201262359507259 23.8059232817341524 V
atom 9.2599295616083381 6.6210640618839829 25.4667165762417369 V
atom 10.4324463281875364 8.0957063915949430 25.9640175244008233 O
atom 7.7429329281651444 7.7716955076090128 25.6279168367019849 O
atom 5.3880551645163548 5.4644061355892246 25.2990350098218784 O
atom 8.0820404248897404 5.1414031101402111 24.9664820151325557 O
atom 7.8016930188795870 8.3408688302093577 23.8048657890081614 V
atom 10.4921675120294964 9.9375900474666157 25.4599100790845227 V
atom 9.3194632152832462 7.1865368412109563 23.6366767805657751 O
atom 6.6242885252781818 6.8678657876189382 23.3040141195231705 O
atom 8.9791956119036040 9.8164762584855385 24.3048258062759999 O
atom 11.6684171043429377 9.4987784015382672 23.9740409910547356 O
atom 5.3327544753391596 1.6943400732770397 23.8041621296851389 V
atom 8.0243928950175949 3.2955481804435509 25.4637053651983649 V
atom 6.8475001550845693 0.5433329738522350 23.6408494484429710 O
atom 4.1576042981119299 0.2180599839004267 23.3052009082875422 O
atom 6.5088129050526140 3.1723117749500251 24.3033260588403692 O
atom 9.2026623454228371 2.8500113171048800 23.9699287199523781 O
atom 9.0358882932551481 11.6711440049967869 23.8095903847028296 V
atom 11.7295317841696676 13.2658033571012748 25.4653328232638074 V
atom 7.9656721124296723 1.4464967541738942 25.9650086082752267 O
atom 5.2711335749642290 1.1269181378866289 25.6314530630167070 O
atom 7.8605757217425278 12.1082778624755374 25.2951326082863446 O
atom 10.5512320833846207 11.7896922594016456 24.9626621128648480 O
atom 11.9555614821672709 5.0192209170804682 23.8056175886872978 V
atom 3.8683295928641517 6.6193446388531223 25.4635587747303163 V
atom 5.0439947004053840 8.0959442308405158 25.9634853659600111 O
atom 13.1320241407216667 7.7705622779504342 25.6279027508891062 O
atom 10.7772129333187525 5.4645058436675598 25.2988836546437739 O
atom 2.6937383755322255 5.1419275878380564 24.9646353104225085 O
atom 13.1889515101464028 8.3408112825828820 23.8033193711638162 V
atom 5.1048154458944675 9.9348417464226895 25.4579520210223365 V
atom 3.9312657919158598 7.1868317873397540 23.6375176386373198 O
atom 12.0141591485816939 6.8673242594402097 23.3034964501126503 O
atom 14.3672908949485993 9.8166123414390665 24.3055302363999886 O
atom 6.2795568514949025 9.4984577087970781 23.9733086044765713 O
atom 10.7202430224824816 1.6940710273034314 23.8030535232862093 V
atom 2.6356793142478505 3.2937334348274701 25.4627606584988797 V
atom 1.4587111879388490 0.5424920521396642 23.6403546692539699 O
atom 9.5468732577676771 0.2184201762054577 23.3050875179322965 O
atom 11.8966320693308294 3.1724520860549488 24.3026193151355017 O
atom 3.8141898930994911 2.8497310595021643 23.9693332010311906 O
atom 14.4253752835835645 11.6698548071265815 23.8084859393655961 V
atom 6.3384755990795050 13.2653938062437504 25.4625607927168645 V
atom 2.5790314484087182 1.4457463307261453 25.9633260340795147 O
atom 10.6607795713325260 1.1273177918636195 25.6321532568889623 O
atom 13.2493781980572045 12.1085957350297608 25.2944875132859295 O
atom 5.1615789665613523 11.7901631706183441 24.9635048367459262 O
