#===============================================================================
# Created using the Atomic Simulation Environment (ASE)

# Mon Mar 23 14:01:46 2026

#=======================================================
lattice_vector 10.7863573876396668 0.0000000000000000 0.0000000000000000 
lattice_vector 2.8859864345801114 10.3931385144755009 0.0000000000000000 
lattice_vector 0.0000000000000000 0.0000000000000000 38.2727727640261435 
atom 7.9011069752626648 6.0060953693036794 15.8497810930426581 V
atom 10.5275565346277169 8.0028263471029515 15.0004435529002826 O
atom 9.0846024378233050 2.8062170268119533 15.0000590461166077 O
atom 5.1349774436718052 8.0030193737748192 15.0000000000000000 O
atom 2.5078704029587491 6.0060356469400960 15.8497988940817898 V
atom 1.0648567091909305 0.8095173379302039 15.8497317139570413 V
atom 3.6917917095395389 2.8062226506647363 15.0008647736065654 O
atom 5.0154572226756775 3.8125607513189803 20.0909037886745843 V
atom 9.1547568968925468 6.9592802733438388 19.0305895105022280 V
atom 9.0847875536304326 6.9061025166088745 17.1204563264442520 O
atom 10.6676440378364834 8.1094059824155096 18.8197928868278730 O
atom 7.9714108237471430 8.5162618967611596 19.0304567578399926 O
atom 10.3385714749669066 5.4027899624639923 19.0303470097938430 O
atom 6.4580297723447844 4.9091085449742407 17.9702107576240984 V
atom 10.5975711510121684 8.0560424167552984 16.9100452899057281 V
atom 7.6419067820407331 5.8092917291182529 19.2415662485322123 O
atom 12.1100808998621812 9.2059052668293049 16.6994391607073709 O
atom 9.4142056697944909 9.6127978403596472 16.9103316776864681 O
atom 11.7806691889513075 6.4992068552461779 16.9104544167118824 O
atom 7.9013056256030394 10.1058605987373920 17.9704507627907084 V
atom 9.1547836286822282 2.8594757656446008 16.9098879820927941 V
atom 6.1989526852363230 0.6126824088272540 19.2411817417485373 O
atom 10.6674533176093203 4.0094146920481872 16.6993291402164523 O
atom 7.9714746242451691 4.4173249069489255 16.9090327095203143 O
atom 10.3389981295592648 1.3025445774350100 16.9092311901281427 O
atom 6.4580794613815256 0.8095665640348012 15.8498802861658028 V
atom 7.7117420768124783 1.7625485509535976 19.0307814225084080 V
atom 7.6418147925991828 1.7096266039270493 17.1208634774610466 O
atom 9.2244586281806349 2.9125887559880068 18.8198680616041507 O
atom 6.5273729740243569 3.3195026440419086 19.0315728399900301 O
atom 8.8950246932504164 0.2049916628090140 19.0313785455290336 O
atom 11.8513555497195817 4.9093460378102742 17.9703754699366698 V
atom 5.2047256794866090 8.0560864505481700 16.9100399831827488 V
atom 2.2493276910848219 5.8094847557901206 19.2411226956319261 O
atom 6.7177659871850324 9.2060955946173468 16.6991765631550599 O
atom 4.0213043375096182 9.6138502425376000 16.9093189515554734 O
atom 6.3892326453750909 6.4989178872170408 16.9090657988589328 O
atom 10.4085780380114361 3.8125010289553969 20.0909215897137123 V
atom 3.7616736697075179 6.9591398815944459 19.0309298997869689 V
atom 3.6917992744226553 6.9058281386140878 17.1214321375796210 O
atom 5.2742743688930434 8.1087660837972404 18.8203225188212606 O
atom 2.5774002462046983 8.5161639430911809 19.0315155104106246 O
atom 4.9450220733120700 5.4011884882819361 19.0316500683942174 O
atom 11.8515507788237198 9.0091212344210057 20.0908544095889674 V
atom 2.3189749724779816 1.7626485048628555 19.0304528935192572 V
atom 2.2488592889824024 1.7093792874433662 17.1204050808045523 O
atom 3.8321097248247642 2.9126981061848598 18.8200122195366042 O
atom 1.1357674001846292 3.3196927940370871 19.0302985613599489 O
atom 3.5023900396041978 0.2056264114418839 19.0303376865387825 O
atom 13.2944482646126101 10.1059560800102162 17.9705407301904785 V
atom 3.7615062220384661 2.8591901746001249 16.9103253943284848 V
atom 0.8061419569525550 0.6126880326800376 19.2419874692384951 O
atom 5.2739568916196173 4.0086995235467429 16.6992947184661169 O
atom 2.5779618133144271 4.4158031458708056 16.9105293347429857 O
atom 4.9449055586626116 1.3023447530563521 16.9103436761434587 O
atom 6.2691071443055577 4.7657456553591402 23.2717122061341541 V
atom 6.1991378010434524 4.7125678986241759 21.3615790220761745 O
atom 7.7819942852494988 5.9158713644308083 23.0609155824597956 O
atom 5.0857610711601637 6.3227272787764592 23.2715794534719187 O
atom 7.4529217223799265 3.2092553444792911 23.2714697054257726 O
atom 3.5723800197577993 2.7155739269895398 22.2113334532560209 V
atom 7.7119213984251793 5.8625077987705989 21.1511679855376542 V
atom 9.2244311472751974 7.0123706488446063 20.9405618563392970 O
atom 6.5285559172075063 7.4192632223749477 21.1514543733183906 O
atom 8.8950194363643238 4.3056722372614793 21.1515771123438121 O
atom 5.0156558730160556 7.9123259807526916 22.2115734584226381 V
atom 6.2691338760952426 0.6659411476599012 21.1510106777247167 V
atom 7.7818035650223321 1.8158800740634868 20.9404518358483784 O
atom 5.0858248716581889 2.2237902889642243 21.1501554051522440 O
atom 10.3393348115523942 9.5021484739258106 21.1503538857600653 O
atom 6.4584161433746479 9.0091704605256027 20.0910029817977289 V
atom 7.7120787588056103 9.9621524474443994 23.2719041181403341 V
atom 7.6421514745923051 9.9092305004178503 21.3619861730929728 O
atom 6.3388088755936458 0.7190541380033070 23.0609907572360804 O
atom 3.6417232214373771 1.1259680260572087 23.2726955356219598 O
atom 8.8953613752435388 8.4045955592998158 23.2725012411609633 O
atom 8.9657057971326068 2.7158114198255738 22.2114981655685959 V
atom 2.3190759268996253 5.8625518325634696 21.1511626788146678 V
atom 3.8321162345980437 7.0125609766326491 20.9402992587869825 O
atom 11.9220119725623093 7.4203156245528996 21.1504416471873995 O
atom 3.5035828927881121 4.3053832692323413 21.1501884944908589 O
atom 11.6623813047602045 4.7656052636097428 23.2720525954189021 V
atom 11.5925069094753379 4.7122935206293883 21.3625548332115436 O
atom 2.3886246163060592 5.9152314658125400 23.0614452144531903 O
atom 10.4781078812573867 6.3226293251064813 23.2726382060425543 O
atom 2.0593723207250805 3.2076538702972348 23.2727727640261399 O
atom 13.1056690421107813 9.9622524013536573 23.2715755891511868 V
atom 13.0355533586151964 9.9089831839341667 21.3615277764364784 O
atom 0.9464599722377849 0.7191634882001601 23.0611349151685339 O
atom 9.0364750352373022 1.1261581760523878 23.2714212569918750 O
atom 3.5027267215973152 8.4052303079326851 23.2714603821707051 O
atom 10.4087985120256210 7.9124214620255167 22.2116634258224046 V
atom 0.8758564694514872 0.6656555566154266 21.1514480899604074 V
atom 2.3883071390326283 1.8151649055620429 20.9404174140980395 O
atom 10.4786694483671088 2.2222685278861061 21.1516520303749118 O
atom 4.9452422406557330 9.5019486495471526 21.1514663717753812 O
