#===============================================================================
# Created using the Atomic Simulation Environment (ASE)

# Mon Mar 23 14:01:44 2026

#=======================================================
lattice_vector 10.7779019647855687 0.0000000000000000 0.0000000000000000 
lattice_vector 4.9380262626701636 13.2931389776887805 0.0000000000000000 
lattice_vector 0.0000000000000000 0.0000000000000000 42.6244534119277318 
atom 10.2726186512975666 5.3992380061164722 15.5004084925709726 V
atom 12.9631870283745076 6.9962664916177779 17.1551200509460422 V
atom 11.7905085028318499 4.2464009570618328 15.3328836959228667 O
atom 9.0950765783505787 3.9262078051898865 15.0003022860882496 O
atom 11.4503968353134926 6.8757718466766953 15.9997743654474647 O
atom 3.3617417984011397 6.5573094007076813 15.6708960841438518 O
atom 9.0371451081308987 2.0784386241737511 15.5004131334718593 V
atom 11.7310687192382375 3.6778217796212145 17.1618853058248533 V
atom 2.1257082038654649 5.1543226266362465 17.6594563557504820 O
atom 10.2135221946863659 4.8302441984660662 17.3232199960201356 O
atom 7.8594161933382614 2.5225718315343006 16.9952881594878455 O
atom 10.5537857891211200 2.2000974315611352 16.6605798668393810 O
atom 11.5065469963137730 8.7303055936294971 15.5071464529815870 V
atom 14.2002670184606821 10.3263543999557648 17.1621027334237652 V
atom 4.5967526891201960 11.7982108025735251 17.6611065750751592 O
atom 12.6806756598053756 11.4799109026393875 17.3283263903669393 O
atom 10.3311522802012625 9.1680073725044053 16.9906633178056268 O
atom 13.0210824639632037 8.8491827600143598 16.6606535907446407 O
atom 12.7413567799787621 12.0468404608862443 15.5007219290520979 V
atom 10.4953283379099531 0.3542789661515074 17.1601971339938260 V
atom 14.2560839218034747 10.8938921618765523 15.3365646896049341 O
atom 11.5661326579335721 10.5710039134156553 15.0010706153582873 O
atom 8.9791805285603115 0.2307105340426230 16.0004467510357706 O
atom 5.8346533430359244 13.2030397199521872 15.6656655416670176 O
atom 4.8822630934023623 5.3990455214972251 15.4995801738215953 V
atom 7.5754449169218896 6.9944904900830958 17.1538094668946570 V
atom 6.4009060182156743 4.2447245467158465 15.3314983040375168 O
atom 3.7067480853811388 3.9261880847739787 15.0000000000000000 O
atom 6.0600943216267993 6.8758562715440013 15.9998771749440358 O
atom 8.7509958911168244 6.5568439715327296 15.6701784701320150 O
atom 3.6486528659806394 2.0776424724843436 15.5001558729698949 V
atom 6.3406440380955829 3.6776301901686539 17.1591675152560441 V
atom 7.5159264757277500 5.1540356798781639 17.6592350247276997 O
atom 4.8257166675745671 4.8306866413456566 17.3242830488080060 O
atom 2.4694633696626238 2.5219154284547072 16.9948229756829932 O
atom 5.1655782032918154 2.2006294152455905 16.6594448036525051 O
atom 6.1186096175554958 8.7290585954906259 15.5063367202930387 V
atom 8.8082715400086951 10.3257120125261412 17.1593971174914017 V
atom 9.9869758717301185 11.7987118483972679 17.6597015014520835 O
atom 7.2919658838458137 11.4792083854774560 17.3281278406303834 O
atom 4.9423243535975567 9.1678890308246945 16.9900684065675840 O
atom 7.6312369601349239 8.8496446573028109 16.6610302917531072 O
atom 7.3517658409335933 12.0464230054448596 15.4986718072626815 V
atom 5.1076600387207813 0.3530358677108483 17.1598111062459466 V
atom 8.8689957188766613 10.8945788406566777 15.3378001109636664 O
atom 6.1791789009491254 10.5702179520844570 15.0003387241305148 O
atom 3.5906947324854106 0.2310694244532271 16.0001480048710079 O
atom 11.2231041709694246 13.2026314713921860 15.6654256393830806 O
atom 10.2712807465183733 11.7910570014880935 22.1426682711878158 V
atom 11.5054406060352203 11.9214462182678815 18.8231083067698179 V
atom 9.2612674663875261 0.2292450665123603 20.4839016012773989 V
atom 8.0238228609251507 0.0949465093006185 23.7973798295628889 V
atom 11.7891705980526602 10.6382199524334577 21.9751434745397098 O
atom 10.4337842329667279 1.7038873962233176 20.9812025494364853 O
atom 7.7442708329443342 1.3798765122373877 20.6451018617376469 O
atom 9.0937386735713872 10.3180268005615101 21.6425620647050856 O
atom 11.4490589305343029 13.2675908420483175 22.6420341440643078 O
atom 10.3274193319657108 12.3657261179063820 20.3162200348575368 O
atom 13.0214045923390955 12.0427230924573703 19.9836670401682213 O
atom 14.1383058584075165 12.9491283960793027 22.3131558627606950 O
atom 7.8030309236587794 1.9490498348377332 18.8220508140438234 V
atom 9.0358072033517054 8.4702576195453769 22.1426729120887060 V
atom 11.7297308144590477 10.0696407749928358 23.8041450844417000 V
atom 10.4935054168086861 3.5457710520949903 20.4770951041201883 V
atom 9.3208011200624359 0.7947178458393344 18.6538618056014371 O
atom 12.9022722638718417 11.5461416220078714 24.3017161343673251 O
atom 10.2121842899071762 11.2220631938376911 23.9654797746369752 O
atom 6.6256264300573724 0.4760467922473128 18.3211991445588360 O
atom 8.9805335166827920 3.4246572631139158 19.3220108313116583 O
atom 7.8580782885590663 8.9143908269059242 23.6375479381046922 O
atom 10.5524478843419303 8.5919164269327606 23.3028396454562241 O
atom 11.6697550091221274 3.1069594061666441 18.9912260160904012 O
atom 10.2721186427885129 8.5956600555941964 18.8213471547208044 V
atom 6.5671828288644205 1.8289856113123395 22.1494062315984301 V
atom 9.2609028510113252 3.4250344176386078 23.8043625120406119 V
atom 12.9637570624669483 10.1968681627607065 20.4808903902340305 V
atom 11.7868643225339245 7.4446529561693922 18.6580344734786365 O
atom 10.4352904864564113 4.8968908202563668 24.3033663536920059 O
atom 7.7413114923560222 4.5785909203222301 23.9705861689837825 O
atom 9.0969684655612859 7.1193799662175854 18.3223859333232042 O
atom 11.4481770725019718 10.0736317572671812 19.3205110838760348 O
atom 5.3917881127519065 2.2666873901872457 23.6329230964224699 O
atom 8.0817182965138485 1.9478627776972013 23.3029133693614838 O
atom 14.1420265128721905 9.7513312994220378 18.9871137449880436 O
atom 7.8019926125294079 5.1455204785690869 22.1429817076689446 V
atom 9.0372261980343414 5.2793250096251638 18.8267754097384916 V
atom 11.7308696889488608 6.8739843617296534 20.4825178482994659 V
atom 10.4939904331307616 6.7460979615231329 23.8024569126106691 V
atom 9.3167197543541214 3.9925721795593945 21.9788244682217808 O
atom 12.9050362798790257 8.3478167364910494 20.9821936333108923 O
atom 10.2104977424135850 8.0282381202037865 20.6486380880523654 O
atom 6.6267684904842152 3.6696839310984966 21.6433303939751305 O
atom 8.9778426237811200 6.6225295294142459 22.6427065296526138 O
atom 7.8619136265217175 5.7164588671039134 20.3123176333220066 O
atom 10.5525699881638104 5.3978732640300207 19.9798471379005207 O
atom 11.6731911403721362 6.3017197376350289 22.3079253202838608 O
atom 4.8809251886231708 11.7908645168688473 22.1418399524384384 V
atom 6.1170236848310564 11.9205408993976274 18.8228026137229563 V
atom 3.8696674976433436 0.2275256434815015 20.4807437997659711 V
atom 2.6360807494725358 0.0931705077659355 23.7960692455115037 V
atom 6.3995681134364837 10.6365435420874661 21.9737580826543599 O
atom 5.0453326051845755 1.7041252354688925 20.9806703909956695 O
atom 2.3554600807152903 1.3787432825788117 20.6450877759247646 O
atom 14.4833121453875169 10.3180070801456001 21.6422597786168431 O
atom 6.0587564168476078 13.2676752669156262 22.6421369535608790 O
atom 4.9386751359825380 12.3658258259847180 20.3160686796794323 O
atom 7.6331025429815806 12.0432475701552146 19.9818203354581740 O
atom 8.7496579863376329 12.9486629669043509 22.3124382487488617 O
atom 2.4123874501400251 1.9489922872112599 18.8205043961994818 V
atom 3.6473149612014475 8.4694614678559663 22.1424156515867381 V
atom 6.3393061333163923 10.0694491855402752 23.8014272938728872 V
atom 5.1061533506736581 3.5430227510510668 20.4751370460580020 V
atom 3.9326036966950517 0.7950127919681331 18.6547026636729782 O
atom 7.5145885709485585 11.5458546752497853 24.3014948033445428 O
atom 4.8243787627953765 11.2225056367172797 23.9665428274248491 O
atom 1.2375950885753175 0.4755052640685880 18.3206814751483122 O
atom 3.5907268349422226 3.4247933460674416 19.3227152614356470 O
atom 13.2460274296690006 8.9137344238263285 23.6370827542998398 O
atom 5.1642402985126239 8.5924484106172123 23.3017045822693483 O
atom 6.2808947562740931 3.1066387134254536 18.9904936295122333 O
atom 4.8817052251462671 8.5953910096205846 18.8202385483218748 V
atom 1.1792454501061398 1.8277386131734679 22.1485964989098818 V
atom 3.8689073725593399 3.4243920302089830 23.8016568961082449 V
atom 7.5750434816972048 10.1950534171446261 20.4799456835345453 V
atom 6.3980753553882037 7.4438120344568208 18.6575396942896319 O
atom 5.0476117042807624 4.8973918660801115 24.3019612800689302 O
atom 2.3526017163964590 4.5778884031602960 23.9703876192472265 O
atom 3.7083354604314644 7.1197401585226157 18.3222725429679585 O
atom 6.0580942719946149 10.0737720683721061 19.3198043401711601 O
atom 10.7808621509337712 2.2665690485075336 23.6323281851844307 O
atom 2.6918727926855683 1.9483246749856529 23.3032900703699504 O
atom 8.7535540605488453 9.7510510418193199 18.9865182260668561 O
atom 2.4124016734842377 5.1451030231277004 22.1409315858795246 V
atom 3.6488112235771890 5.2780358117549602 18.8256709644012616 V
atom 6.3398135038586965 6.8735748108721291 20.4797458177525229 V
atom 5.1063221339415898 6.7448548630824687 23.8020708848627862 V
atom 3.9296315514273061 3.9932588583395199 21.9800598895805095 O
atom 7.5183956158580729 8.3470663130433049 20.9805110591151731 O
atom 4.8222417739963133 8.0286377741807762 20.6493382819246243 O
atom 12.0177166982853389 3.6688979697672970 21.6425985027473615 O
atom 3.5893568277062196 6.6228884198248483 22.6424077834878545 O
atom 2.4728141380508268 5.7167767396581333 20.3116725383215950 O
atom 5.1629168713405429 5.3983441752467209 19.9806898617815989 O
atom 6.2837400035200686 6.3013114890750295 22.3076854179999273 O
atom 6.5660764385858661 5.0201262359507259 25.4653680853866575 V
atom 9.2599295616083381 6.6210640618839829 27.1261613798942420 V
atom 10.4324463281875364 8.0957063915949430 27.6234623280533285 O
atom 7.7429329281651444 7.7716955076090128 27.2873616403544901 O
atom 5.3880551645163548 5.4644061355892246 26.9584798134743835 O
atom 8.0820404248897404 5.1414031101402111 26.6259268187850608 O
atom 7.8016930188795870 8.3408688302093577 25.4643105926606665 V
atom 10.4921675120294964 9.9375900474666157 27.1193548827370279 V
atom 9.3194632152832462 7.1865368412109563 25.2961215842182803 O
atom 6.6242885252781818 6.8678657876189382 24.9634589231756756 O
atom 8.9791956119036040 9.8164762584855385 25.9642706099285050 O
atom 11.6684171043429377 9.4987784015382672 25.6334857947072408 O
atom 5.3327544753391596 1.6943400732770397 25.4636069333376440 V
atom 8.0243928950175949 3.2955481804435509 27.1231501688508700 V
atom 6.8475001550845693 0.5433329738522350 25.3002942520954761 O
atom 4.1576042981119299 0.2180599839004267 24.9646457119400473 O
atom 6.5088129050526140 3.1723117749500251 25.9627708624928744 O
atom 9.2026623454228371 2.8500113171048800 25.6293735236048832 O
atom 9.0358882932551481 11.6711440049967869 25.4690351883553348 V
atom 11.7295317841696676 13.2658033571012748 27.1247776269163126 V
atom 7.9656721124296723 1.4464967541738942 27.6244534119277318 O
atom 5.2711335749642290 1.1269181378866289 27.2908978666692121 O
atom 7.8605757217425278 12.1082778624755374 26.9545774119388497 O
atom 10.5512320833846207 11.7896922594016456 26.6221069165173532 O
atom 11.9555614821672709 5.0192209170804682 25.4650623923398030 V
atom 3.8683295928641517 6.6193446388531223 27.1230035783828214 V
atom 5.0439947004053840 8.0959442308405158 27.6229301696125162 O
atom 13.1320241407216667 7.7705622779504342 27.2873475545416113 O
atom 10.7772129333187525 5.4645058436675598 26.9583284582962790 O
atom 2.6937383755322255 5.1419275878380564 26.6240801140750136 O
atom 13.1889515101464028 8.3408112825828820 25.4627641748163214 V
atom 5.1048154458944675 9.9348417464226895 27.1173968246748416 V
atom 3.9312657919158598 7.1868317873397540 25.2969624422898249 O
atom 12.0141591485816939 6.8673242594402097 24.9629412537651554 O
atom 14.3672908949485993 9.8166123414390665 25.9649750400524937 O
atom 6.2795568514949025 9.4984577087970781 25.6327534081290764 O
atom 10.7202430224824816 1.6940710273034314 25.4624983269387144 V
atom 2.6356793142478505 3.2937334348274701 27.1222054621513848 V
atom 1.4587111879388490 0.5424920521396642 25.2997994729064750 O
atom 9.5468732577676771 0.2184201762054577 24.9645323215848016 O
atom 11.8966320693308294 3.1724520860549488 25.9620641187880068 O
atom 3.8141898930994911 2.8497310595021643 25.6287780046836957 O
atom 14.4253752835835645 11.6698548071265815 25.4679307430181012 V
atom 6.3384755990795050 13.2653938062437504 27.1220055963693696 V
atom 2.5790314484087182 1.4457463307261453 27.6227708377320198 O
atom 10.6607795713325260 1.1273177918636195 27.2915980605414674 O
atom 13.2493781980572045 12.1085957350297608 26.9539323169384346 O
atom 5.1615789665613523 11.7901631706183441 26.6229496403984314 O
