#===============================================================================
# Created using the Atomic Simulation Environment (ASE)

# Mon Mar 23 14:01:47 2026

#=======================================================
lattice_vector 9.2315018221363143 0.0000000000000000 0.0000000000000000 
lattice_vector 0.0000038100387047 5.5790402700009523 0.0000000000000000 
lattice_vector 0.0000000000000000 0.0000000000000000 45.6964309396521600 
atom 0.0005472891610907 2.7895811681565941 18.2323779208711798 V
atom 2.3086480088048589 1.3945864947954045 15.9248112181301913 V
atom 1.3840063408744510 5.5785773345644403 15.0002564627618753 O
atom 3.2332934860650351 5.5785856751653666 16.8495671489290757 O
atom 0.9251354992978635 1.3934222358827180 17.3081851431551712 O
atom 2.3086416338491835 4.1845443647961202 15.9248103730094002 V
atom 1.3840279402235649 2.7900685746971510 15.0004548865655991 O
atom 3.2330607775213069 2.7900758550726072 16.8493986982044355 O
atom 0.9252121739751086 4.1855751658567240 17.3081571747486933 O
atom 6.9242406801543579 1.3944786598202719 15.9248247916080992 V
atom 5.9994158564405273 5.5787330794229542 15.0000000000000000 O
atom 7.8491163131500521 5.5787344503488061 16.8498461472803918 O
atom 5.5412528583983462 1.3944745604634077 17.3076240245529078 O
atom 6.9242414752651120 4.1845691898219739 15.9248264262424541 V
atom 5.9999505931718176 2.7899035997404176 15.0005430329835434 O
atom 7.8483623525691888 2.7899024399263443 16.8491196579895011 O
atom 5.5414719036395033 4.1846052404476080 17.3076315344645693 O
atom 0.0008046789939864 5.5789845882850457 18.2326022004546182 V
atom 2.3088066425394143 1.3947633066793359 20.5402700956658606 V
atom 1.3840238401912583 5.5788411763217791 19.6155095932743215 O
atom 3.2335863370520035 5.5788466569485857 21.4648979235197714 O
atom 3.6916446033014543 1.3945591360200742 19.1574256160872665 O
atom 0.9262326941118798 1.3942467173889306 21.9232263900569109 O
atom 0.0009444883117540 2.7895884822884707 27.4638402544595337 V
atom 2.3088118275608993 4.1843039866794927 20.5402701005812673 V
atom 1.3842353398324228 2.7897840664467566 19.6157241033671390 O
atom 3.2334417383565075 2.7897904268440326 21.4647249212727473 O
atom 3.6916414333057088 4.1845174161779148 19.1576553208972911 O
atom 0.9262305642444688 4.1847891172314835 21.9229945544455589 O
atom 4.6165689318477972 0.0000254233400604 18.2326866300302619 V
atom 6.9244908858065477 1.3945568517563567 20.5403732572411144 V
atom 5.9997759230155827 5.5790074213768897 19.6155904631356073 O
atom 7.8492139096565401 5.5790068720090131 21.4649686060637990 O
atom 8.3077674555853598 1.3934431707080588 19.1570224088475811 O
atom 5.5413350228674751 1.3936918126986304 21.9235862743890735 O
atom 4.6166351851924814 2.7895416932810457 18.2326088036485388 V
atom 6.9245033209782818 4.1845043817592948 20.5403783817227179 V
atom 6.0000428101893348 2.7895832714192319 19.6156919622874781 O
atom 7.8491496215979142 2.7895805719179179 21.4648269023417484 O
atom 8.3077413723013436 4.1855427207570788 19.1570894526882434 O
atom 5.5413677366387679 4.1853205626498529 21.9235185972862965 O
atom 0.0010306068345428 0.0000204502928972 22.8482541965293962 V
atom 2.3090452079555219 1.3945938089272809 25.1562735517185558 V
atom 1.3844035400251140 5.5785846486963173 24.2317187963502363 O
atom 3.2336906852156981 5.5785929892972428 26.0810294825174367 O
atom 3.6923076374481592 1.3936738378706870 23.7729085134969367 O
atom 0.9255326984485264 1.3934295500145946 26.5396474767435251 O
atom 0.0009565029721707 2.7895350603363807 22.8483062031683772 V
atom 2.3090388329998466 4.1845516789279964 25.1562727065977469 V
atom 1.3844251393742280 2.7900758888290285 24.2319172201539601 O
atom 3.2334579766719695 2.7900831692044843 26.0808610317927929 O
atom 3.6922444836697794 4.1853565679089728 23.7729544884197423 O
atom 0.9256093731257713 4.1855824799886010 26.5396195083370543 O
atom 4.6167237077522616 5.5789946852941261 22.8482457079001477 V
atom 6.9246378793050214 1.3944859739521485 25.1562871251964566 V
atom 5.9998130555911899 5.5787403935548312 24.2314623335883539 O
atom 7.8495135123007147 5.5787417644806832 26.0813084808687421 O
atom 8.3075215920723817 1.3941691233523847 23.7735363747105524 O
atom 5.5416500575490089 1.3944818745952841 26.5390863581412617 O
atom 4.6168955761845476 2.7895987153856963 22.8484055790769531 V
atom 6.9246386744157755 4.1845765039538501 25.1562887598308009 V
atom 6.0003477923224802 2.7899109138722942 24.2320053665719044 O
atom 7.8487595517198514 2.7899097540582209 26.0805819915778514 O
atom 8.3073038667880628 4.1848758133611605 23.7735168236252292 O
atom 5.5418691027901668 4.1846125545794841 26.5390938680529231 O
atom 0.0012018781446493 5.5789919024169219 27.4640645340429757 V
atom 2.3092038416900773 1.3947706208112125 29.7717324292542145 V
atom 1.3844210393419207 5.5788484904536562 28.8469719268626790 O
atom 3.2339835362026665 5.5788539710804628 30.6963602571081253 O
atom 3.6920418024521164 1.3945664501519510 28.3888879496756203 O
atom 2.3092090267115619 4.1843113008113697 29.7717324341696212 V
atom 1.3846325389830851 2.7897913805786332 28.8471864369554964 O
atom 3.2338389375071697 2.7897977409759092 30.6961872548611012 O
atom 3.6920386324563719 4.1845247303097919 28.3891176544856449 O
atom 4.6169661309984606 0.0000327374719370 27.4641489636186193 V
atom 6.9248880849572103 1.3945641658882335 29.7718355908294683 V
atom 6.0001731221662462 5.5790147355087667 28.8470527967239576 O
atom 7.8496111088072036 5.5790141861408902 30.6964309396521600 O
atom 8.3081646547360215 1.3934504848399354 28.3884847424359350 O
atom 4.6170323843431440 2.7895490074129219 27.4640711372368997 V
atom 6.9249005201289444 4.1845116958911719 29.7718407153110647 V
atom 6.0004400093399983 2.7895905855511085 28.8471542958758391 O
atom 7.8495468207485777 2.7895878860497945 30.6962892359301023 O
atom 8.3081385714520053 4.1855500348889558 28.3885517862765937 O
