#===============================================================================
# Created using the Atomic Simulation Environment (ASE)

# Mon Mar 23 14:01:40 2026

#=======================================================
lattice_vector 15.1536015195045284 0.0000000000000000 0.0000000000000000 
lattice_vector -0.0000014388224574 3.7155747600000235 0.0000000000000000 
lattice_vector 0.0000000000000000 0.0000000000000000 39.3602450158192028 
atom 2.1321962867518223 3.7155736346709496 16.6227158625936973 V
atom 13.9920867058742768 3.7155736755223181 15.2324554155106142 V
atom 9.0074111676735988 1.8577863374620029 15.8122447333865814 V
atom 5.1752637997647710 1.8577861861072273 16.0446881334847369 O
atom 2.6705683396894035 3.7155738668783660 15.0000000000000000 O
atom 0.2766971630716071 3.7155736601321037 16.3670120575143834 O
atom 11.0060991267583574 1.8577861644643550 16.3756739894105117 O
atom 9.3868177776298314 3.7155737031890799 15.9379356036158022 O
atom 13.6126999711979995 1.8577863098002618 15.1067244299096934 O
atom 1.4609384360376518 1.8577858163060692 19.2632690822523571 V
atom 13.0330733690977993 3.7155730326664425 21.4639790193726832 V
atom 4.2888920412258340 1.8577860145174907 17.6531068709222403 V
atom 14.4578076699346951 3.7155734464591545 18.2328801240181200 V
atom 11.1640923852781366 3.7155734773118554 16.8426087782219440 V
atom 7.5826330038582919 1.8577859236701311 19.0433356573909478 V
atom 9.7393622687157393 3.7155730735178114 20.0737185722896037 V
atom 4.7546867305150586 1.8577857354574963 20.6535078901655673 V
atom 0.9225393626062203 1.8577855841027207 20.8859512902637157 O
atom 13.5714454220353886 3.7155732648738593 19.8412631567789823 O
atom 2.2902463235904693 1.8577861875151596 17.0896785732574337 O
atom 1.3028598994459570 3.7155732634618266 18.7963058629863191 O
atom 3.3164012133983025 1.8577858008436874 19.5189818590402240 O
atom 11.1775742454175919 3.7155730581275965 21.2082752142933657 O
atom 14.8372237358896299 1.8577860521861138 18.3585719638786991 O
atom 3.9095070295422185 3.7155734087943579 17.5273848741713643 O
atom 10.6257305943845175 3.7155732451069134 18.4653048750408324 O
atom 8.1210258927839494 1.8577861558747795 17.4206427669412740 O
atom 7.7407126308351746 3.7155732465152087 19.5102923733571636 O
atom 6.7533746895998039 1.8577855624598480 21.2169371461894976 O
atom 13.0195983981210315 3.7155734718491322 17.0983254720846638 O
atom 5.7271582261330369 1.8577859491319937 18.7876267612923940 O
atom 5.1340933404712876 3.7155731011845727 20.7791987603947845 O
atom 9.3599755340394548 1.8577857077957549 19.9479875866886793 O
atom 12.3618155183836294 1.8577852143015621 24.1045322390313466 V
atom 0.0361676040672832 1.8577854125129840 22.4943700277012226 V
atom 10.2050832327761469 3.7155728444546474 23.0741432807971059 V
atom 6.9113679481195911 3.7155728753073478 21.6838719350009264 V
atom 3.3299085666997410 1.8577853216656244 23.8845988141699372 V
atom 13.1911234059364588 1.8577855855106529 21.9309417300364160 O
atom 12.2037369817919270 3.7155726614573203 23.6375690197652979 O
atom 14.2172782957442880 1.8577851988391803 24.3602450158192063 O
atom 10.5844992987310889 1.8577854501816069 23.1998351206576849 O
atom 14.8103841118882027 3.7155728067898508 22.3686480309503501 O
atom 6.3730061572259729 3.7155726431024063 23.3065680318198183 O
atom 3.8683014556254065 1.8577855538702723 22.2619059237202599 O
atom 3.4879881936766308 3.7155726445107016 24.3515555301361495 O
atom 8.7668739609624886 3.7155728698446246 21.9395886288636497 O
atom 1.4744337889744998 1.8577853471274870 23.6288899180713763 O
