#===============================================================================
# Created using the Atomic Simulation Environment (ASE)

# Mon Mar 23 14:01:47 2026

#=======================================================
lattice_vector 9.2315018221363143 0.0000000000000000 0.0000000000000000 
lattice_vector 0.0000038100387047 5.5790402700009523 0.0000000000000000 
lattice_vector 0.0000000000000000 0.0000000000000000 38.7734363852066011 
atom 0.9262326941118798 1.3942467173889306 15.0002318356113520 O
atom 0.0009444883117540 2.7895884822884707 20.5408457000139748 V
atom 0.9262305642444688 4.1847891172314835 15.0000000000000000 O
atom 5.5413350228674751 1.3936918126986304 15.0005917199435146 O
atom 5.5413677366387679 4.1853205626498529 15.0005240428407376 O
atom 0.0010306068345428 0.0000204502928972 15.9252596420838373 V
atom 2.3090452079555219 1.3945938089272809 18.2332789972729969 V
atom 1.3844035400251140 5.5785846486963173 17.3087242419046774 O
atom 3.2336906852156981 5.5785929892972428 19.1580349280718778 O
atom 3.6923076374481592 1.3936738378706870 16.8499139590513778 O
atom 0.9255326984485264 1.3934295500145946 19.6166529222979662 O
atom 0.0009565029721707 2.7895350603363807 15.9253116487228183 V
atom 2.3090388329998466 4.1845516789279964 18.2332781521521881 V
atom 1.3844251393742280 2.7900758888290285 17.3089226657084012 O
atom 3.2334579766719695 2.7900831692044843 19.1578664773472340 O
atom 3.6922444836697794 4.1853565679089728 16.8499599339741835 O
atom 0.9256093731257713 4.1855824799886010 19.6166249538914954 O
atom 4.6167237077522616 5.5789946852941261 15.9252511534545889 V
atom 6.9246378793050214 1.3944859739521485 18.2332925707508977 V
atom 5.9998130555911899 5.5787403935548312 17.3084677791427950 O
atom 7.8495135123007147 5.5787417644806832 19.1583139264231832 O
atom 8.3075215920723817 1.3941691233523847 16.8505418202649935 O
atom 5.5416500575490089 1.3944818745952841 19.6160918036957028 O
atom 4.6168955761845476 2.7895987153856963 15.9254110246313942 V
atom 6.9246386744157755 4.1845765039538501 18.2332942053852420 V
atom 6.0003477923224802 2.7899109138722942 17.3090108121263455 O
atom 7.8487595517198514 2.7899097540582209 19.1575874371322925 O
atom 8.3073038667880628 4.1848758133611605 16.8505222691796703 O
atom 5.5418691027901668 4.1846125545794841 19.6160993136073643 O
atom 0.0012018781446493 5.5789919024169219 20.5410699795974168 V
atom 2.3092038416900773 1.3947706208112125 22.8487378748086556 V
atom 1.3844210393419207 5.5788484904536562 21.9239773724171201 O
atom 3.2339835362026665 5.5788539710804628 23.7733657026625664 O
atom 3.6920418024521164 1.3945664501519510 21.4658933952300615 O
atom 2.3092090267115619 4.1843113008113697 22.8487378797240623 V
atom 1.3846325389830851 2.7897913805786332 21.9241918825099376 O
atom 3.2338389375071697 2.7897977409759092 23.7731927004155423 O
atom 3.6920386324563719 4.1845247303097919 21.4661231000400861 O
atom 4.6169661309984606 0.0000327374719370 20.5411544091730605 V
atom 6.9248880849572103 1.3945641658882335 22.8488410363839094 V
atom 6.0001731221662462 5.5790147355087667 21.9240582422783987 O
atom 7.8496111088072036 5.5790141861408902 23.7734363852066011 O
atom 8.3081646547360215 1.3934504848399354 21.4654901879903761 O
atom 4.6170323843431440 2.7895490074129219 20.5410765827913409 V
atom 6.9249005201289444 4.1845116958911719 22.8488461608655058 V
atom 6.0004400093399983 2.7895905855511085 21.9241597414302802 O
atom 7.8495468207485777 2.7895878860497945 23.7732946814845434 O
atom 8.3081385714520053 4.1855500348889558 21.4655572318310348 O
