#===============================================================================
# Created using the Atomic Simulation Environment (ASE)

# Mon Mar 23 14:01:47 2026

#=======================================================
lattice_vector 9.2314623421363340 0.0000000000000000 0.0000000000000000 
lattice_vector 0.0003972008493561 9.2315018135911977 0.0000000000000000 
lattice_vector 0.0000000000000000 0.0000000000000000 35.5795260677058494 
atom 0.0000439815243607 0.0000178988777078 15.0004046927175807 V
atom 1.3830108882743284 1.3831775568845646 15.0002601850701538 O
atom 3.2324787973402462 3.2326604789984876 15.0002642004177176 O
atom 1.3832903587423466 5.9989296319567629 15.0004264300611894 O
atom 3.2327480751289768 7.8482880442893412 15.0004244154221418 O
atom 5.9992201032097778 1.3833586365746176 15.0000000000000000 O
atom 7.8486103563523173 3.2325662103593999 15.0000068753832032 O
atom 4.6158860923622038 4.6157383275598107 15.0004111327301715 V
atom 5.9991622263071012 5.9987681589031867 15.0001557450617078 O
atom 7.8490879583402355 7.8483890211674145 15.0001556503455937 O
atom 0.0000484019886503 0.0000217087262182 20.5794449627167815 V
atom 2.3078122855400554 2.3079243789961832 16.3952218527360429 V
atom 1.3830153087386179 1.3831813667330752 20.5793004550693546 O
atom 3.2324832178045360 3.2326642888469985 20.5793044704169148 O
atom 0.9250273060027733 3.6908218376813084 16.3950187777110941 O
atom 3.6907090906782041 0.9252909278343240 16.3947041677227325 O
atom 9.2316814442587809 9.2312661422298525 17.7900415427669003 V
atom 2.3078145008450122 2.3079295639223552 19.1847625327353200 V
atom 1.3832276181480387 1.3833928572394676 17.7902433450252495 O
atom 3.2323079995534418 3.2325196976904267 17.7902482404503104 O
atom 0.9252592211735137 3.6908186577070201 19.1849770576860621 O
atom 3.6904794659355473 0.9252888078469012 19.1852465677480950 O
atom 0.0003270123268474 4.6157859538649220 15.0004857977066521 V
atom 2.3081140445078243 6.9236086135521253 16.3950153977313278 V
atom 1.3832947792066366 5.9989334418052724 20.5794667000603901 O
atom 3.2327524955932661 7.8482918541378517 20.5794646854213426 O
atom 0.9248227143073521 8.3069447030410171 16.3939028127185438 O
atom 3.6912675470887204 5.5403932368333546 16.3941492627472982 O
atom 0.0002513989429736 4.6158522104630597 17.7900020677084214 V
atom 2.3081213800132643 6.9236210484082488 19.1849629277293303 V
atom 1.3833940797675524 5.9992003247067007 17.7900425500231876 O
atom 3.2326085790294159 7.8482275722714157 17.7900383854433919 O
atom 0.9248919692195317 8.3069186167771658 19.1860023627135661 O
atom 3.6912020832144088 5.5404259534213693 19.1857780127512605 O
atom 4.6156959832704025 0.0000490405880592 15.0004771677231723 V
atom 6.9238157474488906 2.3079643331212254 16.3950486977023111 V
atom 5.9992245236740676 1.3833624464231282 20.5790402699992043 O
atom 7.8486147768166070 3.2325700202079113 20.5790471453824040 O
atom 5.5405102269654156 3.6912862829344877 16.3941298226924737 O
atom 8.3071301423242634 0.9243923029115386 16.3938833427358297 O
atom 4.6161473977160536 9.2314767479841819 17.7899917777245733 V
atom 6.9238171125507968 2.3079579581068095 19.1850065677028212 V
atom 5.9994207390580945 1.3833840373297661 17.7905315099755761 O
atom 7.8484441067297466 3.2323373190073341 17.7905373254239834 O
atom 5.5405584110344952 3.6912231270828495 19.1858125526934558 O
atom 8.3071043894530252 0.9244689786969149 19.1860362727311227 O
atom 4.6158905128264927 4.6157421374083212 20.5794514027293722 V
atom 6.9240279144574908 6.9235569996142949 16.3949408627164246 V
atom 5.9991666467713909 5.9987719687516972 20.5791960150609121 O
atom 7.8490923788045253 7.8483928310159250 20.5791959203447945 O
atom 5.5413366658920955 8.3065002062718545 16.3946251076767133 O
atom 8.3067676407480011 5.5405096818821562 16.3949356677611000 O
atom 4.6160481813462777 4.6159139990568132 17.7900554326951514 V
atom 6.9240317597281607 6.9235577945596019 19.1850313927159561 V
atom 5.9997074931594110 5.9993066822126595 17.7903665349490012 O
atom 7.8483636474689087 7.8476389017892538 17.7903639104988045 O
atom 5.5413193165290773 8.3062824817338115 19.1853317977001012 O
atom 8.3067773707183594 5.5407287267048693 19.1850663477384735 O
atom 0.0003314327911370 4.6157897637134324 20.5795260677058529 V
atom 4.6157004037346923 0.0000528504365696 20.5795174377223731 V
