#===============================================================================
# Created using the Atomic Simulation Environment (ASE)

# Mon Mar 23 14:01:48 2026

#=======================================================
lattice_vector 13.0550062955565522 0.0000000000000000 0.0000000000000000 
lattice_vector -0.0000004316329117 5.5790402700022366 0.0000000000000000 
lattice_vector 0.0000000000000000 0.0000000000000000 48.9354198289220648 
atom 6.5275142209905539 2.7894669208890721 16.3075479011713682 V
atom 9.7912026673181547 4.1844930656682449 16.3077944252154623 V
atom 9.7911317093325678 0.0000431275496138 15.0000000000000000 O
atom 7.8349016576377828 4.1856056506962807 16.3077798059996795 O
atom 11.7473208616220557 4.1853592006496543 16.3077969401453053 O
atom 9.7911990612020645 1.3945455356571772 16.3078054945809683 V
atom 9.7910132045990483 2.7894672773151985 15.0002618377665833 O
atom 7.8349690733078932 1.3935061006709331 16.3078074198873608 O
atom 11.7472514380990596 1.3937304506713630 16.3077708706154247 O
atom 3.2637821796266402 0.0004695571851334 15.0004080649629650 O
atom 5.2202278710091923 4.1856251206020998 16.3078535168742320 O
atom 3.2639056541360700 2.7889783170465825 15.0005649889936077 O
atom 13.0549550934758560 0.0000570606583419 16.3078036086263047 V
atom 6.5274923778846476 0.0000635005837959 16.3078871463136608 V
atom 6.5273170469529784 4.1842832059940598 19.5716606277115162 V
atom 6.5273098205675968 0.0002059679047788 18.2638339942524226 O
atom 6.5272373422882355 0.0001992241689707 20.8793872092670334 O
atom 4.5716842389432299 4.1844862809842924 19.5716939085229704 O
atom 8.4828422398078995 4.1848008907648682 19.5718930992573732 O
atom 13.0549894515925278 2.7894601114963007 22.8353319116999529 V
atom 6.5273149469899154 1.3947425259908421 19.5716629505339341 V
atom 6.5273103925317146 2.7892630776347662 18.2641365754374760 O
atom 6.5272156910106114 2.7892554543699561 20.8791639787302117 O
atom 4.5718504724890074 1.3945280008421193 19.5718527423460920 O
atom 8.4826813735285445 1.3942584909119666 19.5717263162559441 O
atom 3.2637739877657017 5.5790192608256461 19.5718509795138438 V
atom 3.2636716023635728 4.1844862562754743 22.8355784357440470 V
atom 3.2636006443779868 0.0000363181568426 21.5277840105285847 O
atom 9.7911400677040650 0.0000424138997735 17.6154579679094461 O
atom 1.3073705926832015 4.1855988413035101 22.8355638165282642 O
atom 5.2197897966674720 4.1853523912568829 22.8355809506738936 O
atom 3.2636736706958951 2.7895029908322964 19.5718414510384520 V
atom 3.2636679962474875 1.3945387262644060 22.8355895051095565 V
atom 3.2634821396444740 2.7894604679224271 21.5280458482951715 O
atom 9.7910837609514978 2.7894687140297738 17.6153136578179819 O
atom 1.3074380083533121 1.3934992912781619 22.8355914304159455 O
atom 5.2197203731444786 1.3937236412785918 22.8355548811440130 O
atom 9.7911515606768678 5.5790278909194813 19.5717451890075154 V
atom 3.2637437132969964 4.1844597654938545 16.3079894170461053 V
atom 9.7912574102286136 0.0004627477923623 21.5281920754915532 O
atom 3.2638494968917029 0.0004599536740643 17.6157116715801862 O
atom 1.3074426683056071 4.1853786405398417 16.3079547653215542 O
atom 11.7477031016111617 4.1856183112093284 22.8356375274028167 O
atom 9.7912422968041657 2.7895132809342664 19.5717282151077470 V
atom 3.2637491864695192 1.3945018954985591 16.3079829643157304 V
atom 9.7913808847380395 2.7889715076538111 21.5283489995221942 O
atom 3.2638933662589613 2.7889697739284967 17.6154293548512157 O
atom 1.3075213977689317 1.3936959105514184 16.3079412684186806 O
atom 5.2201554421598777 1.3934721905707690 16.3078866104925950 O
atom 6.5274240285212715 0.0000502512655708 22.8355876191548930 V
atom 0.0000996690537081 4.1845641958900650 19.5717791255287814 V
atom 0.0000766955624022 0.0003104078680245 18.2638773193559025 O
atom 0.0002303986282692 0.0003077737564555 20.8798518078648883 O
atom 11.0995070833721030 4.1848799507921806 19.5719110337675914 O
atom 1.9558064477972590 4.1845693910240245 19.5716078814580570 O
atom 13.0549450519071364 2.7894530304479805 16.3080395311360391 V
atom 0.0001018258818497 1.3944736658886310 19.5717794962528728 V
atom 0.0000810142087047 2.7891398871850721 18.2646407642607009 O
atom 0.0002482410243946 2.7891397846945503 20.8788063180910939 O
atom 11.0996487739485552 1.3941732609436996 19.5717419036714162 O
atom 1.9556584360196954 1.3944387108794267 19.5717667356679215 O
atom 13.0549676084866171 0.0000566911910248 22.8356711568422455 V
atom 13.0547922775549505 4.1842763966012884 26.0994446382401080 V
atom 13.0547850511695636 0.0001991585120077 24.7916180047810073 O
atom 13.0547125728902085 0.0001924147761996 27.4071712197956217 O
atom 11.0991594695451958 4.1844794715915210 26.0994779190515587 O
atom 1.9553111748533150 4.1847940813720976 26.0996771097859579 O
atom 6.5274583866379423 2.7894533021035297 29.3631159222285412 V
atom 13.0547901775918884 1.3947357165980709 26.0994469610625188 V
atom 13.0547856231336858 2.7892562682419948 24.7919205859660607 O
atom 13.0546909216125844 2.7892486449771852 27.4069479892587999 O
atom 11.0993257030909831 1.3945211914493483 26.0996367528746802 O
atom 1.9551503085739612 1.3942516815191957 26.0995103267845323 O
atom 9.7912492183676800 5.5790124514328756 26.0996349900424320 V
atom 9.7911468329655484 4.1844794468827029 29.3633624462726353 V
atom 9.7910758749799598 0.0000295087640715 28.0555680210571765 O
atom 3.2636090027494826 0.0000356045070024 24.1432419784380343 O
atom 7.8348458232851685 4.1855920319107387 29.3633478270568524 O
atom 11.7472650272694406 4.1853455818641114 29.3633649612024783 O
atom 9.7911489012978663 2.7894961814395254 26.0996254615670402 V
atom 9.7911432268494600 1.3945319168716350 29.3633735156381448 V
atom 9.7909573702464421 2.7894536585296561 28.0558298588237562 O
atom 3.2635526959969172 2.7894619046370024 24.1430976683465701 O
atom 7.8349132389552816 1.3934924818853909 29.3633754409445338 O
atom 11.7471956037464516 1.3937168318858209 29.3633388916726012 O
atom 3.2636204957222854 5.5790210815267098 26.0995291995361072 V
atom 9.7912189438989685 4.1844529561010830 22.8357734275746935 V
atom 3.2637263452740299 0.0004559383995911 28.0559760860201379 O
atom 9.7913247274936754 0.0004531442812932 24.1434956821087745 O
atom 7.8349178989075794 4.1853718311470711 22.8357387758501460 O
atom 5.2201720366565825 4.1856115018165569 29.3634215379314085 O
atom 3.2637112318495842 2.7895064715414950 26.0995122256363352 V
atom 9.7912244170714917 1.3944950861057881 22.8357669748443151 V
atom 3.2638498197834598 2.7889646982610401 28.0561330100507824 O
atom 9.7913685968609272 2.7889629645357252 24.1432133653798040 O
atom 7.8349966283709005 1.3936891011586472 22.8357252789472653 O
atom 11.7476306727618471 1.3934653811779980 22.8356706210211833 O
atom 13.0548992591232444 0.0000434418727997 29.3633716296834812 V
atom 6.5275748996556775 4.1845573864972936 26.0995631360573697 V
atom 6.5275519261643744 0.0003035984752533 24.7916613298844908 O
atom 6.5277056292302422 0.0003009643636844 27.4076358183934730 O
atom 4.5719760184175167 4.1848731413994091 26.0996950442961761 O
atom 8.4832816783992318 4.1845625816312539 26.0993918919866452 O
atom 6.5274139869525545 2.7894462210552091 22.8358235416646238 V
atom 6.5275770564838247 1.3944668564958598 26.0995635067814611 V
atom 6.5275562448106745 2.7891330777923007 24.7924247747892892 O
atom 6.5277234716263699 2.7891329753017793 27.4065903286196821 O
atom 4.5721177089939742 1.3941664515509287 26.0995259142000080 O
atom 8.4831336666216650 1.3944319014866557 26.0995507461965097 O
atom 6.5274365435320423 0.0000498817982536 29.3634551673708337 V
atom 6.5272612126003704 4.1842695872085169 32.6272286487686927 V
atom 6.5272539862149772 0.0001923491192365 31.3194020153095956 O
atom 6.5271815079356275 0.0001856053834284 33.9349552303242064 O
atom 4.5716284045906166 4.1844726621987505 32.6272619295801434 O
atom 8.4827864054552968 4.1847872719793262 32.6274611203145497 O
atom 6.5272591126373056 1.3947289072052997 32.6272309715911035 V
atom 6.5272545581791075 2.7892494588492243 31.3197045964946490 O
atom 6.5271598566580069 2.7892418355844142 33.9347319997873882 O
atom 4.5717946381363994 1.3945143820565771 32.6274207634032649 O
atom 8.4826255391759364 1.3942448721264245 32.6272943373131170 O
atom 3.2637181534130977 5.5790056420401042 32.6274190005710238 V
atom 9.7910842333514498 0.0000287951142312 30.6710259889666190 O
atom 3.2636178363432791 2.7894893720467544 32.6274094720956285 V
atom 9.7910279265988898 2.7894550952442319 30.6708816788751584 O
atom 9.7910957263242615 5.5790142721339384 32.6273132100646919 V
atom 3.2636878789443831 4.1844461467083125 29.3635574381032782 V
atom 3.2637936625390958 0.0004463348885220 30.6712796926373628 O
atom 1.3073868339530026 4.1853650217542997 29.3635227863787307 O
atom 9.7911864624515577 2.7894996621487245 32.6272962361649235 V
atom 3.2636933521169058 1.3944882767130169 29.3635509853729033 V
atom 3.2638375319063542 2.7889561551429547 30.6709973759083923 O
atom 1.3074655634163213 1.3936822917658760 29.3635092894758536 O
atom 5.2200996078072706 1.3934585717852268 29.3634546315497715 O
atom 0.0000438347010978 4.1845505771045222 32.6273471465859544 V
atom 0.0000208612098006 0.0002967890824822 31.3194453404130790 O
atom 0.0001745642756619 0.0002941549709132 33.9354198289220648 O
atom 11.0994512490194897 4.1848663320066386 32.6274790548247609 O
atom 1.9557506134446487 4.1845557722384825 32.6271759025152335 O
atom 13.0548892175545266 2.7894394116624386 29.3636075521932156 V
atom 0.0000459915292365 1.3944600471030886 32.6273475173100564 V
atom 0.0000251798560916 2.7891262683995302 31.3202087853178739 O
atom 0.0001924066717931 2.7891261659090083 33.9343743391482775 O
atom 11.0995929395959472 1.3941596421581575 32.6273099247285927 O
atom 1.9556026016670851 1.3944250920938845 32.6273347567250909 O
