#===============================================================================
# Created using the Atomic Simulation Environment (ASE)

# Mon Mar 23 14:01:44 2026

#=======================================================
lattice_vector 10.7779019647855687 0.0000000000000000 0.0000000000000000 
lattice_vector 4.9380262626701636 13.2931389776887805 0.0000000000000000 
lattice_vector 0.0000000000000000 0.0000000000000000 44.2868660526440578 
atom 10.2726186512975666 5.3992380061164722 17.1628211332872986 V
atom 3.4227296690513112 7.1305650488295154 15.5040544633768818 V
atom 12.9631870283745076 6.9962664916177779 18.8175326916623682 V
atom 11.7905085028318499 4.2464009570618328 16.9952963366391927 O
atom 4.5952464356305134 8.6052073785404755 16.0013554115359682 O
atom 12.6836350003936911 8.2811964945545462 15.6652547238371298 O
atom 9.0950765783505787 3.9262078051898865 16.6627149268045756 O
atom 11.4503968353134926 6.8757718466766953 17.6621870061637907 O
atom 10.3287572367449005 5.9739071225347589 15.3363728969570232 O
atom 2.2448405323327179 5.6509040970857463 15.0038199022677077 O
atom 3.3617417984011397 6.5573094007076813 17.3333087248601778 O
atom 9.0371451081308987 2.0784386241737511 17.1628257741881853 V
atom 11.7310687192382375 3.6778217796212145 18.8242979465411793 V
atom 4.6549676194724725 10.4470910344121481 15.4972479662196712 V
atom 2.1257082038654649 5.1543226266362465 19.3218689964668080 O
atom 10.2135221946863659 4.8302441984660662 18.9856326367364616 O
atom 7.8594161933382614 2.5225718315343006 18.6577008002041715 O
atom 10.5537857891211200 2.2000974315611352 18.3229925075557070 O
atom 11.5065469963137730 8.7303055936294971 17.1695590936979130 V
atom 14.2002670184606821 10.3263543999557648 18.8245153741400912 V
atom 2.1871930024605697 3.8050491673890825 15.5010432523335133 V
atom 4.5967526891201960 11.7982108025735251 19.3235192157914852 O
atom 12.6806756598053756 11.4799109026393875 18.9907390310832653 O
atom 10.3311522802012625 9.1680073725044053 18.6530759585219528 O
atom 13.0210824639632037 8.8491827600143598 18.3230662314609667 O
atom 12.7413567799787621 12.0468404608862443 17.1631345697684239 V
atom 0.9543056289424827 0.4821653663580294 15.5026707103989452 V
atom 10.4953283379099531 0.3542789661515074 18.8226097747101520 V
atom 14.2560839218034747 10.8938921618765523 16.9989773303212601 O
atom 2.1284722198726502 1.9559977411194265 16.0023464954103751 O
atom 10.2118356471927765 1.6364191248321636 15.6687909501518519 O
atom 11.5661326579335721 10.5710039134156553 16.6634832560746133 O
atom 8.9791805285603115 0.2307105340426230 17.6628593917520966 O
atom 12.8012777939710727 12.6177788494210699 15.3324704954214894 O
atom 4.7140321908275968 12.2991932463471780 15.0000000000000000 O
atom 5.8346533430359244 13.2030397199521872 17.3280781823833436 O
atom 4.8822630934023623 5.3990455214972251 17.1619928145379212 V
atom 8.8090316650926983 7.1288456257986583 15.5008966618654540 V
atom 7.5754449169218896 6.9944904900830958 18.8162221076109830 V
atom 6.4009060182156743 4.2447245467158465 16.9939109447538428 O
atom 9.9846967726339297 8.6054452177860501 16.0008232530951489 O
atom 7.2948242481646437 8.2800632648959667 15.6652406380242439 O
atom 3.7067480853811388 3.9261880847739787 16.6624126407163260 O
atom 6.0600943216267993 6.8758562715440013 17.6622898156603618 O
atom 4.9400130407617295 5.9740068306130949 15.3362215417789152 O
atom 7.6344404477607712 5.6514285747835915 15.0019731975576534 O
atom 8.7509958911168244 6.5568439715327296 17.3325911108483410 O
atom 3.6486528659806394 2.0776424724843436 17.1625685136862209 V
atom 6.3406440380955829 3.6776301901686539 18.8215801559723701 V
atom 10.0455175181230132 10.4443427333682255 15.4952899081574813 V
atom 7.5159264757277500 5.1540356798781639 19.3216476654440257 O
atom 4.8257166675745671 4.8306866413456566 18.9866956895243320 O
atom 2.4694633696626238 2.5219154284547072 18.6572356163993192 O
atom 5.1655782032918154 2.2006294152455905 18.3218574443688311 O
atom 6.1186096175554958 8.7290585954906259 17.1687493610093647 V
atom 8.8082715400086951 10.3257120125261412 18.8218097582077277 V
atom 7.5763813864763963 3.8032344217730047 15.5000985456340281 V
atom 9.9869758717301185 11.7987118483972679 19.3221141421684095 O
atom 7.2919658838458137 11.4792083854774560 18.9905404813467094 O
atom 4.9423243535975567 9.1678890308246945 18.6524810472839100 O
atom 7.6312369601349239 8.8496446573028109 18.3234429324694332 O
atom 7.3517658409335933 12.0464230054448596 17.1610844479790075 V
atom 6.3411514086378871 0.4817558155005074 15.4998986798520093 V
atom 5.1076600387207813 0.3530358677108483 18.8222237469622726 V
atom 8.8689957188766613 10.8945788406566777 17.0002127516799924 O
atom 7.5197335206372644 1.9552473176716811 16.0006639212146524 O
atom 4.8235796787755048 1.6368187788091539 15.6694911440241071 O
atom 6.1791789009491254 10.5702179520844570 16.6627513648468408 O
atom 3.5906947324854106 0.2310694244532271 17.6625606455873339 O
atom 7.4121783055001815 12.6180967219752933 15.3318254004210743 O
atom 10.1022810387898989 12.2996641575638783 15.0008427238810782 O
atom 11.2231041709694246 13.2026314713921860 17.3278382800994066 O
atom 10.2712807465183733 11.7910570014880935 23.8050809119041418 V
atom 11.5054406060352203 11.9214462182678815 20.4855209474861439 V
atom 9.2612674663875261 0.2292450665123603 22.1463142419937249 V
atom 8.0238228609251507 0.0949465093006185 25.4597924702792149 V
atom 11.7891705980526602 10.6382199524334577 23.6375561152560358 O
atom 10.4337842329667279 1.7038873962233176 22.6436151901528113 O
atom 7.7442708329443342 1.3798765122373877 22.3075145024539729 O
atom 9.0937386735713872 10.3180268005615101 23.3049747054214116 O
atom 11.4490589305343029 13.2675908420483175 24.3044467847806338 O
atom 10.3274193319657108 12.3657261179063820 21.9786326755738628 O
atom 13.0214045923390955 12.0427230924573703 21.6460796808845473 O
atom 14.1383058584075165 12.9491283960793027 23.9755685034770210 O
atom 7.8030309236587794 1.9490498348377332 20.4844634547601494 V
atom 9.0358072033517054 8.4702576195453769 23.8050855528050320 V
atom 11.7297308144590477 10.0696407749928358 25.4665577251580260 V
atom 10.4935054168086861 3.5457710520949903 22.1395077448365143 V
atom 9.3208011200624359 0.7947178458393344 20.3162744463177631 O
atom 12.9022722638718417 11.5461416220078714 25.9641287750836511 O
atom 10.2121842899071762 11.2220631938376911 25.6278924153533012 O
atom 6.6256264300573724 0.4760467922473128 19.9836117852751620 O
atom 8.9805335166827920 3.4246572631139158 20.9844234720279843 O
atom 7.8580782885590663 8.9143908269059242 25.2999605788210182 O
atom 10.5524478843419303 8.5919164269327606 24.9652522861725501 O
atom 11.6697550091221274 3.1069594061666441 20.6536386568067272 O
atom 10.2721186427885129 8.5956600555941964 20.4837597954371304 V
atom 6.5671828288644205 1.8289856113123395 23.8118188723147561 V
atom 9.2609028510113252 3.4250344176386078 25.4667751527569379 V
atom 12.9637570624669483 10.1968681627607065 22.1433030309503565 V
atom 11.7868643225339245 7.4446529561693922 20.3204471141949625 O
atom 10.4352904864564113 4.8968908202563668 25.9657789944083319 O
atom 7.7413114923560222 4.5785909203222301 25.6329988097001085 O
atom 9.0969684655612859 7.1193799662175854 19.9847985740395302 O
atom 11.4481770725019718 10.0736317572671812 20.9829237245923608 O
atom 5.3917881127519065 2.2666873901872457 25.2953357371387959 O
atom 8.0817182965138485 1.9478627776972013 24.9653260100778098 O
atom 14.1420265128721905 9.7513312994220378 20.6495263857043696 O
atom 7.8019926125294079 5.1455204785690869 23.8053943483852706 V
atom 9.0372261980343414 5.2793250096251638 20.4891880504548176 V
atom 11.7308696889488608 6.8739843617296534 22.1449304890157919 V
atom 10.4939904331307616 6.7460979615231329 25.4648695533269951 V
atom 9.3167197543541214 3.9925721795593945 23.6412371089381068 O
atom 12.9050362798790257 8.3478167364910494 22.6446062740272183 O
atom 10.2104977424135850 8.0282381202037865 22.3110507287686914 O
atom 6.6267684904842152 3.6696839310984966 23.3057430346914565 O
atom 8.9778426237811200 6.6225295294142459 24.3051191703689398 O
atom 7.8619136265217175 5.7164588671039134 21.9747302740383326 O
atom 10.5525699881638104 5.3978732640300207 21.6422597786168467 O
atom 11.6731911403721362 6.3017197376350289 23.9703379610001868 O
atom 4.8809251886231708 11.7908645168688473 23.8042525931547644 V
atom 6.1170236848310564 11.9205408993976274 20.4852152544392823 V
atom 3.8696674976433436 0.2275256434815015 22.1431564404822971 V
atom 2.6360807494725358 0.0931705077659355 25.4584818862278297 V
atom 6.3995681134364837 10.6365435420874661 23.6361707233706859 O
atom 5.0453326051845755 1.7041252354688925 22.6430830317119955 O
atom 2.3554600807152903 1.3787432825788117 22.3075004166410906 O
atom 14.4833121453875169 10.3180070801456001 23.3046724193331691 O
atom 6.0587564168476078 13.2676752669156262 24.3045495942772050 O
atom 4.9386751359825380 12.3658258259847180 21.9784813203957583 O
atom 7.6331025429815806 12.0432475701552146 21.6442329761745000 O
atom 8.7496579863376329 12.9486629669043509 23.9748508894651877 O
atom 2.4123874501400251 1.9489922872112599 20.4829170369158078 V
atom 3.6473149612014475 8.4694614678559663 23.8048282923030641 V
atom 6.3393061333163923 10.0694491855402752 25.4638399345892132 V
atom 5.1061533506736581 3.5430227510510668 22.1375496867743280 V
atom 3.9326036966950517 0.7950127919681331 20.3171153043893042 O
atom 7.5145885709485585 11.5458546752497853 25.9639074440608688 O
atom 4.8243787627953765 11.2225056367172797 25.6289554681411751 O
atom 1.2375950885753175 0.4755052640685880 19.9830941158646382 O
atom 3.5907268349422226 3.4247933460674416 20.9851279021519730 O
atom 13.2460274296690006 8.9137344238263285 25.2994953950161658 O
atom 5.1642402985126239 8.5924484106172123 24.9641172229856743 O
atom 6.2808947562740931 3.1066387134254536 20.6529062702285593 O
atom 4.8817052251462671 8.5953910096205846 20.4826511890382008 V
atom 1.1792454501061398 1.8277386131734679 23.8110091396262078 V
atom 3.8689073725593399 3.4243920302089830 25.4640695368245709 V
atom 7.5750434816972048 10.1950534171446261 22.1423583242508712 V
atom 6.3980753553882037 7.4438120344568208 20.3199523350059579 O
atom 5.0476117042807624 4.8973918660801115 25.9643739207852562 O
atom 2.3526017163964590 4.5778884031602960 25.6328002599635525 O
atom 3.7083354604314644 7.1197401585226157 19.9846851836842845 O
atom 6.0580942719946149 10.0737720683721061 20.9822169808874861 O
atom 10.7808621509337712 2.2665690485075336 25.2947408259007567 O
atom 2.6918727926855683 1.9483246749856529 24.9657027110862764 O
atom 8.7535540605488453 9.7510510418193199 20.6489308667831821 O
atom 2.4124016734842377 5.1451030231277004 23.8033442265958506 V
atom 3.6488112235771890 5.2780358117549602 20.4880836051175876 V
atom 6.3398135038586965 6.8735748108721291 22.1421584584688489 V
atom 5.1063221339415898 6.7448548630824687 25.4644835255791122 V
atom 3.9296315514273061 3.9932588583395199 23.6424725302968355 O
atom 7.5183956158580729 8.3470663130433049 22.6429236998314991 O
atom 4.8222417739963133 8.0286377741807762 22.3117509226409503 O
atom 12.0177166982853389 3.6688979697672970 23.3050111434636875 O
atom 3.5893568277062196 6.6228884198248483 24.3048204242041805 O
atom 2.4728141380508268 5.7167767396581333 21.9740851790379210 O
atom 5.1629168713405429 5.3983441752467209 21.6431025024979249 O
atom 6.2837400035200686 6.3013114890750295 23.9700980587162533 O
atom 6.5660764385858661 5.0201262359507259 27.1277807261029835 V
atom 9.2599295616083381 6.6210640618839829 28.7885740206105680 V
atom 10.4324463281875364 8.0957063915949430 29.2858749687696545 O
atom 7.7429329281651444 7.7716955076090128 28.9497742810708161 O
atom 5.3880551645163548 5.4644061355892246 28.6208924541907095 O
atom 8.0820404248897404 5.1414031101402111 28.2883394595013868 O
atom 7.8016930188795870 8.3408688302093577 27.1267232333769925 V
atom 10.4921675120294964 9.9375900474666157 28.7817675234533539 V
atom 9.3194632152832462 7.1865368412109563 26.9585342249346063 O
atom 6.6242885252781818 6.8678657876189382 26.6258715638920016 O
atom 8.9791956119036040 9.8164762584855385 27.6266832506448310 O
atom 11.6684171043429377 9.4987784015382672 27.2958984354235668 O
atom 5.3327544753391596 1.6943400732770397 27.1260195740539700 V
atom 8.0243928950175949 3.2955481804435509 28.7855628095671960 V
atom 6.8475001550845693 0.5433329738522350 26.9627068928118021 O
atom 4.1576042981119299 0.2180599839004267 26.6270583526563733 O
atom 6.5088129050526140 3.1723117749500251 27.6251835032092004 O
atom 9.2026623454228371 2.8500113171048800 27.2917861643212092 O
atom 9.0358882932551481 11.6711440049967869 27.1314478290716607 V
atom 11.7295317841696676 13.2658033571012748 28.7871902676326386 V
atom 7.9656721124296723 1.4464967541738942 29.2868660526440578 O
atom 5.2711335749642290 1.1269181378866289 28.9533105073855381 O
atom 7.8605757217425278 12.1082778624755374 28.6169900526551757 O
atom 10.5512320833846207 11.7896922594016456 28.2845195572336792 O
atom 11.9555614821672709 5.0192209170804682 27.1274750330561290 V
atom 3.8683295928641517 6.6193446388531223 28.7854162190991474 V
atom 5.0439947004053840 8.0959442308405158 29.2853428103288422 O
atom 13.1320241407216667 7.7705622779504342 28.9497601952579373 O
atom 10.7772129333187525 5.4645058436675598 28.6207410990126050 O
atom 2.6937383755322255 5.1419275878380564 28.2864927547913396 O
atom 13.1889515101464028 8.3408112825828820 27.1251768155326474 V
atom 5.1048154458944675 9.9348417464226895 28.7798094653911676 V
atom 3.9312657919158598 7.1868317873397540 26.9593750830061509 O
atom 12.0141591485816939 6.8673242594402097 26.6253538944814814 O
atom 14.3672908949485993 9.8166123414390665 27.6273876807688197 O
atom 6.2795568514949025 9.4984577087970781 27.2951660488454024 O
atom 10.7202430224824816 1.6940710273034314 27.1249109676550404 V
atom 2.6356793142478505 3.2937334348274701 28.7846181028677108 V
atom 1.4587111879388490 0.5424920521396642 26.9622121136228010 O
atom 9.5468732577676771 0.2184201762054577 26.6269449623011276 O
atom 11.8966320693308294 3.1724520860549488 27.6244767595043328 O
atom 3.8141898930994911 2.8497310595021643 27.2911906454000217 O
atom 14.4253752835835645 11.6698548071265815 27.1303433837344272 V
atom 6.3384755990795050 13.2653938062437504 28.7844182370856956 V
atom 2.5790314484087182 1.4457463307261453 29.2851834784483458 O
atom 10.6607795713325260 1.1273177918636195 28.9540107012577934 O
atom 13.2493781980572045 12.1085957350297608 28.6163449576547606 O
atom 5.1615789665613523 11.7901631706183441 28.2853622811147574 O
